      -----------------------------------------------------------      
     |                   =====================                   |     
     |                           x T B                           |     
     |                   =====================                   |     
     |                         S. Grimme                         |     
     |          Mulliken Center for Theoretical Chemistry        |     
     |                    University of Bonn                     |     
      -----------------------------------------------------------      

   * xtb version 6.6.1 (unknown) compiled by 'builduser@buildhost' on 2023-08-07

   xtb is free software: you can redistribute it and/or modify it under
   the terms of the GNU Lesser General Public License as published by
   the Free Software Foundation, either version 3 of the License, or
   (at your option) any later version.
   
   xtb is distributed in the hope that it will be useful,
   but WITHOUT ANY WARRANTY; without even the implied warranty of
   MERCHANTABILITY or FITNESS FOR A PARTICULAR PURPOSE.  See the
   GNU Lesser General Public License for more details.
   
   Cite this work as:
   * C. Bannwarth, E. Caldeweyher, S. Ehlert, A. Hansen, P. Pracht,
     J. Seibert, S. Spicher, S. Grimme, WIREs Comput. Mol. Sci., 2020, 11,
     e01493. DOI: 10.1002/wcms.1493
   
   for GFN2-xTB:
   * C. Bannwarth, S. Ehlert and S. Grimme., J. Chem. Theory Comput., 2019,
     15, 1652-1671. DOI: 10.1021/acs.jctc.8b01176
   for GFN1-xTB:
   * S. Grimme, C. Bannwarth, P. Shushkov, J. Chem. Theory Comput., 2017,
     13, 1989-2009. DOI: 10.1021/acs.jctc.7b00118
   for GFN0-xTB:
   * P. Pracht, E. Caldeweyher, S. Ehlert, S. Grimme, ChemRxiv, 2019, preprint.
     DOI: 10.26434/chemrxiv.8326202.v1
   for GFN-FF:
   * S. Spicher and S. Grimme, Angew. Chem. Int. Ed., 2020, 59, 15665-15673.
     DOI: 10.1002/anie.202004239
   
   for ALPB and GBSA implicit solvation:
   * S. Ehlert, M. Stahn, S. Spicher, S. Grimme, J. Chem. Theory Comput.,
     2021, 17, 4250-4261. DOI: 10.1021/acs.jctc.1c00471
   
   for DFT-D4:
   * E. Caldeweyher, C. Bannwarth and S. Grimme, J. Chem. Phys., 2017,
     147, 034112. DOI: 10.1063/1.4993215
   * E. Caldeweyher, S. Ehlert, A. Hansen, H. Neugebauer, S. Spicher,
     C. Bannwarth and S. Grimme, J. Chem. Phys., 2019, 150, 154122.
     DOI: 10.1063/1.5090222
   * E. Caldeweyher, J.-M. Mewes, S. Ehlert and S. Grimme, Phys. Chem. Chem. Phys.
     2020, 22, 8499-8512. DOI: 10.1039/D0CP00502A
   
   for sTDA-xTB:
   * S. Grimme and C. Bannwarth, J. Chem. Phys., 2016, 145, 054103.
     DOI: 10.1063/1.4959605
   
   in the mass-spec context:
   * V. Asgeirsson, C. Bauer and S. Grimme, Chem. Sci., 2017, 8, 4879.
     DOI: 10.1039/c7sc00601b
   * J. Koopman and S. Grimme, ACS Omega 2019, 4, 12, 15120-15133.
     DOI: 10.1021/acsomega.9b02011
   
   for metadynamics refer to:
   * S. Grimme, J. Chem. Theory Comput., 2019, 155, 2847-2862
     DOI: 10.1021/acs.jctc.9b00143
   
   for SPH calculations refer to:
   * S. Spicher and S. Grimme, J. Chem. Theory Comput., 2021, 17, 1701-1714
     DOI: 10.1021/acs.jctc.0c01306
   
   with help from (in alphabetical order)
   P. Atkinson, C. Bannwarth, F. Bohle, G. Brandenburg, E. Caldeweyher
   M. Checinski, S. Dohm, S. Ehlert, S. Ehrlich, I. Gerasimov, C. Hölzer
   A. Katbashev, J. Koopman, C. Lavigne, S. Lehtola, F. März, M. Müller,
   F. Musil, H. Neugebauer, J. Pisarek, C. Plett, P. Pracht, F. Pultar,
   J. Seibert, P. Shushkov, S. Spicher, M. Stahn, M. Steiner, T. Strunk,
   J. Stückrath, T. Rose, and J. Unsleber
   
 * started run on 2026/07/23 at 16:37:30.219     

           -------------------------------------------------
          |                Calculation Setup                |
           -------------------------------------------------

          program call               : xtb /home/selva/covalent_quantum_benchmark/data/quantum/erbB_xyz/EGFR__CHEMBL144778__state02.xyz --gfn2 --chrg 0 --uhf 0 --iterations 300
          coordinate file            : /home/selva/covalent_quantum_benchmark/data/quantum/erbB_xyz/EGFR__CHEMBL144778__state02.xyz
          omp threads                :                    24

   ID    Z sym.   atoms
    1    7 N      1, 15, 22, 27
    2    6 C      2-8, 10, 12, 13, 16-21, 23, 25, 26, 28-32, 34, 36
    3    8 O      9, 11, 14, 24, 33, 35

           -------------------------------------------------
          |                 G F N 2 - x T B                 |
           -------------------------------------------------

        Reference                      10.1021/acs.jctc.8b01176
      * Hamiltonian:
        H0-scaling (s, p, d)           1.850000    2.230000    2.230000
        zeta-weighting                 0.500000
      * Dispersion:
        s8                             2.700000
        a1                             0.520000
        a2                             5.000000
        s9                             5.000000
      * Repulsion:
        kExp                           1.500000    1.000000
        rExp                           1.000000
      * Coulomb:
        alpha                          2.000000
        third order                    shell-resolved
        anisotropic                    true
        a3                             3.000000
        a5                             4.000000
        cn-shift                       1.200000
        cn-exp                         4.000000
        max-rad                        5.000000


          ...................................................
          :                      SETUP                      :
          :.................................................:
          :  # basis functions                 144          :
          :  # atomic orbitals                 144          :
          :  # shells                           72          :
          :  # electrons                       160          :
          :  max. iterations                   300          :
          :  Hamiltonian                  GFN2-xTB          :
          :  restarted?                      false          :
          :  GBSA solvation                  false          :
          :  PC potential                    false          :
          :  electronic temp.          300.0000000     K    :
          :  accuracy                    1.0000000          :
          :  -> integral cutoff          0.2500000E+02      :
          :  -> integral neglect         0.1000000E-07      :
          :  -> SCF convergence          0.1000000E-05 Eh   :
          :  -> wf. convergence          0.1000000E-03 e    :
          :  Broyden damping             0.4000000          :
          ...................................................

 iter      E             dE          RMSdq      gap      omega  full diag
   1    -89.8120726 -0.898121E+02  0.845E+00    0.02       0.0  T
   2    -59.2612067  0.305509E+02  0.141E+01    0.50       1.0  T
   3    -59.9689584 -0.707752E+00  0.124E+01    0.23       1.0  T
   4    -76.5607424 -0.165918E+02  0.105E+01    0.26       1.0  T
   5    -87.0565355 -0.104958E+02  0.704E+00    0.22       1.0  T
   6    -84.4923229  0.256421E+01  0.755E+00    0.05       1.0  T
   7    -88.5112781 -0.401896E+01  0.565E+00    0.11       1.0  T
   8    -89.3511500 -0.839872E+00  0.455E+00    0.21       1.0  T
   9    -90.3535480 -0.100240E+01  0.330E+00    0.11       1.0  T
  10    -90.6356986 -0.282151E+00  0.308E+00    0.09       1.0  T
  11    -90.5696271  0.660715E-01  0.273E+00    0.09       1.0  T
  12    -90.8762526 -0.306625E+00  0.248E+00    0.09       1.0  T
  13    -90.9138343 -0.375817E-01  0.224E+00    0.10       1.0  T
  14    -90.9744175 -0.605832E-01  0.196E+00    0.08       1.0  T
  15    -90.9924051 -0.179876E-01  0.175E+00    0.13       1.0  T
  16    -91.0360757 -0.436706E-01  0.128E+00    0.10       1.0  T
  17    -91.0863821 -0.503064E-01  0.889E-01    0.10       1.0  T
  18    -91.0687739  0.176082E-01  0.873E-01    0.06       1.0  T
  19    -91.0933429 -0.245691E-01  0.676E-01    0.12       1.0  T
  20    -91.0574392  0.359037E-01  0.761E-01    0.05       1.0  T
  21    -91.1102445 -0.528053E-01  0.407E-01    0.12       1.0  T
  22    -91.1002268  0.100177E-01  0.468E-01    0.14       1.0  T
  23    -91.1116666 -0.114398E-01  0.328E-01    0.12       1.0  T
  24    -91.1119692 -0.302594E-03  0.262E-01    0.10       1.0  T
  25    -91.1152029 -0.323375E-02  0.208E-01    0.11       1.0  T
  26    -91.1135621  0.164086E-02  0.224E-01    0.11       1.0  T
  27    -91.1138740 -0.311932E-03  0.184E-01    0.10       1.0  T
  28    -91.1158822 -0.200815E-02  0.997E-02    0.11       1.0  T
  29    -91.1162349 -0.352701E-03  0.712E-02    0.10       1.0  T
  30    -91.1164681 -0.233279E-03  0.630E-02    0.11       1.0  T
  31    -91.1164424  0.257150E-04  0.577E-02    0.11       1.0  T
  32    -91.1163860  0.564617E-04  0.577E-02    0.11       1.0  T
  33    -91.1165499 -0.163888E-03  0.295E-02    0.11       1.0  T
  34    -91.1165809 -0.310285E-04  0.191E-02    0.11       1.0  T
  35    -91.1165989 -0.179946E-04  0.117E-02    0.11       1.4  T
  36    -91.1166084 -0.952501E-05  0.491E-03    0.11       3.4  T
  37    -91.1166090 -0.563240E-06  0.397E-03    0.11       4.2  T
  38    -91.1166103 -0.129935E-05  0.137E-03    0.11      12.2  T
  39    -91.1166102  0.804219E-07  0.153E-03    0.11      10.9  T
  40    -91.1166103 -0.152158E-06  0.791E-04    0.11      21.1  T
  41    -91.1166104 -0.156575E-07  0.595E-04    0.11      28.0  T

   *** convergence criteria satisfied after 41 iterations ***

         #    Occupation            Energy/Eh            Energy/eV
      -------------------------------------------------------------
         1        2.0000           -0.7829342             -21.3047
       ...           ...                  ...                  ...
        74        2.0000           -0.4737090             -12.8903
        75        2.0000           -0.4650424             -12.6544
        76        1.9992           -0.4601463             -12.5212
        77        1.9975           -0.4590810             -12.4922
        78        1.9949           -0.4583873             -12.4734
        79        1.9135           -0.4556601             -12.3991
        80        1.7828           -0.4547179             -12.3735 (HOMO)
        81        0.2415           -0.4508318             -12.2678 (LUMO)
        82        0.0642           -0.4494825             -12.2310
        83        0.0063           -0.4472502             -12.1703
        84        0.0001           -0.4428091             -12.0494
        85                         -0.4366086             -11.8807
       ...                                ...                  ...
       144                          1.0188981              27.7256
      -------------------------------------------------------------
                  HL-Gap            0.0038861 Eh            0.1057 eV
             Fermi-level           -0.4527181 Eh          -12.3191 eV

 SCC (total)                   0 d,  0 h,  0 min,  0.465 sec
 SCC setup                      ...        0 min,  0.000 sec (  0.047%)
 Dispersion                     ...        0 min,  0.001 sec (  0.290%)
 classical contributions        ...        0 min,  0.004 sec (  0.841%)
 integral evaluation            ...        0 min,  0.005 sec (  0.969%)
 iterations                     ...        0 min,  0.440 sec ( 94.704%)
 molecular gradient             ...        0 min,  0.013 sec (  2.766%)
 printout                       ...        0 min,  0.002 sec (  0.377%)

         :::::::::::::::::::::::::::::::::::::::::::::::::::::
         ::                     SUMMARY                     ::
         :::::::::::::::::::::::::::::::::::::::::::::::::::::
         :: total energy             -90.078646275876 Eh    ::
         :: gradient norm              0.687368564834 Eh/a0 ::
         :: HOMO-LUMO gap              0.105746796455 eV    ::
         ::.................................................::
         :: SCC energy               -91.116610354925 Eh    ::
         :: -> isotropic ES            0.164337019639 Eh    ::
         :: -> anisotropic ES          0.002612663274 Eh    ::
         :: -> anisotropic XC          0.054471754039 Eh    ::
         :: -> dispersion             -0.050714161450 Eh    ::
         :: repulsion energy           1.037744557902 Eh    ::
         :: add. restraining           0.000000000000 Eh    ::
         :: total charge               0.000000000023 e     ::
         :::::::::::::::::::::::::::::::::::::::::::::::::::::

           -------------------------------------------------
          |                Property Printout                |
           -------------------------------------------------

    * Orbital Energies and Occupations

         #    Occupation            Energy/Eh            Energy/eV
      -------------------------------------------------------------
         1        2.0000           -0.7829342             -21.3047
       ...           ...                  ...                  ...
        68        2.0000           -0.4898927             -13.3307
        69        2.0000           -0.4834751             -13.1560
        70        2.0000           -0.4809540             -13.0874
        71        2.0000           -0.4800373             -13.0625
        72        2.0000           -0.4756473             -12.9430
        73        2.0000           -0.4746353             -12.9155
        74        2.0000           -0.4737090             -12.8903
        75        2.0000           -0.4650424             -12.6544
        76        1.9992           -0.4601463             -12.5212
        77        1.9975           -0.4590810             -12.4922
        78        1.9949           -0.4583873             -12.4734
        79        1.9135           -0.4556601             -12.3991
        80        1.7828           -0.4547179             -12.3735 (HOMO)
        81        0.2415           -0.4508318             -12.2678 (LUMO)
        82        0.0642           -0.4494825             -12.2310
        83        0.0063           -0.4472502             -12.1703
        84        0.0001           -0.4428091             -12.0494
        85                         -0.4366086             -11.8807
        86                         -0.4310391             -11.7292
        87                         -0.4281021             -11.6492
        88                         -0.4040139             -10.9938
        89                         -0.3919451             -10.6654
        90                         -0.3903303             -10.6214
        91                         -0.3714890             -10.1087
       ...                                ...                  ...
       144                          1.0188981              27.7256
      -------------------------------------------------------------
                  HL-Gap            0.0038861 Eh            0.1057 eV
             Fermi-level           -0.4527181 Eh          -12.3191 eV

     #   Z          covCN         q      C6AA      α(0)
     1   7 N        0.911    -0.132    23.860     7.065
     2   6 C        1.903     0.136    27.791     8.514
     3   6 C        2.945     0.033    27.254     8.562
     4   6 C        1.991     0.052    29.737     8.807
     5   6 C        2.968     0.089    26.019     8.367
     6   6 C        1.992    -0.006    31.195     9.020
     7   6 C        1.987    -0.006    31.220     9.023
     8   6 C        2.844     0.229    23.195     7.893
     9   8 O        0.855    -0.262    19.118     5.862
    10   6 C        2.843     0.220    23.363     7.922
    11   8 O        0.855    -0.254    18.970     5.839
    12   6 C        1.993    -0.063    32.761     9.244
    13   6 C        2.761     0.312    21.696     7.628
    14   8 O        0.858    -0.385    21.387     6.200
    15   7 N        1.824    -0.182    25.761     7.521
    16   6 C        2.863     0.145    24.847     8.171
    17   6 C        1.955     0.003    31.008     8.993
    18   6 C        1.954     0.045    29.925     8.834
    19   6 C        1.953     0.037    30.118     8.863
    20   6 C        1.956    -0.001    31.096     9.005
    21   6 C        2.875     0.099    25.804     8.327
    22   7 N        1.829    -0.124    24.455     7.328
    23   6 C        2.779     0.297    21.964     7.676
    24   8 O        0.862    -0.370    21.093     6.158
    25   6 C        2.945     0.055    26.760     8.484
    26   6 C        1.904     0.134    27.833     8.520
    27   7 N        0.911    -0.138    23.989     7.084
    28   6 C        1.991     0.067    29.351     8.749
    29   6 C        2.967     0.094    25.915     8.350
    30   6 C        1.993    -0.010    31.316     9.037
    31   6 C        1.986    -0.003    31.123     9.009
    32   6 C        2.844     0.229    23.198     7.893
    33   8 O        0.855    -0.261    19.093     5.858
    34   6 C        2.843     0.220    23.363     7.922
    35   8 O        0.855    -0.254    18.974     5.840
    36   6 C        1.993    -0.046    32.288     9.176

 Mol. C6AA /au·bohr⁶  :      33355.356193
 Mol. C8AA /au·bohr⁸  :     893703.365531
 Mol. α(0) /au        :        286.744336


Wiberg/Mayer (AO) data.
largest (>0.10) Wiberg bond orders for each atom

 ---------------------------------------------------------------------------
     #   Z sym  total        # sym  WBO       # sym  WBO       # sym  WBO
 ---------------------------------------------------------------------------
     1   7 N    3.086 --     2 C    2.798     4 C    0.154
     2   6 C    3.937 --     1 N    2.798     3 C    1.048
     3   6 C    3.955 --     4 C    1.774     2 C    1.048    13 C    0.944
     4   6 C    3.739 --     3 C    1.774     5 C    1.224     7 C    0.223
                             1 N    0.154     6 C    0.133
     5   6 C    3.961 --    12 C    1.388     4 C    1.224     6 C    1.144
     6   6 C    3.790 --     7 C    1.740     5 C    1.144    12 C    0.353
                             9 O    0.195     4 C    0.133
     7   6 C    3.768 --     6 C    1.740     8 C    1.223    12 C    0.295
                             4 C    0.223    11 O    0.125
     8   6 C    3.942 --     9 O    1.598     7 C    1.223    10 C    0.973
     9   8 O    2.077 --     8 C    1.598     6 C    0.195    11 O    0.142
    10   6 C    3.940 --    11 O    1.567    12 C    1.262     8 C    0.973
    11   8 O    2.079 --    10 C    1.567     9 O    0.142     7 C    0.125
    12   6 C    3.551 --     5 C    1.388    10 C    1.262     6 C    0.353
                             7 C    0.295
    13   6 C    3.929 --    14 O    1.650    15 N    1.225     3 C    0.944
    14   8 O    2.085 --    13 C    1.650    15 N    0.164
    15   7 N    3.225 --    16 C    1.441    13 C    1.225    14 O    0.164
                            18 C    0.134
    16   6 C    3.858 --    15 N    1.441    17 C    1.177    21 C    0.933
    17   6 C    3.378 --    18 C    1.701    16 C    1.177    20 C    0.160
                            19 C    0.141
    18   6 C    3.593 --    17 C    1.701    19 C    1.377    15 N    0.134
                            20 C    0.133
    19   6 C    3.614 --    20 C    1.668    18 C    1.377    21 C    0.168
                            17 C    0.141    22 N    0.108
    20   6 C    3.438 --    19 C    1.668    21 C    1.159    17 C    0.160
                            18 C    0.133    22 N    0.110
    21   6 C    3.797 --    22 N    1.287    20 C    1.159    16 C    0.933
                            19 C    0.168
    22   7 N    3.344 --    23 C    1.464    21 C    1.287    24 O    0.150
                            20 C    0.110    19 C    0.108
    23   6 C    3.943 --    24 O    1.467    22 N    1.464    25 C    0.897
    24   8 O    2.045 --    23 C    1.467    22 N    0.150
    25   6 C    3.940 --    28 C    1.806    26 C    1.052    23 C    0.897
    26   6 C    3.938 --    27 N    2.783    25 C    1.052
    27   7 N    3.074 --    26 C    2.783    28 C    0.161
    28   6 C    3.740 --    25 C    1.806    29 C    1.209    31 C    0.176
                            27 N    0.161    30 C    0.109
    29   6 C    3.956 --    36 C    1.403    28 C    1.209    30 C    1.140
    30   6 C    3.748 --    31 C    1.754    29 C    1.140    36 C    0.327
                            33 O    0.194    28 C    0.109
    31   6 C    3.634 --    30 C    1.754    32 C    1.222    36 C    0.243
                            28 C    0.176    35 O    0.106
    32   6 C    3.939 --    33 O    1.597    31 C    1.222    34 C    0.975
Note: The following floating-point exceptions are signalling: IEEE_UNDERFLOW_FLAG IEEE_DENORMAL
normal termination of xtb
    33   8 O    2.076 --    32 C    1.597    30 C    0.194    35 O    0.145
    34   6 C    3.932 --    35 O    1.565    36 C    1.261    32 C    0.975
    35   8 O    2.047 --    34 C    1.565    33 O    0.145    31 C    0.106
    36   6 C    3.477 --    29 C    1.403    34 C    1.261    30 C    0.327
                            31 C    0.243
 ---------------------------------------------------------------------------

Topologies differ in total number of bonds
Writing topology from bond orders to xtbtopo.mol

molecular dipole:
                 x           y           z       tot (Debye)
 q only:        2.612       2.046      -1.750
   full:        2.764       1.502      -1.575       8.942
molecular quadrupole (traceless):
                xx          xy          yy          xz          yz          zz
 q only:      -19.658     -18.385      34.490      -8.953       6.580     -14.832
  q+dip:      -16.503     -15.146      37.840      -7.298       9.683     -21.337
   full:      -20.161     -19.691      41.017      -8.012      10.443     -20.856


           -------------------------------------------------
          | TOTAL ENERGY              -90.078646275876 Eh   |
          | GRADIENT NORM               0.687368564834 Eh/α |
          | HOMO-LUMO GAP               0.105746796455 eV   |
           -------------------------------------------------

------------------------------------------------------------------------
 * finished run on 2026/07/23 at 16:37:30.696     
------------------------------------------------------------------------
 total:
 * wall-time:     0 d,  0 h,  0 min,  0.477 sec
 *  cpu-time:     0 d,  0 h,  0 min,  0.507 sec
 * ratio c/w:     1.063 speedup
 SCF:
 * wall-time:     0 d,  0 h,  0 min,  0.465 sec
 *  cpu-time:     0 d,  0 h,  0 min,  0.487 sec
 * ratio c/w:     1.046 speedup

