      -----------------------------------------------------------      
     |                   =====================                   |     
     |                           x T B                           |     
     |                   =====================                   |     
     |                         S. Grimme                         |     
     |          Mulliken Center for Theoretical Chemistry        |     
     |                    University of Bonn                     |     
      -----------------------------------------------------------      

   * xtb version 6.6.1 (unknown) compiled by 'builduser@buildhost' on 2023-08-07

   xtb is free software: you can redistribute it and/or modify it under
   the terms of the GNU Lesser General Public License as published by
   the Free Software Foundation, either version 3 of the License, or
   (at your option) any later version.
   
   xtb is distributed in the hope that it will be useful,
   but WITHOUT ANY WARRANTY; without even the implied warranty of
   MERCHANTABILITY or FITNESS FOR A PARTICULAR PURPOSE.  See the
   GNU Lesser General Public License for more details.
   
   Cite this work as:
   * C. Bannwarth, E. Caldeweyher, S. Ehlert, A. Hansen, P. Pracht,
     J. Seibert, S. Spicher, S. Grimme, WIREs Comput. Mol. Sci., 2020, 11,
     e01493. DOI: 10.1002/wcms.1493
   
   for GFN2-xTB:
   * C. Bannwarth, S. Ehlert and S. Grimme., J. Chem. Theory Comput., 2019,
     15, 1652-1671. DOI: 10.1021/acs.jctc.8b01176
   for GFN1-xTB:
   * S. Grimme, C. Bannwarth, P. Shushkov, J. Chem. Theory Comput., 2017,
     13, 1989-2009. DOI: 10.1021/acs.jctc.7b00118
   for GFN0-xTB:
   * P. Pracht, E. Caldeweyher, S. Ehlert, S. Grimme, ChemRxiv, 2019, preprint.
     DOI: 10.26434/chemrxiv.8326202.v1
   for GFN-FF:
   * S. Spicher and S. Grimme, Angew. Chem. Int. Ed., 2020, 59, 15665-15673.
     DOI: 10.1002/anie.202004239
   
   for ALPB and GBSA implicit solvation:
   * S. Ehlert, M. Stahn, S. Spicher, S. Grimme, J. Chem. Theory Comput.,
     2021, 17, 4250-4261. DOI: 10.1021/acs.jctc.1c00471
   
   for DFT-D4:
   * E. Caldeweyher, C. Bannwarth and S. Grimme, J. Chem. Phys., 2017,
     147, 034112. DOI: 10.1063/1.4993215
   * E. Caldeweyher, S. Ehlert, A. Hansen, H. Neugebauer, S. Spicher,
     C. Bannwarth and S. Grimme, J. Chem. Phys., 2019, 150, 154122.
     DOI: 10.1063/1.5090222
   * E. Caldeweyher, J.-M. Mewes, S. Ehlert and S. Grimme, Phys. Chem. Chem. Phys.
     2020, 22, 8499-8512. DOI: 10.1039/D0CP00502A
   
   for sTDA-xTB:
   * S. Grimme and C. Bannwarth, J. Chem. Phys., 2016, 145, 054103.
     DOI: 10.1063/1.4959605
   
   in the mass-spec context:
   * V. Asgeirsson, C. Bauer and S. Grimme, Chem. Sci., 2017, 8, 4879.
     DOI: 10.1039/c7sc00601b
   * J. Koopman and S. Grimme, ACS Omega 2019, 4, 12, 15120-15133.
     DOI: 10.1021/acsomega.9b02011
   
   for metadynamics refer to:
   * S. Grimme, J. Chem. Theory Comput., 2019, 155, 2847-2862
     DOI: 10.1021/acs.jctc.9b00143
   
   for SPH calculations refer to:
   * S. Spicher and S. Grimme, J. Chem. Theory Comput., 2021, 17, 1701-1714
     DOI: 10.1021/acs.jctc.0c01306
   
   with help from (in alphabetical order)
   P. Atkinson, C. Bannwarth, F. Bohle, G. Brandenburg, E. Caldeweyher
   M. Checinski, S. Dohm, S. Ehlert, S. Ehrlich, I. Gerasimov, C. Hölzer
   A. Katbashev, J. Koopman, C. Lavigne, S. Lehtola, F. März, M. Müller,
   F. Musil, H. Neugebauer, J. Pisarek, C. Plett, P. Pracht, F. Pultar,
   J. Seibert, P. Shushkov, S. Spicher, M. Stahn, M. Steiner, T. Strunk,
   J. Stückrath, T. Rose, and J. Unsleber
   
 * started run on 2026/07/23 at 16:39:16.997     

           -------------------------------------------------
          |                Calculation Setup                |
           -------------------------------------------------

          program call               : xtb /home/selva/covalent_quantum_benchmark/data/quantum/erbB_xyz/EGFR__CHEMBL76557__state00.xyz --gfn2 --chrg 0 --uhf 0 --iterations 300
          coordinate file            : /home/selva/covalent_quantum_benchmark/data/quantum/erbB_xyz/EGFR__CHEMBL76557__state00.xyz
          omp threads                :                    24

   ID    Z sym.   atoms
    1    7 N      1, 4, 9
    2    6 C      2, 3, 5, 7, 8, 10-14, 16, 17
    3    8 O      6, 15

           -------------------------------------------------
          |                 G F N 2 - x T B                 |
           -------------------------------------------------

        Reference                      10.1021/acs.jctc.8b01176
      * Hamiltonian:
        H0-scaling (s, p, d)           1.850000    2.230000    2.230000
        zeta-weighting                 0.500000
      * Dispersion:
        s8                             2.700000
        a1                             0.520000
        a2                             5.000000
        s9                             5.000000
      * Repulsion:
        kExp                           1.500000    1.000000
        rExp                           1.000000
      * Coulomb:
        alpha                          2.000000
        third order                    shell-resolved
        anisotropic                    true
        a3                             3.000000
        a5                             4.000000
        cn-shift                       1.200000
        cn-exp                         4.000000
        max-rad                        5.000000


          ...................................................
          :                      SETUP                      :
          :.................................................:
          :  # basis functions                  68          :
          :  # atomic orbitals                  68          :
          :  # shells                           34          :
          :  # electrons                        75          :
          :  max. iterations                   300          :
          :  Hamiltonian                  GFN2-xTB          :
          :  restarted?                      false          :
          :  GBSA solvation                  false          :
          :  PC potential                    false          :
          :  electronic temp.          300.0000000     K    :
          :  accuracy                    1.0000000          :
          :  -> integral cutoff          0.2500000E+02      :
          :  -> integral neglect         0.1000000E-07      :
          :  -> SCF convergence          0.1000000E-05 Eh   :
          :  -> wf. convergence          0.1000000E-03 e    :
          :  Broyden damping             0.4000000          :
          ...................................................

 iter      E             dE          RMSdq      gap      omega  full diag
   1    -41.8205172 -0.418205E+02  0.910E+00    0.92       0.0  T
   2    -34.7724395  0.704808E+01  0.128E+01    0.32       1.0  T
   3    -39.5089069 -0.473647E+01  0.874E+00    0.10       1.0  T
   4    -41.7696792 -0.226077E+01  0.553E+00    0.42       1.0  T
   5    -42.0418930 -0.272214E+00  0.456E+00    0.02       1.0  T
   6    -42.1440252 -0.102132E+00  0.294E+00    0.08       1.0  T
   7    -41.8428777  0.301147E+00  0.468E+00    0.32       1.0  T
   8    -42.1620050 -0.319127E+00  0.375E+00    0.24       1.0  T
   9    -41.9843246  0.177680E+00  0.403E+00    0.15       1.0  T
  10    -41.9664275  0.178971E-01  0.413E+00    0.15       1.0  T
  11    -41.9721300 -0.570246E-02  0.411E+00    0.13       1.0  T
  12    -42.0012647 -0.291347E-01  0.377E+00    0.04       1.0  T
  13    -41.9679118  0.333528E-01  0.398E+00    0.14       1.0  T
  14    -41.9759762 -0.806434E-02  0.394E+00    0.14       1.0  T
  15    -41.9708117  0.516445E-02  0.399E+00    0.14       1.0  T
  16    -42.1937797 -0.222968E+00  0.231E+00    0.13       1.0  T
  17    -42.3858578 -0.192078E+00  0.132E+00    0.01       1.0  T
  18    -42.3608040  0.250538E-01  0.128E+00    0.03       1.0  T
  19    -42.3320339  0.287701E-01  0.139E+00    0.05       1.0  T
  20    -42.4092761 -0.772422E-01  0.365E-01    0.01       1.0  T
  21    -42.3922083  0.170678E-01  0.663E-01    0.03       1.0  T
  22    -42.3975767 -0.536844E-02  0.569E-01    0.03       1.0  T
  23    -42.3952713  0.230538E-02  0.606E-01    0.03       1.0  T
  24    -42.4114381 -0.161668E-01  0.167E-01    0.01       1.0  T
  25    -42.4087193  0.271884E-02  0.286E-01    0.02       1.0  T
  26    -42.4115866 -0.286728E-02  0.111E-01    0.01       1.0  T
  27    -42.4118348 -0.248290E-03  0.498E-02    0.01       1.0  T
  28    -42.4118282  0.665848E-05  0.345E-02    0.01       1.0  T
  29    -42.4118716 -0.433645E-04  0.136E-02    0.01       1.8  T
  30    -42.4118555  0.160227E-04  0.230E-02    0.01       1.1  T
  31    -42.4118735 -0.179346E-04  0.114E-02    0.01       2.1  T
  32    -42.4118794 -0.589178E-05  0.131E-03    0.01      18.5  T
  33    -42.4118793  0.292688E-07  0.132E-03    0.01      18.4  T
  34    -42.4118793  0.593176E-07  0.170E-03    0.01      14.2  T
  35    -42.4118794 -0.130244E-06  0.352E-04    0.01      68.8  T
  36    -42.4118794 -0.394737E-08  0.200E-04    0.01     121.3  T

   *** convergence criteria satisfied after 36 iterations ***

         #    Occupation            Energy/Eh            Energy/eV
      -------------------------------------------------------------
         1        2.0000           -0.7753598             -21.0986
       ...           ...                  ...                  ...
        32        2.0000           -0.4763866             -12.9631
        33        2.0000           -0.4707369             -12.8094
        34        2.0000           -0.4577597             -12.4563
        35        2.0000           -0.4531345             -12.3304
        36        1.6466           -0.4374103             -11.9025
        37        1.2894           -0.4364559             -11.8766
        38        1.1324           -0.4361158             -11.8673 (HOMO)
        39        0.9316           -0.4356975             -11.8559 (LUMO)
        40                         -0.4147061             -11.2847
        41                         -0.4113854             -11.1944
        42                         -0.3602337              -9.8025
        43                         -0.3423300              -9.3153
       ...                                ...                  ...
        68                          1.0362230              28.1971
      -------------------------------------------------------------
                  HL-Gap            0.0004184 Eh            0.0114 eV
             Fermi-level           -0.4358397 Eh          -11.8598 eV

 SCC (total)                   0 d,  0 h,  0 min,  0.097 sec
 SCC setup                      ...        0 min,  0.000 sec (  0.176%)
 Dispersion                     ...        0 min,  0.000 sec (  0.455%)
 classical contributions        ...        0 min,  0.000 sec (  0.504%)
 integral evaluation            ...        0 min,  0.002 sec (  1.546%)
 iterations                     ...        0 min,  0.088 sec ( 90.244%)
 molecular gradient             ...        0 min,  0.006 sec (  6.022%)
 printout                       ...        0 min,  0.001 sec (  1.020%)

         :::::::::::::::::::::::::::::::::::::::::::::::::::::
         ::                     SUMMARY                     ::
         :::::::::::::::::::::::::::::::::::::::::::::::::::::
         :: total energy             -41.833706990484 Eh    ::
         :: gradient norm              0.381936644294 Eh/a0 ::
         :: HOMO-LUMO gap              0.011384049656 eV    ::
         ::.................................................::
         :: SCC energy               -42.411879403753 Eh    ::
         :: -> isotropic ES            0.062661462524 Eh    ::
         :: -> anisotropic ES          0.002671927066 Eh    ::
         :: -> anisotropic XC          0.046932790543 Eh    ::
         :: -> dispersion             -0.018584037119 Eh    ::
         :: repulsion energy           0.578311618720 Eh    ::
         :: add. restraining           0.000000000000 Eh    ::
         :: total charge              -0.000000000105 e     ::
         :::::::::::::::::::::::::::::::::::::::::::::::::::::

           -------------------------------------------------
          |                Property Printout                |
           -------------------------------------------------

    * Orbital Energies and Occupations

         #    Occupation            Energy/Eh            Energy/eV
      -------------------------------------------------------------
         1        2.0000           -0.7753598             -21.0986
       ...           ...                  ...                  ...
        26        2.0000           -0.5289639             -14.3938
        27        2.0000           -0.5265522             -14.3282
        28        2.0000           -0.5139443             -13.9851
        29        2.0000           -0.5013657             -13.6429
        30        2.0000           -0.4938965             -13.4396
        31        2.0000           -0.4913754             -13.3710
        32        2.0000           -0.4763866             -12.9631
        33        2.0000           -0.4707369             -12.8094
        34        2.0000           -0.4577597             -12.4563
        35        2.0000           -0.4531345             -12.3304
        36        1.6466           -0.4374103             -11.9025
        37        1.2894           -0.4364559             -11.8766
        38        1.1324           -0.4361158             -11.8673 (HOMO)
        39        0.9316           -0.4356975             -11.8559 (LUMO)
        40                         -0.4147061             -11.2847
        41                         -0.4113854             -11.1944
        42                         -0.3602337              -9.8025
        43                         -0.3423300              -9.3153
        44                         -0.2962245              -8.0607
        45                         -0.2846532              -7.7458
        46                         -0.2793654              -7.6019
        47                         -0.2780026              -7.5648
        48                         -0.2707286              -7.3669
        49                         -0.2402429              -6.5373
       ...                                ...                  ...
        68                          1.0362230              28.1971
      -------------------------------------------------------------
                  HL-Gap            0.0004184 Eh            0.0114 eV
             Fermi-level           -0.4358397 Eh          -11.8598 eV

     #   Z          covCN         q      C6AA      α(0)
     1   7 N        0.911    -0.100    23.213     6.968
     2   6 C        1.893     0.154    27.377     8.451
     3   6 C        1.894     0.064    29.506     8.773
     4   7 N        1.826    -0.121    24.400     7.320
     5   6 C        2.764     0.315    21.652     7.620
     6   8 O        0.858    -0.321    20.170     6.021
     7   6 C        2.945     0.025    27.435     8.591
     8   6 C        1.903     0.130    27.918     8.533
     9   7 N        0.911    -0.151    24.268     7.125
    10   6 C        1.990     0.042    29.985     8.843
    11   6 C        2.965     0.089    26.007     8.365
    12   6 C        1.992    -0.029    31.814     9.109
    13   6 C        1.985    -0.001    31.084     9.004
    14   6 C        2.843     0.239    23.016     7.862
    15   8 O        0.855    -0.317    20.093     6.010
    16   6 C        1.987     0.007    30.873     8.973
    17   6 C        1.994    -0.025    31.706     9.093

 Mol. C6AA /au·bohr⁶  :       7586.872357
 Mol. C8AA /au·bohr⁸  :     203032.488513
 Mol. α(0) /au        :        136.661579


Wiberg/Mayer (AO) data.
largest (>0.10) Wiberg bond orders for each atom

 ---------------------------------------------------------------------------
     #   Z sym  total        # sym  WBO       # sym  WBO       # sym  WBO
 ---------------------------------------------------------------------------
     1   7 N    2.960 --     2 C    2.751     4 N    0.123
     2   6 C    3.905 --     1 N    2.751     3 C    1.127
     3   6 C    3.095 --     4 N    1.733     2 C    1.127     6 O    0.109
     4   7 N    3.085 --     3 C    1.733     5 C    1.117     1 N    0.123
     5   6 C    3.915 --     6 O    1.736     4 N    1.117     7 C    0.972
     6   8 O    2.056 --     5 C    1.736     3 C    0.109
Note: The following floating-point exceptions are signalling: IEEE_UNDERFLOW_FLAG IEEE_DENORMAL
normal termination of xtb
     7   6 C    3.955 --    10 C    1.733     8 C    1.059     5 C    0.972
     8   6 C    3.934 --     9 N    2.797     7 C    1.059
     9   7 N    3.049 --     8 C    2.797    10 C    0.138
    10   6 C    3.653 --     7 C    1.733    11 C    1.331    13 C    0.150
                             9 N    0.138
    11   6 C    3.886 --    10 C    1.331    17 C    1.200    12 C    1.191
    12   6 C    3.418 --    13 C    1.728    11 C    1.191    17 C    0.148
                            15 O    0.129
    13   6 C    3.313 --    12 C    1.728    14 C    1.152    10 C    0.150
    14   6 C    3.909 --    15 O    1.474    16 C    1.159    13 C    1.152
    15   8 O    1.793 --    14 C    1.474    12 C    0.129    17 C    0.123
    16   6 C    3.226 --    17 C    1.712    14 C    1.159
    17   6 C    3.361 --    16 C    1.712    11 C    1.200    12 C    0.148
                            15 O    0.123
 ---------------------------------------------------------------------------

Topologies differ in total number of bonds
Writing topology from bond orders to xtbtopo.mol

molecular dipole:
                 x           y           z       tot (Debye)
 q only:        1.342       0.024       0.621
   full:        1.187      -0.597       0.664       3.776
molecular quadrupole (traceless):
                xx          xy          yy          xz          yz          zz
 q only:       -8.348       4.448       3.192     -11.788       3.231       5.155
  q+dip:       -8.379      -1.146      -0.608     -12.906       2.226       8.987
   full:      -10.457      -2.523      -1.722     -15.728       3.947      12.179


           -------------------------------------------------
          | TOTAL ENERGY              -41.833706990484 Eh   |
          | GRADIENT NORM               0.381936644294 Eh/α |
          | HOMO-LUMO GAP               0.011384049656 eV   |
           -------------------------------------------------

------------------------------------------------------------------------
 * finished run on 2026/07/23 at 16:39:17.104     
------------------------------------------------------------------------
 total:
 * wall-time:     0 d,  0 h,  0 min,  0.107 sec
 *  cpu-time:     0 d,  0 h,  0 min,  0.117 sec
 * ratio c/w:     1.098 speedup
 SCF:
 * wall-time:     0 d,  0 h,  0 min,  0.098 sec
 *  cpu-time:     0 d,  0 h,  0 min,  0.107 sec
 * ratio c/w:     1.092 speedup

