      -----------------------------------------------------------      
     |                   =====================                   |     
     |                           x T B                           |     
     |                   =====================                   |     
     |                         S. Grimme                         |     
     |          Mulliken Center for Theoretical Chemistry        |     
     |                    University of Bonn                     |     
      -----------------------------------------------------------      

   * xtb version 6.6.1 (unknown) compiled by 'builduser@buildhost' on 2023-08-07

   xtb is free software: you can redistribute it and/or modify it under
   the terms of the GNU Lesser General Public License as published by
   the Free Software Foundation, either version 3 of the License, or
   (at your option) any later version.
   
   xtb is distributed in the hope that it will be useful,
   but WITHOUT ANY WARRANTY; without even the implied warranty of
   MERCHANTABILITY or FITNESS FOR A PARTICULAR PURPOSE.  See the
   GNU Lesser General Public License for more details.
   
   Cite this work as:
   * C. Bannwarth, E. Caldeweyher, S. Ehlert, A. Hansen, P. Pracht,
     J. Seibert, S. Spicher, S. Grimme, WIREs Comput. Mol. Sci., 2020, 11,
     e01493. DOI: 10.1002/wcms.1493
   
   for GFN2-xTB:
   * C. Bannwarth, S. Ehlert and S. Grimme., J. Chem. Theory Comput., 2019,
     15, 1652-1671. DOI: 10.1021/acs.jctc.8b01176
   for GFN1-xTB:
   * S. Grimme, C. Bannwarth, P. Shushkov, J. Chem. Theory Comput., 2017,
     13, 1989-2009. DOI: 10.1021/acs.jctc.7b00118
   for GFN0-xTB:
   * P. Pracht, E. Caldeweyher, S. Ehlert, S. Grimme, ChemRxiv, 2019, preprint.
     DOI: 10.26434/chemrxiv.8326202.v1
   for GFN-FF:
   * S. Spicher and S. Grimme, Angew. Chem. Int. Ed., 2020, 59, 15665-15673.
     DOI: 10.1002/anie.202004239
   
   for ALPB and GBSA implicit solvation:
   * S. Ehlert, M. Stahn, S. Spicher, S. Grimme, J. Chem. Theory Comput.,
     2021, 17, 4250-4261. DOI: 10.1021/acs.jctc.1c00471
   
   for DFT-D4:
   * E. Caldeweyher, C. Bannwarth and S. Grimme, J. Chem. Phys., 2017,
     147, 034112. DOI: 10.1063/1.4993215
   * E. Caldeweyher, S. Ehlert, A. Hansen, H. Neugebauer, S. Spicher,
     C. Bannwarth and S. Grimme, J. Chem. Phys., 2019, 150, 154122.
     DOI: 10.1063/1.5090222
   * E. Caldeweyher, J.-M. Mewes, S. Ehlert and S. Grimme, Phys. Chem. Chem. Phys.
     2020, 22, 8499-8512. DOI: 10.1039/D0CP00502A
   
   for sTDA-xTB:
   * S. Grimme and C. Bannwarth, J. Chem. Phys., 2016, 145, 054103.
     DOI: 10.1063/1.4959605
   
   in the mass-spec context:
   * V. Asgeirsson, C. Bauer and S. Grimme, Chem. Sci., 2017, 8, 4879.
     DOI: 10.1039/c7sc00601b
   * J. Koopman and S. Grimme, ACS Omega 2019, 4, 12, 15120-15133.
     DOI: 10.1021/acsomega.9b02011
   
   for metadynamics refer to:
   * S. Grimme, J. Chem. Theory Comput., 2019, 155, 2847-2862
     DOI: 10.1021/acs.jctc.9b00143
   
   for SPH calculations refer to:
   * S. Spicher and S. Grimme, J. Chem. Theory Comput., 2021, 17, 1701-1714
     DOI: 10.1021/acs.jctc.0c01306
   
   with help from (in alphabetical order)
   P. Atkinson, C. Bannwarth, F. Bohle, G. Brandenburg, E. Caldeweyher
   M. Checinski, S. Dohm, S. Ehlert, S. Ehrlich, I. Gerasimov, C. Hölzer
   A. Katbashev, J. Koopman, C. Lavigne, S. Lehtola, F. März, M. Müller,
   F. Musil, H. Neugebauer, J. Pisarek, C. Plett, P. Pracht, F. Pultar,
   J. Seibert, P. Shushkov, S. Spicher, M. Stahn, M. Steiner, T. Strunk,
   J. Stückrath, T. Rose, and J. Unsleber
   
 * started run on 2026/07/23 at 16:43:20.809     

           -------------------------------------------------
          |                Calculation Setup                |
           -------------------------------------------------

          program call               : xtb /home/selva/covalent_quantum_benchmark/data/quantum/erbB_xyz/ERBB2__CHEMBL69629__state01.xyz --gfn2 --chrg 0 --uhf 0 --iterations 300
          coordinate file            : /home/selva/covalent_quantum_benchmark/data/quantum/erbB_xyz/ERBB2__CHEMBL69629__state01.xyz
          omp threads                :                    24

   ID    Z sym.   atoms
    1    6 C      1-5, 8, 9, 11, 12, 14, 15, 17-20, 23, 25, 27, 29-32, 34,
                  36, 37
    2    8 O      6, 13, 21
    3    7 N      7, 10, 16, 22, 24, 26, 28
    4    9 F      33
    5   17 Cl     35

           -------------------------------------------------
          |                 G F N 2 - x T B                 |
           -------------------------------------------------

        Reference                      10.1021/acs.jctc.8b01176
      * Hamiltonian:
        H0-scaling (s, p, d)           1.850000    2.230000    2.230000
        zeta-weighting                 0.500000
      * Dispersion:
        s8                             2.700000
        a1                             0.520000
        a2                             5.000000
        s9                             5.000000
      * Repulsion:
        kExp                           1.500000    1.000000
        rExp                           1.000000
      * Coulomb:
        alpha                          2.000000
        third order                    shell-resolved
        anisotropic                    true
        a3                             3.000000
        a5                             4.000000
        cn-shift                       1.200000
        cn-exp                         4.000000
        max-rad                        5.000000


          ...................................................
          :                      SETUP                      :
          :.................................................:
          :  # basis functions                 154          :
          :  # atomic orbitals                 153          :
          :  # shells                           75          :
          :  # electrons                       167          :
          :  max. iterations                   300          :
          :  Hamiltonian                  GFN2-xTB          :
          :  restarted?                      false          :
          :  GBSA solvation                  false          :
          :  PC potential                    false          :
          :  electronic temp.          300.0000000     K    :
          :  accuracy                    1.0000000          :
          :  -> integral cutoff          0.2500000E+02      :
          :  -> integral neglect         0.1000000E-07      :
          :  -> SCF convergence          0.1000000E-05 Eh   :
          :  -> wf. convergence          0.1000000E-03 e    :
          :  Broyden damping             0.4000000          :
          ...................................................

 iter      E             dE          RMSdq      gap      omega  full diag
   1    -93.9596321 -0.939596E+02  0.789E+00    0.24       0.0  T
   2    -80.7286332  0.132310E+02  0.106E+01    0.12       1.0  T
   3    -71.3912538  0.933738E+01  0.117E+01    0.13       1.0  T
   4    -85.8632949 -0.144720E+02  0.840E+00    0.15       1.0  T
   5    -90.1836033 -0.432031E+01  0.686E+00    0.07       1.0  T
   6    -91.4247221 -0.124112E+01  0.608E+00    0.03       1.0  T
   7    -92.3399461 -0.915224E+00  0.479E+00    0.10       1.0  T
   8    -92.8000247 -0.460079E+00  0.477E+00    0.02       1.0  T
   9    -94.4132280 -0.161320E+01  0.317E+00    0.01       1.0  T
  10    -94.2071534  0.206075E+00  0.333E+00    0.02       1.0  T
  11    -94.2953001 -0.881467E-01  0.307E+00    0.02       1.0  T
  12    -94.3516031 -0.563029E-01  0.289E+00    0.02       1.0  T
  13    -94.4785067 -0.126904E+00  0.273E+00    0.02       1.0  T
  14    -94.4617751  0.167315E-01  0.265E+00    0.04       1.0  T
  15    -94.3443202  0.117455E+00  0.282E+00    0.05       1.0  T
  16    -94.2710429  0.732773E-01  0.281E+00    0.00       1.0  T
  17    -94.4420057 -0.170963E+00  0.240E+00    0.05       1.0  T
  18    -94.4116364  0.303693E-01  0.240E+00    0.04       1.0  T
  19    -94.7676330 -0.355997E+00  0.126E+00    0.03       1.0  T
  20    -94.5073832  0.260250E+00  0.223E+00    0.06       1.0  T
  21    -94.6429023 -0.135519E+00  0.173E+00    0.03       1.0  T
  22    -94.7239803 -0.810780E-01  0.155E+00    0.04       1.0  T
  23    -94.7177376  0.624272E-02  0.148E+00    0.03       1.0  T
  24    -94.7727557 -0.550181E-01  0.116E+00    0.03       1.0  T
  25    -94.7890027 -0.162470E-01  0.100E+00    0.05       1.0  T
  26    -94.8413871 -0.523845E-01  0.444E-01    0.06       1.0  T
  27    -94.8489337 -0.754662E-02  0.311E-01    0.06       1.0  T
  28    -94.8498852 -0.951476E-03  0.298E-01    0.06       1.0  T
  29    -94.8238143  0.260709E-01  0.556E-01    0.04       1.0  T
  30    -94.8323783 -0.856393E-02  0.482E-01    0.06       1.0  T
  31    -94.8470923 -0.147140E-01  0.251E-01    0.06       1.0  T
  32    -94.8526242 -0.553189E-02  0.115E-01    0.06       1.0  T
  33    -94.8533791 -0.754954E-03  0.639E-02    0.06       1.0  T
  34    -94.8526184  0.760734E-03  0.117E-01    0.06       1.0  T
  35    -94.8532864 -0.667950E-03  0.603E-02    0.06       1.0  T
  36    -94.8535820 -0.295638E-03  0.231E-02    0.06       1.0  T
  37    -94.8534050  0.176966E-03  0.450E-02    0.06       1.0  T
  38    -94.8535771 -0.172065E-03  0.214E-02    0.06       1.0  T
  39    -94.8535650  0.120744E-04  0.247E-02    0.06       1.0  T
  40    -94.8536088 -0.437288E-04  0.123E-02    0.06       1.3  T
  41    -94.8535855  0.232759E-04  0.178E-02    0.06       1.0  T
  42    -94.8536108 -0.253238E-04  0.781E-03    0.06       2.1  T
  43    -94.8536096  0.124257E-05  0.855E-03    0.06       1.9  T
  44    -94.8536154 -0.583629E-05  0.484E-03    0.06       3.4  T
  45    -94.8536176 -0.222977E-05  0.207E-03    0.06       7.9  T
  46    -94.8536178 -0.148247E-06  0.166E-03    0.06       9.9  T
  47    -94.8536179 -0.162769E-06  0.886E-04    0.06      18.6  T
  48    -94.8536180 -0.542358E-07  0.221E-04    0.06      74.4  T

   *** convergence criteria satisfied after 48 iterations ***

         #    Occupation            Energy/Eh            Energy/eV
      -------------------------------------------------------------
         1        2.0000           -1.0996016             -29.9217
       ...           ...                  ...                  ...
        78        2.0000           -0.4454174             -12.1204
        79        2.0000           -0.4435066             -12.0684
        80        1.9982           -0.4382099             -11.9243
        81        1.8799           -0.4341662             -11.8143
        82        1.8428           -0.4338858             -11.8066
        83        1.3774           -0.4322217             -11.7613
        84        1.2585           -0.4319475             -11.7539 (HOMO)
        85        0.3647           -0.4298518             -11.6969 (LUMO)
        86        0.2728           -0.4295088             -11.6875
        87        0.0058           -0.4256649             -11.5829
        88        0.0000           -0.4169996             -11.3471
        89                         -0.4026607             -10.9570
       ...                                ...                  ...
       153                          0.6358827              17.3032
      -------------------------------------------------------------
                  HL-Gap            0.0020957 Eh            0.0570 eV
             Fermi-level           -0.4313953 Eh          -11.7389 eV

 SCC (total)                   0 d,  0 h,  0 min,  0.841 sec
 SCC setup                      ...        0 min,  0.001 sec (  0.064%)
 Dispersion                     ...        0 min,  0.002 sec (  0.182%)
 classical contributions        ...        0 min,  0.001 sec (  0.077%)
 integral evaluation            ...        0 min,  0.011 sec (  1.261%)
 iterations                     ...        0 min,  0.794 sec ( 94.486%)
 molecular gradient             ...        0 min,  0.022 sec (  2.654%)
 printout                       ...        0 min,  0.011 sec (  1.271%)

         :::::::::::::::::::::::::::::::::::::::::::::::::::::
         ::                     SUMMARY                     ::
         :::::::::::::::::::::::::::::::::::::::::::::::::::::
         :: total energy             -93.936084137381 Eh    ::
         :: gradient norm              0.518026446915 Eh/a0 ::
         :: HOMO-LUMO gap              0.057027866590 eV    ::
         ::.................................................::
         :: SCC energy               -94.853617993160 Eh    ::
         :: -> isotropic ES            0.079449642437 Eh    ::
         :: -> anisotropic ES          0.009538192756 Eh    ::
         :: -> anisotropic XC          0.043124556520 Eh    ::
         :: -> dispersion             -0.056917974766 Eh    ::
         :: repulsion energy           0.915731207264 Eh    ::
         :: add. restraining           0.000000000000 Eh    ::
         :: total charge              -0.000000000000 e     ::
         :::::::::::::::::::::::::::::::::::::::::::::::::::::

           -------------------------------------------------
          |                Property Printout                |
           -------------------------------------------------

    * Orbital Energies and Occupations

         #    Occupation            Energy/Eh            Energy/eV
      -------------------------------------------------------------
         1        2.0000           -1.0996016             -29.9217
       ...           ...                  ...                  ...
        72        2.0000           -0.4635093             -12.6127
        73        2.0000           -0.4620730             -12.5736
        74        2.0000           -0.4554870             -12.3944
        75        2.0000           -0.4530042             -12.3269
        76        2.0000           -0.4512970             -12.2804
        77        2.0000           -0.4467562             -12.1569
        78        2.0000           -0.4454174             -12.1204
        79        2.0000           -0.4435066             -12.0684
        80        1.9982           -0.4382099             -11.9243
        81        1.8799           -0.4341662             -11.8143
        82        1.8428           -0.4338858             -11.8066
        83        1.3774           -0.4322217             -11.7613
        84        1.2585           -0.4319475             -11.7539 (HOMO)
        85        0.3647           -0.4298518             -11.6969 (LUMO)
        86        0.2728           -0.4295088             -11.6875
        87        0.0058           -0.4256649             -11.5829
        88        0.0000           -0.4169996             -11.3471
        89                         -0.4026607             -10.9570
        90                         -0.3967488             -10.7961
        91                         -0.3866597             -10.5215
        92                         -0.3811275             -10.3710
        93                         -0.3681342             -10.0174
        94                         -0.3659616              -9.9583
        95                         -0.3550811              -9.6622
       ...                                ...                  ...
       153                          0.6358827              17.3032
      -------------------------------------------------------------
                  HL-Gap            0.0020957 Eh            0.0570 eV
             Fermi-level           -0.4313953 Eh          -11.7389 eV

     #   Z          covCN         q      C6AA      α(0)
     1   6 C        0.989    -0.065    37.983    10.356
     2   6 C        3.081     0.078    26.164     8.386
     3   6 C        2.029    -0.006    31.168     9.017
     4   6 C        3.043     0.096    25.827     8.335
     5   6 C        2.752     0.306    21.796     7.645
     6   8 O        0.857    -0.335    20.418     6.058
     7   7 N        1.828    -0.119    24.367     7.315
     8   6 C        1.887     0.073    29.287     8.740
     9   6 C        1.896     0.010    30.849     8.970
    10   7 N        2.719     0.080    19.856     6.618
    11   6 C        1.898    -0.055    32.605     9.222
    12   6 C        1.841     0.038    30.179     8.875
    13   8 O        1.695    -0.116    16.065     5.411
    14   6 C        1.841     0.047    29.950     8.841
    15   6 C        1.900    -0.024    31.749     9.100
    16   7 N        1.899    -0.157    25.189     7.441
    17   6 C        2.963     0.132    25.120     8.221
    18   6 C        1.975     0.022    30.490     8.917
    19   6 C        3.092     0.042    26.950     8.509
    20   6 C        2.920     0.282    22.236     7.733
    21   8 O        0.855    -0.329    20.311     6.042
    22   7 N        1.930    -0.210    26.398     7.618
    23   6 C        3.143     0.197    23.606     7.950
    24   7 N        1.828    -0.141    24.827     7.383
    25   6 C        1.984     0.178    26.794     8.359
    26   7 N        1.834    -0.149    25.021     7.413
    27   6 C        2.856     0.183    24.078     8.043
    28   7 N        1.829    -0.136    24.723     7.368
    29   6 C        2.889     0.141    24.926     8.185
    30   6 C        1.997    -0.038    32.067     9.145
    31   6 C        1.986    -0.032    31.898     9.121
    32   6 C        2.807     0.195    23.844     8.000
    33   9 F        0.787    -0.152    10.748     3.873
    34   6 C        2.878     0.090    25.991     8.358
    35  17 Cl       0.962    -0.055   100.881    15.366
    36   6 C        2.028    -0.066    32.796     9.249
    37   6 C        3.065    -0.008    28.148     8.700

 Mol. C6AA /au·bohr⁶  :      37272.501346
 Mol. C8AA /au·bohr⁸  :    1020705.362085
 Mol. α(0) /au        :        303.882628


Wiberg/Mayer (AO) data.
largest (>0.10) Wiberg bond orders for each atom

 ---------------------------------------------------------------------------
     #   Z sym  total        # sym  WBO       # sym  WBO       # sym  WBO
 ---------------------------------------------------------------------------
     1   6 C    2.376 --     2 C    1.840    16 N    0.174     3 C    0.148
                            17 C    0.101
     2   6 C    3.953 --     1 C    1.840     3 C    1.077    17 C    0.938
     3   6 C    3.230 --     4 C    1.489     2 C    1.077    18 C    0.170
                             1 C    0.148
     4   6 C    3.918 --     3 C    1.489    16 N    1.218     5 C    0.972
     5   6 C    3.929 --     6 O    1.704     7 N    1.157     4 C    0.972
     6   8 O    2.015 --     5 C    1.704     7 N    0.104
     7   7 N    3.352 --     8 C    1.664     5 C    1.157     9 C    0.138
                             6 O    0.104
     8   6 C    3.535 --     7 N    1.664     9 C    1.465    15 C    0.111
     9   6 C    3.390 --     8 C    1.465    10 N    1.201    12 C    0.202
                             7 N    0.138    15 C    0.122    11 C    0.119
    10   7 N    3.583 --     9 C    1.201    11 C    1.091    15 C    1.055
    11   6 C    3.087 --    12 C    1.505    10 N    1.091    15 C    0.158
                             9 C    0.119
    12   6 C    3.127 --    11 C    1.505    13 O    1.103     9 C    0.202
                            14 C    0.122
    13   8 O    2.505 --    14 C    1.205    12 C    1.103
    14   6 C    2.951 --    15 C    1.331    13 O    1.205    12 C    0.122
    15   6 C    2.970 --    14 C    1.331    10 N    1.055    11 C    0.158
                             9 C    0.122     8 C    0.111
    16   7 N    3.079 --    17 C    1.283     4 C    1.218     1 C    0.174
    17   6 C    3.951 --    18 C    1.488    16 N    1.283     2 C    0.938
                             1 C    0.101
    18   6 C    3.685 --    17 C    1.488    19 C    1.488     3 C    0.170
                            22 N    0.126    21 O    0.107
    19   6 C    3.938 --    18 C    1.488    37 C    1.166    20 C    1.031
    20   6 C    3.937 --    21 O    1.570    22 N    1.218    19 C    1.031
    21   8 O    1.953 --    20 C    1.570    18 C    0.107
    22   7 N    3.025 --    23 C    1.304    20 C    1.218    18 C    0.126
    23   6 C    3.943 --    22 N    1.304    24 N    1.234    37 C    1.162
    24   7 N    3.162 --    25 C    1.562    23 C    1.234
    25   6 C    3.714 --    26 N    1.716    24 N    1.562    28 N    0.196
    26   7 N    3.213 --    25 C    1.716    27 C    1.156
    27   6 C    3.935 --    28 N    1.334    37 C    1.232    26 N    1.156
    28   7 N    3.194 --    27 C    1.334    29 C    1.229    25 C    0.196
Note: The following floating-point exceptions are signalling: IEEE_UNDERFLOW_FLAG IEEE_DENORMAL
normal termination of xtb
    29   6 C    3.912 --    36 C    1.283    28 N    1.229    30 C    1.220
    30   6 C    3.635 --    31 C    1.777    29 C    1.220    36 C    0.308
    31   6 C    3.430 --    30 C    1.777    32 C    1.365    36 C    0.155
    32   6 C    3.768 --    31 C    1.365    34 C    1.244    33 F    1.006
    33   9 F    1.151 --    32 C    1.006
    34   6 C    3.880 --    36 C    1.454    32 C    1.244    35 Cl   1.010
    35  17 Cl   1.190 --    34 C    1.010
    36   6 C    3.401 --    34 C    1.454    29 C    1.283    30 C    0.308
                            31 C    0.155
    37   6 C    3.849 --    27 C    1.232    19 C    1.166    23 C    1.162
 ---------------------------------------------------------------------------

Topologies differ in total number of bonds
Writing topology from bond orders to xtbtopo.mol

molecular dipole:
                 x           y           z       tot (Debye)
 q only:       -0.430       1.359      -0.618
   full:       -0.262       1.974      -1.353       6.119
molecular quadrupole (traceless):
                xx          xy          yy          xz          yz          zz
 q only:        2.443       0.497       9.661     -16.469       8.919     -12.104
  q+dip:        1.103       2.812      17.443     -14.608       1.458     -18.546
   full:       -2.255       1.067      23.094     -15.966       4.751     -20.839


           -------------------------------------------------
          | TOTAL ENERGY              -93.936084137381 Eh   |
          | GRADIENT NORM               0.518026446915 Eh/α |
          | HOMO-LUMO GAP               0.057027866590 eV   |
           -------------------------------------------------

------------------------------------------------------------------------
 * finished run on 2026/07/23 at 16:43:21.668     
------------------------------------------------------------------------
 total:
 * wall-time:     0 d,  0 h,  0 min,  0.859 sec
 *  cpu-time:     0 d,  0 h,  0 min,  0.892 sec
 * ratio c/w:     1.038 speedup
 SCF:
 * wall-time:     0 d,  0 h,  0 min,  0.841 sec
 *  cpu-time:     0 d,  0 h,  0 min,  0.867 sec
 * ratio c/w:     1.030 speedup

