      -----------------------------------------------------------      
     |                   =====================                   |     
     |                           x T B                           |     
     |                   =====================                   |     
     |                         S. Grimme                         |     
     |          Mulliken Center for Theoretical Chemistry        |     
     |                    University of Bonn                     |     
      -----------------------------------------------------------      

   * xtb version 6.6.1 (unknown) compiled by 'builduser@buildhost' on 2023-08-07

   xtb is free software: you can redistribute it and/or modify it under
   the terms of the GNU Lesser General Public License as published by
   the Free Software Foundation, either version 3 of the License, or
   (at your option) any later version.
   
   xtb is distributed in the hope that it will be useful,
   but WITHOUT ANY WARRANTY; without even the implied warranty of
   MERCHANTABILITY or FITNESS FOR A PARTICULAR PURPOSE.  See the
   GNU Lesser General Public License for more details.
   
   Cite this work as:
   * C. Bannwarth, E. Caldeweyher, S. Ehlert, A. Hansen, P. Pracht,
     J. Seibert, S. Spicher, S. Grimme, WIREs Comput. Mol. Sci., 2020, 11,
     e01493. DOI: 10.1002/wcms.1493
   
   for GFN2-xTB:
   * C. Bannwarth, S. Ehlert and S. Grimme., J. Chem. Theory Comput., 2019,
     15, 1652-1671. DOI: 10.1021/acs.jctc.8b01176
   for GFN1-xTB:
   * S. Grimme, C. Bannwarth, P. Shushkov, J. Chem. Theory Comput., 2017,
     13, 1989-2009. DOI: 10.1021/acs.jctc.7b00118
   for GFN0-xTB:
   * P. Pracht, E. Caldeweyher, S. Ehlert, S. Grimme, ChemRxiv, 2019, preprint.
     DOI: 10.26434/chemrxiv.8326202.v1
   for GFN-FF:
   * S. Spicher and S. Grimme, Angew. Chem. Int. Ed., 2020, 59, 15665-15673.
     DOI: 10.1002/anie.202004239
   
   for ALPB and GBSA implicit solvation:
   * S. Ehlert, M. Stahn, S. Spicher, S. Grimme, J. Chem. Theory Comput.,
     2021, 17, 4250-4261. DOI: 10.1021/acs.jctc.1c00471
   
   for DFT-D4:
   * E. Caldeweyher, C. Bannwarth and S. Grimme, J. Chem. Phys., 2017,
     147, 034112. DOI: 10.1063/1.4993215
   * E. Caldeweyher, S. Ehlert, A. Hansen, H. Neugebauer, S. Spicher,
     C. Bannwarth and S. Grimme, J. Chem. Phys., 2019, 150, 154122.
     DOI: 10.1063/1.5090222
   * E. Caldeweyher, J.-M. Mewes, S. Ehlert and S. Grimme, Phys. Chem. Chem. Phys.
     2020, 22, 8499-8512. DOI: 10.1039/D0CP00502A
   
   for sTDA-xTB:
   * S. Grimme and C. Bannwarth, J. Chem. Phys., 2016, 145, 054103.
     DOI: 10.1063/1.4959605
   
   in the mass-spec context:
   * V. Asgeirsson, C. Bauer and S. Grimme, Chem. Sci., 2017, 8, 4879.
     DOI: 10.1039/c7sc00601b
   * J. Koopman and S. Grimme, ACS Omega 2019, 4, 12, 15120-15133.
     DOI: 10.1021/acsomega.9b02011
   
   for metadynamics refer to:
   * S. Grimme, J. Chem. Theory Comput., 2019, 155, 2847-2862
     DOI: 10.1021/acs.jctc.9b00143
   
   for SPH calculations refer to:
   * S. Spicher and S. Grimme, J. Chem. Theory Comput., 2021, 17, 1701-1714
     DOI: 10.1021/acs.jctc.0c01306
   
   with help from (in alphabetical order)
   P. Atkinson, C. Bannwarth, F. Bohle, G. Brandenburg, E. Caldeweyher
   M. Checinski, S. Dohm, S. Ehlert, S. Ehrlich, I. Gerasimov, C. Hölzer
   A. Katbashev, J. Koopman, C. Lavigne, S. Lehtola, F. März, M. Müller,
   F. Musil, H. Neugebauer, J. Pisarek, C. Plett, P. Pracht, F. Pultar,
   J. Seibert, P. Shushkov, S. Spicher, M. Stahn, M. Steiner, T. Strunk,
   J. Stückrath, T. Rose, and J. Unsleber
   
 * started run on 2026/07/23 at 16:38:53.223     

           -------------------------------------------------
          |                Calculation Setup                |
           -------------------------------------------------

          program call               : xtb /home/selva/covalent_quantum_benchmark/data/quantum/erbB_xyz/EGFR__CHEMBL442754__state01.xyz --gfn2 --chrg 0 --uhf 0 --iterations 300
          coordinate file            : /home/selva/covalent_quantum_benchmark/data/quantum/erbB_xyz/EGFR__CHEMBL442754__state01.xyz
          omp threads                :                    24

   ID    Z sym.   atoms
    1    6 C      1, 3, 4, 6-10, 13-16, 18, 20, 22-26, 28-30
    2    8 O      2, 11
    3    7 N      5, 12, 17, 19, 21
    4   35 Br     27

           -------------------------------------------------
          |                 G F N 2 - x T B                 |
           -------------------------------------------------

        Reference                      10.1021/acs.jctc.8b01176
      * Hamiltonian:
        H0-scaling (s, p, d)           1.850000    2.230000    2.230000
        zeta-weighting                 0.500000
      * Dispersion:
        s8                             2.700000
        a1                             0.520000
        a2                             5.000000
        s9                             5.000000
      * Repulsion:
        kExp                           1.500000    1.000000
        rExp                           1.000000
      * Coulomb:
        alpha                          2.000000
        third order                    shell-resolved
        anisotropic                    true
        a3                             3.000000
        a5                             4.000000
        cn-shift                       1.200000
        cn-exp                         4.000000
        max-rad                        5.000000


          ...................................................
          :                      SETUP                      :
          :.................................................:
          :  # basis functions                 126          :
          :  # atomic orbitals                 125          :
          :  # shells                           61          :
          :  # electrons                       132          :
          :  max. iterations                   300          :
          :  Hamiltonian                  GFN2-xTB          :
          :  restarted?                      false          :
          :  GBSA solvation                  false          :
          :  PC potential                    false          :
          :  electronic temp.          300.0000000     K    :
          :  accuracy                    1.0000000          :
          :  -> integral cutoff          0.2500000E+02      :
          :  -> integral neglect         0.1000000E-07      :
          :  -> SCF convergence          0.1000000E-05 Eh   :
          :  -> wf. convergence          0.1000000E-03 e    :
          :  Broyden damping             0.4000000          :
          ...................................................

 iter      E             dE          RMSdq      gap      omega  full diag
   1    -72.0817228 -0.720817E+02  0.905E+00    0.22       0.0  T
   2    -48.0607094  0.240210E+02  0.142E+01    0.10       1.0  T
   3    -37.5527140  0.105080E+02  0.135E+01    0.46       1.0  T
   4    -32.4499364  0.510278E+01  0.150E+01    0.14       1.0  T
   5    -67.8791500 -0.354292E+02  0.832E+00    0.21       1.0  T
   6    -71.7476336 -0.386848E+01  0.596E+00    0.09       1.0  T
   7    -72.6633630 -0.915729E+00  0.479E+00    0.03       1.0  T
   8    -72.5127470  0.150616E+00  0.458E+00    0.15       1.0  T
   9    -72.4695211  0.432259E-01  0.404E+00    0.09       1.0  T
  10    -72.7839694 -0.314448E+00  0.341E+00    0.04       1.0  T
  11    -72.6242986  0.159671E+00  0.328E+00    0.17       1.0  T
  12    -72.6564424 -0.321437E-01  0.301E+00    0.03       1.0  T
  13    -72.7375047 -0.810623E-01  0.283E+00    0.13       1.0  T
  14    -73.0435568 -0.306052E+00  0.199E+00    0.06       1.0  T
  15    -72.6900874  0.353469E+00  0.286E+00    0.03       1.0  T
  16    -72.9543513 -0.264264E+00  0.197E+00    0.03       1.0  T
  17    -73.0287853 -0.744340E-01  0.166E+00    0.04       1.0  T
  18    -73.0372702 -0.848492E-02  0.161E+00    0.04       1.0  T
  19    -73.0565969 -0.193267E-01  0.144E+00    0.06       1.0  T
  20    -73.0095528  0.470441E-01  0.162E+00    0.04       1.0  T
  21    -73.1195126 -0.109960E+00  0.786E-01    0.08       1.0  T
  22    -73.0970538  0.224588E-01  0.101E+00    0.06       1.0  T
  23    -73.1120608 -0.150070E-01  0.892E-01    0.07       1.0  T
  24    -73.0936903  0.183704E-01  0.937E-01    0.05       1.0  T
  25    -73.1369386 -0.432483E-01  0.538E-01    0.06       1.0  T
  26    -73.1339808  0.295786E-02  0.573E-01    0.05       1.0  T
  27    -73.1437128 -0.973202E-02  0.427E-01    0.05       1.0  T
  28    -73.1054240  0.382888E-01  0.841E-01    0.06       1.0  T
  29    -73.1473553 -0.419313E-01  0.380E-01    0.06       1.0  T
  30    -73.1486670 -0.131167E-02  0.354E-01    0.06       1.0  T
  31    -73.1490265 -0.359528E-03  0.344E-01    0.06       1.0  T
  32    -73.1550763 -0.604985E-02  0.174E-01    0.06       1.0  T
  33    -73.1564495 -0.137316E-02  0.950E-02    0.06       1.0  T
  34    -73.1569437 -0.494244E-03  0.422E-02    0.06       1.0  T
  35    -73.1568468  0.969801E-04  0.605E-02    0.06       1.0  T
  36    -73.1568371  0.964565E-05  0.590E-02    0.06       1.0  T
  37    -73.1569297 -0.925442E-04  0.421E-02    0.06       1.0  T
  38    -73.1569313 -0.166847E-05  0.399E-02    0.06       1.0  T
  39    -73.1569831 -0.518229E-04  0.308E-02    0.06       1.0  T
  40    -73.1570069 -0.237204E-04  0.259E-02    0.06       1.0  T
  41    -73.1570320 -0.251170E-04  0.189E-02    0.06       1.0  T
  42    -73.1570459 -0.139609E-04  0.136E-02    0.06       1.3  T
  43    -73.1570517 -0.571362E-05  0.101E-02    0.06       1.8  T
  44    -73.1570557 -0.402552E-05  0.685E-03    0.06       2.7  T
  45    -73.1570587 -0.298242E-05  0.231E-03    0.06       7.9  T
  46    -73.1570587 -0.494050E-07  0.219E-03    0.06       8.3  T
  47    -73.1570585  0.239699E-06  0.267E-03    0.06       6.8  T
  48    -73.1570585 -0.167653E-07  0.249E-03    0.06       7.3  T
  49    -73.1570589 -0.400879E-06  0.113E-03    0.06      16.2  T
  50    -73.1570590 -0.946748E-07  0.382E-04    0.06      47.8  T
  51    -73.1570590 -0.118019E-07  0.156E-04    0.06     117.1  T

   *** convergence criteria satisfied after 51 iterations ***

         #    Occupation            Energy/Eh            Energy/eV
      -------------------------------------------------------------
         1        2.0000           -0.8648562             -23.5339
       ...           ...                  ...                  ...
        60        2.0000           -0.4333598             -11.7923
        61        2.0000           -0.4304369             -11.7128
        62        1.9997           -0.4245830             -11.5535
        63        1.9989           -0.4231884             -11.5155
        64        1.9431           -0.4194169             -11.4129
        65        1.8463           -0.4184232             -11.3859
        66        1.5748           -0.4173057             -11.3555 (HOMO)
        67        0.5188           -0.4150651             -11.2945 (LUMO)
        68        0.1183           -0.4134335             -11.2501
        69                         -0.3998947             -10.8817
        70                         -0.3972848             -10.8107
        71                         -0.3949648             -10.7475
       ...                                ...                  ...
       125                          0.6105693              16.6144
      -------------------------------------------------------------
                  HL-Gap            0.0022406 Eh            0.0610 eV
             Fermi-level           -0.4160617 Eh          -11.3216 eV

 SCC (total)                   0 d,  0 h,  0 min,  0.533 sec
 SCC setup                      ...        0 min,  0.001 sec (  0.102%)
 Dispersion                     ...        0 min,  0.001 sec (  0.259%)
 classical contributions        ...        0 min,  0.003 sec (  0.508%)
 integral evaluation            ...        0 min,  0.021 sec (  4.009%)
 iterations                     ...        0 min,  0.469 sec ( 88.099%)
 molecular gradient             ...        0 min,  0.036 sec (  6.726%)
 printout                       ...        0 min,  0.002 sec (  0.288%)

         :::::::::::::::::::::::::::::::::::::::::::::::::::::
         ::                     SUMMARY                     ::
         :::::::::::::::::::::::::::::::::::::::::::::::::::::
         :: total energy             -72.401340590764 Eh    ::
         :: gradient norm              0.476230302475 Eh/a0 ::
         :: HOMO-LUMO gap              0.060969850602 eV    ::
         ::.................................................::
         :: SCC energy               -73.157059001339 Eh    ::
         :: -> isotropic ES            0.012762095351 Eh    ::
         :: -> anisotropic ES          0.008182545787 Eh    ::
         :: -> anisotropic XC          0.042006620322 Eh    ::
         :: -> dispersion             -0.041565559062 Eh    ::
         :: repulsion energy           0.755501785175 Eh    ::
         :: add. restraining           0.000000000000 Eh    ::
         :: total charge               0.000000000000 e     ::
         :::::::::::::::::::::::::::::::::::::::::::::::::::::

           -------------------------------------------------
          |                Property Printout                |
           -------------------------------------------------

    * Orbital Energies and Occupations

         #    Occupation            Energy/Eh            Energy/eV
      -------------------------------------------------------------
         1        2.0000           -0.8648562             -23.5339
       ...           ...                  ...                  ...
        54        2.0000           -0.4580630             -12.4645
        55        2.0000           -0.4533227             -12.3355
        56        2.0000           -0.4484615             -12.2033
        57        2.0000           -0.4482226             -12.1968
        58        2.0000           -0.4422686             -12.0347
        59        2.0000           -0.4373036             -11.8996
        60        2.0000           -0.4333598             -11.7923
        61        2.0000           -0.4304369             -11.7128
        62        1.9997           -0.4245830             -11.5535
        63        1.9989           -0.4231884             -11.5155
        64        1.9431           -0.4194169             -11.4129
        65        1.8463           -0.4184232             -11.3859
        66        1.5748           -0.4173057             -11.3555 (HOMO)
        67        0.5188           -0.4150651             -11.2945 (LUMO)
        68        0.1183           -0.4134335             -11.2501
        69                         -0.3998947             -10.8817
        70                         -0.3972848             -10.8107
        71                         -0.3949648             -10.7475
        72                         -0.3909629             -10.6386
        73                         -0.3883516             -10.5676
        74                         -0.3611029              -9.8261
        75                         -0.3568056              -9.7092
        76                         -0.3514144              -9.5625
        77                         -0.3379078              -9.1949
       ...                                ...                  ...
       125                          0.6105693              16.6144
      -------------------------------------------------------------
                  HL-Gap            0.0022406 Eh            0.0610 eV
             Fermi-level           -0.4160617 Eh          -11.3216 eV

     #   Z          covCN         q      C6AA      α(0)
     1   6 C        0.877    -0.004    35.335     9.930
     2   8 O        1.697    -0.023    14.780     5.191
     3   6 C        1.849     0.020    30.629     8.940
     4   6 C        1.892    -0.009    31.361     9.045
     5   7 N        2.721     0.146    18.770     6.434
     6   6 C        0.924    -0.098    38.613    10.406
     7   6 C        1.902    -0.007    31.286     9.033
     8   6 C        1.966     0.024    30.439     8.910
     9   6 C        1.971    -0.008    31.282     9.032
    10   6 C        2.754     0.325    21.479     7.589
    11   8 O        0.857    -0.327    20.283     6.038
    12   7 N        1.836    -0.208    26.354     7.608
    13   6 C        2.895     0.149    24.769     8.160
    14   6 C        1.989    -0.014    31.424     9.053
    15   6 C        1.988    -0.023    31.656     9.086
    16   6 C        2.929     0.132    25.122     8.220
    17   7 N        1.830    -0.165    25.376     7.465
    18   6 C        1.918     0.169    27.033     8.397
    19   7 N        1.851    -0.144    24.899     7.396
    20   6 C        2.894     0.198    23.799     7.999
    21   7 N        1.856    -0.149    25.024     7.414
    22   6 C        2.915     0.125    25.250     8.240
    23   6 C        1.992    -0.005    31.193     9.020
    24   6 C        1.986    -0.021    31.615     9.080
    25   6 C        2.062     0.010    30.695     8.949
    26   6 C        2.906     0.114    25.492     8.279
    27  35 Br       1.069    -0.062   186.706    22.031
    28   6 C        2.067    -0.075    32.983     9.277
    29   6 C        2.968    -0.005    28.148     8.702
    30   6 C        1.995    -0.064    32.789     9.247

 Mol. C6AA /au·bohr⁶  :      27493.937050
 Mol. C8AA /au·bohr⁸  :     815291.944382
 Mol. α(0) /au        :        264.171476


Wiberg/Mayer (AO) data.
largest (>0.10) Wiberg bond orders for each atom

 ---------------------------------------------------------------------------
     #   Z sym  total        # sym  WBO       # sym  WBO       # sym  WBO
 ---------------------------------------------------------------------------
     1   6 C    2.220 --     2 O    1.518     4 C    0.258     6 C    0.224
                             3 C    0.205
     2   8 O    2.663 --     1 C    1.518     3 C    1.074
     3   6 C    3.239 --     4 C    1.731     2 O    1.074     1 C    0.205
                             6 C    0.122
     4   6 C    3.385 --     3 C    1.731     5 N    0.982     6 C    0.281
                             1 C    0.258
     5   7 N    3.675 --     6 C    1.554     7 C    1.036     4 C    0.982
     6   6 C    2.582 --     5 N    1.554     4 C    0.281     7 C    0.265
                             1 C    0.224     3 C    0.122
     7   6 C    3.076 --     8 C    1.372     5 N    1.036     6 C    0.265
                             9 C    0.180
     8   6 C    3.826 --     9 C    2.251     7 C    1.372
     9   6 C    3.695 --     8 C    2.251    10 C    0.966     7 C    0.180
                            11 O    0.108
    10   6 C    3.921 --    11 O    1.656    12 N    1.208     9 C    0.966
    11   8 O    2.082 --    10 C    1.656     9 C    0.108
    12   7 N    2.857 --    13 C    1.274    10 C    1.208    15 C    0.106
    13   6 C    3.889 --    12 N    1.274    30 C    1.238    14 C    1.217
    14   6 C    3.676 --    15 C    1.744    13 C    1.217    30 C    0.166
                            18 C    0.131
    15   6 C    3.553 --    14 C    1.744    16 C    1.294    30 C    0.187
                            12 N    0.106
    16   6 C    3.864 --    15 C    1.294    17 N    1.164    29 C    1.155
    17   7 N    3.061 --    18 C    1.562    16 C    1.164
    18   6 C    3.826 --    19 N    1.776    17 N    1.562    14 C    0.131
    19   7 N    3.211 --    18 C    1.776    20 C    1.103
    20   6 C    3.951 --    21 N    1.624    19 N    1.103    29 C    1.015
    21   7 N    3.207 --    20 C    1.624    22 C    1.106
    22   6 C    3.951 --    28 C    1.352    23 C    1.309    21 N    1.106
    23   6 C    3.748 --    24 C    1.620    22 C    1.309    25 C    0.391
                            28 C    0.160
    24   6 C    3.749 --    25 C    1.632    23 C    1.620    28 C    0.384
    25   6 C    3.754 --    24 C    1.632    26 C    1.363    23 C    0.391
                            28 C    0.156
    26   6 C    3.928 --    28 C    1.419    25 C    1.363    27 Br   0.994
    27  35 Br   1.196 --    26 C    0.994
    28   6 C    3.611 --    26 C    1.419    22 C    1.352    24 C    0.384
                            23 C    0.160    25 C    0.156
    29   6 C    3.940 --    30 C    1.493    16 C    1.155    20 C    1.015
    30   6 C    3.404 --    29 C    1.493    13 C    1.238    15 C    0.187
                            14 C    0.166
 ---------------------------------------------------------------------------
Note: The following floating-point exceptions are signalling: IEEE_UNDERFLOW_FLAG IEEE_DENORMAL
normal termination of xtb

Topologies differ in total number of bonds
Writing topology from bond orders to xtbtopo.mol

molecular dipole:
                 x           y           z       tot (Debye)
 q only:        0.571       0.285      -0.295
   full:        0.040       0.694       0.026       1.769
molecular quadrupole (traceless):
                xx          xy          yy          xz          yz          zz
 q only:       -8.750       7.536      -0.421       5.224       4.323       9.170
  q+dip:      -23.367      13.139       7.576      11.913      10.103      15.791
   full:      -24.555      14.039      12.174      11.634       6.589      12.381


           -------------------------------------------------
          | TOTAL ENERGY              -72.401340590764 Eh   |
          | GRADIENT NORM               0.476230302475 Eh/α |
          | HOMO-LUMO GAP               0.060969850602 eV   |
           -------------------------------------------------

------------------------------------------------------------------------
 * finished run on 2026/07/23 at 16:38:53.776     
------------------------------------------------------------------------
 total:
 * wall-time:     0 d,  0 h,  0 min,  0.554 sec
 *  cpu-time:     0 d,  0 h,  0 min,  0.509 sec
 * ratio c/w:     0.920 speedup
 SCF:
 * wall-time:     0 d,  0 h,  0 min,  0.533 sec
 *  cpu-time:     0 d,  0 h,  0 min,  0.483 sec
 * ratio c/w:     0.907 speedup

