      -----------------------------------------------------------      
     |                   =====================                   |     
     |                           x T B                           |     
     |                   =====================                   |     
     |                         S. Grimme                         |     
     |          Mulliken Center for Theoretical Chemistry        |     
     |                    University of Bonn                     |     
      -----------------------------------------------------------      

   * xtb version 6.6.1 (unknown) compiled by 'builduser@buildhost' on 2023-08-07

   xtb is free software: you can redistribute it and/or modify it under
   the terms of the GNU Lesser General Public License as published by
   the Free Software Foundation, either version 3 of the License, or
   (at your option) any later version.
   
   xtb is distributed in the hope that it will be useful,
   but WITHOUT ANY WARRANTY; without even the implied warranty of
   MERCHANTABILITY or FITNESS FOR A PARTICULAR PURPOSE.  See the
   GNU Lesser General Public License for more details.
   
   Cite this work as:
   * C. Bannwarth, E. Caldeweyher, S. Ehlert, A. Hansen, P. Pracht,
     J. Seibert, S. Spicher, S. Grimme, WIREs Comput. Mol. Sci., 2020, 11,
     e01493. DOI: 10.1002/wcms.1493
   
   for GFN2-xTB:
   * C. Bannwarth, S. Ehlert and S. Grimme., J. Chem. Theory Comput., 2019,
     15, 1652-1671. DOI: 10.1021/acs.jctc.8b01176
   for GFN1-xTB:
   * S. Grimme, C. Bannwarth, P. Shushkov, J. Chem. Theory Comput., 2017,
     13, 1989-2009. DOI: 10.1021/acs.jctc.7b00118
   for GFN0-xTB:
   * P. Pracht, E. Caldeweyher, S. Ehlert, S. Grimme, ChemRxiv, 2019, preprint.
     DOI: 10.26434/chemrxiv.8326202.v1
   for GFN-FF:
   * S. Spicher and S. Grimme, Angew. Chem. Int. Ed., 2020, 59, 15665-15673.
     DOI: 10.1002/anie.202004239
   
   for ALPB and GBSA implicit solvation:
   * S. Ehlert, M. Stahn, S. Spicher, S. Grimme, J. Chem. Theory Comput.,
     2021, 17, 4250-4261. DOI: 10.1021/acs.jctc.1c00471
   
   for DFT-D4:
   * E. Caldeweyher, C. Bannwarth and S. Grimme, J. Chem. Phys., 2017,
     147, 034112. DOI: 10.1063/1.4993215
   * E. Caldeweyher, S. Ehlert, A. Hansen, H. Neugebauer, S. Spicher,
     C. Bannwarth and S. Grimme, J. Chem. Phys., 2019, 150, 154122.
     DOI: 10.1063/1.5090222
   * E. Caldeweyher, J.-M. Mewes, S. Ehlert and S. Grimme, Phys. Chem. Chem. Phys.
     2020, 22, 8499-8512. DOI: 10.1039/D0CP00502A
   
   for sTDA-xTB:
   * S. Grimme and C. Bannwarth, J. Chem. Phys., 2016, 145, 054103.
     DOI: 10.1063/1.4959605
   
   in the mass-spec context:
   * V. Asgeirsson, C. Bauer and S. Grimme, Chem. Sci., 2017, 8, 4879.
     DOI: 10.1039/c7sc00601b
   * J. Koopman and S. Grimme, ACS Omega 2019, 4, 12, 15120-15133.
     DOI: 10.1021/acsomega.9b02011
   
   for metadynamics refer to:
   * S. Grimme, J. Chem. Theory Comput., 2019, 155, 2847-2862
     DOI: 10.1021/acs.jctc.9b00143
   
   for SPH calculations refer to:
   * S. Spicher and S. Grimme, J. Chem. Theory Comput., 2021, 17, 1701-1714
     DOI: 10.1021/acs.jctc.0c01306
   
   with help from (in alphabetical order)
   P. Atkinson, C. Bannwarth, F. Bohle, G. Brandenburg, E. Caldeweyher
   M. Checinski, S. Dohm, S. Ehlert, S. Ehrlich, I. Gerasimov, C. Hölzer
   A. Katbashev, J. Koopman, C. Lavigne, S. Lehtola, F. März, M. Müller,
   F. Musil, H. Neugebauer, J. Pisarek, C. Plett, P. Pracht, F. Pultar,
   J. Seibert, P. Shushkov, S. Spicher, M. Stahn, M. Steiner, T. Strunk,
   J. Stückrath, T. Rose, and J. Unsleber
   
 * started run on 2026/07/23 at 16:38:37.320     

           -------------------------------------------------
          |                Calculation Setup                |
           -------------------------------------------------

          program call               : xtb /home/selva/covalent_quantum_benchmark/data/quantum/erbB_xyz/EGFR__CHEMBL357400__state01.xyz --gfn2 --chrg 0 --uhf 0 --iterations 300
          coordinate file            : /home/selva/covalent_quantum_benchmark/data/quantum/erbB_xyz/EGFR__CHEMBL357400__state01.xyz
          omp threads                :                    24

   ID    Z sym.   atoms
    1    6 C      1, 3-8, 10, 13-16, 18, 20, 21, 23-26, 28, 30, 32-35, 37
    2    8 O      2, 11, 19, 29, 31, 38
    3    7 N      9, 12, 17, 22
    4   35 Br     27, 36

           -------------------------------------------------
          |                 G F N 2 - x T B                 |
           -------------------------------------------------

        Reference                      10.1021/acs.jctc.8b01176
      * Hamiltonian:
        H0-scaling (s, p, d)           1.850000    2.230000    2.230000
        zeta-weighting                 0.500000
      * Dispersion:
        s8                             2.700000
        a1                             0.520000
        a2                             5.000000
        s9                             5.000000
      * Repulsion:
        kExp                           1.500000    1.000000
        rExp                           1.000000
      * Coulomb:
        alpha                          2.000000
        third order                    shell-resolved
        anisotropic                    true
        a3                             3.000000
        a5                             4.000000
        cn-shift                       1.200000
        cn-exp                         4.000000
        max-rad                        5.000000


          ...................................................
          :                      SETUP                      :
          :.................................................:
          :  # basis functions                 164          :
          :  # atomic orbitals                 162          :
          :  # shells                           78          :
          :  # electrons                       174          :
          :  max. iterations                   300          :
          :  Hamiltonian                  GFN2-xTB          :
          :  restarted?                      false          :
          :  GBSA solvation                  false          :
          :  PC potential                    false          :
          :  electronic temp.          300.0000000     K    :
          :  accuracy                    1.0000000          :
          :  -> integral cutoff          0.2500000E+02      :
          :  -> integral neglect         0.1000000E-07      :
          :  -> SCF convergence          0.1000000E-05 Eh   :
          :  -> wf. convergence          0.1000000E-03 e    :
          :  Broyden damping             0.4000000          :
          ...................................................

 iter      E             dE          RMSdq      gap      omega  full diag
   1    -98.2423632 -0.982424E+02  0.901E+00    0.27       0.0  T
   2    -79.8639142  0.183784E+02  0.126E+01    0.05       1.0  T
   3    -76.8816332  0.298228E+01  0.118E+01    0.11       1.0  T
   4    -92.8226062 -0.159410E+02  0.870E+00    0.02       1.0  T
   5    -91.2924054  0.153020E+01  0.855E+00    0.16       1.0  T
   6    -98.1003666 -0.680796E+01  0.488E+00    0.10       1.0  T
   7    -97.6574933  0.442873E+00  0.501E+00    0.07       1.0  T
   8    -98.3441969 -0.686704E+00  0.379E+00    0.04       1.0  T
   9    -98.7221126 -0.377916E+00  0.358E+00    0.20       1.0  T
  10    -99.0144142 -0.292302E+00  0.252E+00    0.02       1.0  T
  11    -98.8824917  0.131922E+00  0.303E+00    0.19       1.0  T
  12    -98.9300732 -0.475815E-01  0.306E+00    0.09       1.0  T
  13    -99.1839179 -0.253845E+00  0.191E+00    0.05       1.0  T
  14    -98.6989421  0.484976E+00  0.361E+00    0.17       1.0  T
  15    -98.7028790 -0.393686E-02  0.346E+00    0.09       1.0  T
  16    -98.7755532 -0.726742E-01  0.338E+00    0.19       1.0  T
  17    -98.8804807 -0.104928E+00  0.298E+00    0.14       1.0  T
  18    -98.8886563 -0.817562E-02  0.291E+00    0.16       1.0  T
  19    -98.8825706  0.608577E-02  0.288E+00    0.17       1.0  T
  20    -99.0546167 -0.172046E+00  0.223E+00    0.08       1.0  T
  21    -99.0718240 -0.172074E-01  0.214E+00    0.06       1.0  T
  22    -99.0258096  0.460144E-01  0.233E+00    0.09       1.0  T
  23    -98.9992131  0.265966E-01  0.200E+00    0.06       1.0  T
  24    -99.0623331 -0.631201E-01  0.216E+00    0.09       1.0  T
  25    -99.2048552 -0.142522E+00  0.134E+00    0.03       1.0  T
  26    -99.2998337 -0.949786E-01  0.638E-01    0.03       1.0  T
  27    -99.2936707  0.616305E-02  0.751E-01    0.04       1.0  T
  28    -99.3057763 -0.121056E-01  0.598E-01    0.03       1.0  T
  29    -99.3128159 -0.703956E-02  0.447E-01    0.03       1.0  T
  30    -99.3221576 -0.934174E-02  0.230E-01    0.02       1.0  T
  31    -99.3194784  0.267924E-02  0.306E-01    0.02       1.0  T
  32    -99.3235837 -0.410531E-02  0.195E-01    0.02       1.0  T
  33    -99.3261192 -0.253547E-02  0.833E-02    0.02       1.0  T
  34    -99.3261288 -0.957980E-05  0.937E-02    0.02       1.0  T
  35    -99.3260594  0.693893E-04  0.994E-02    0.02       1.0  T
  36    -99.3265219 -0.462546E-03  0.424E-02    0.02       1.0  T
  37    -99.3261918  0.330105E-03  0.815E-02    0.02       1.0  T
  38    -99.3265008 -0.308992E-03  0.473E-02    0.02       1.0  T
  39    -99.3265954 -0.946313E-04  0.209E-02    0.02       1.0  T
  40    -99.3265271  0.683791E-04  0.424E-02    0.02       1.0  T
  41    -99.3265881 -0.610580E-04  0.271E-02    0.02       1.0  T
  42    -99.3266170 -0.288348E-04  0.148E-02    0.02       1.1  T
  43    -99.3266236 -0.662848E-05  0.104E-02    0.02       1.6  T
  44    -99.3266260 -0.244810E-05  0.800E-03    0.02       2.0  T
  45    -99.3266305 -0.444785E-05  0.198E-03    0.02       8.2  T
  46    -99.3266307 -0.244267E-06  0.110E-03    0.02      14.8  T
  47    -99.3266308 -0.103200E-06  0.346E-04    0.02      46.9  T
  48    -99.3266308 -0.959898E-08  0.133E-04    0.02     121.7  T

   *** convergence criteria satisfied after 48 iterations ***

         #    Occupation            Energy/Eh            Energy/eV
      -------------------------------------------------------------
         1        2.0000           -0.8851170             -24.0853
       ...           ...                  ...                  ...
        81        2.0000           -0.4611914             -12.5497
        82        2.0000           -0.4587967             -12.4845
        83        2.0000           -0.4560708             -12.4103
        84        2.0000           -0.4555443             -12.3960
        85        2.0000           -0.4497682             -12.2388
        86        2.0000           -0.4433778             -12.0649
        87        1.0788           -0.4320690             -11.7572 (HOMO)
        88        0.6547           -0.4312347             -11.7345 (LUMO)
        89        0.2434           -0.4300413             -11.7020
        90        0.0232           -0.4276968             -11.6382
        91                         -0.4148448             -11.2885
        92                         -0.4140357             -11.2665
       ...                                ...                  ...
       162                          1.0389025              28.2700
      -------------------------------------------------------------
                  HL-Gap            0.0008343 Eh            0.0227 eV
             Fermi-level           -0.4319191 Eh          -11.7531 eV

 SCC (total)                   0 d,  0 h,  0 min,  0.976 sec
 SCC setup                      ...        0 min,  0.000 sec (  0.040%)
 Dispersion                     ...        0 min,  0.005 sec (  0.467%)
 classical contributions        ...        0 min,  0.003 sec (  0.282%)
 integral evaluation            ...        0 min,  0.006 sec (  0.634%)
 iterations                     ...        0 min,  0.927 sec ( 94.991%)
 molecular gradient             ...        0 min,  0.032 sec (  3.234%)
 printout                       ...        0 min,  0.003 sec (  0.346%)

         :::::::::::::::::::::::::::::::::::::::::::::::::::::
         ::                     SUMMARY                     ::
         :::::::::::::::::::::::::::::::::::::::::::::::::::::
         :: total energy             -98.322668637137 Eh    ::
         :: gradient norm              0.623524685224 Eh/a0 ::
         :: HOMO-LUMO gap              0.022702083504 eV    ::
         ::.................................................::
         :: SCC energy               -99.326630833087 Eh    ::
         :: -> isotropic ES            0.106066363894 Eh    ::
         :: -> anisotropic ES          0.004567033448 Eh    ::
         :: -> anisotropic XC          0.058555053976 Eh    ::
         :: -> dispersion             -0.057511049611 Eh    ::
         :: repulsion energy           1.002502305567 Eh    ::
         :: add. restraining           0.000000000000 Eh    ::
         :: total charge              -0.000000000008 e     ::
         :::::::::::::::::::::::::::::::::::::::::::::::::::::

           -------------------------------------------------
          |                Property Printout                |
           -------------------------------------------------

    * Orbital Energies and Occupations

         #    Occupation            Energy/Eh            Energy/eV
      -------------------------------------------------------------
         1        2.0000           -0.8851170             -24.0853
       ...           ...                  ...                  ...
        75        2.0000           -0.4792450             -13.0409
        76        2.0000           -0.4757039             -12.9446
        77        2.0000           -0.4739650             -12.8972
        78        2.0000           -0.4679310             -12.7331
        79        2.0000           -0.4638574             -12.6222
        80        2.0000           -0.4628377             -12.5945
        81        2.0000           -0.4611914             -12.5497
        82        2.0000           -0.4587967             -12.4845
        83        2.0000           -0.4560708             -12.4103
        84        2.0000           -0.4555443             -12.3960
        85        2.0000           -0.4497682             -12.2388
        86        2.0000           -0.4433778             -12.0649
        87        1.0788           -0.4320690             -11.7572 (HOMO)
        88        0.6547           -0.4312347             -11.7345 (LUMO)
        89        0.2434           -0.4300413             -11.7020
        90        0.0232           -0.4276968             -11.6382
        91                         -0.4148448             -11.2885
        92                         -0.4140357             -11.2665
        93                         -0.4097353             -11.1495
        94                         -0.4059011             -11.0451
        95                         -0.4034983             -10.9797
        96                         -0.3989127             -10.8550
        97                         -0.3889381             -10.5835
        98                         -0.3809833             -10.3671
       ...                                ...                  ...
       162                          1.0389025              28.2700
      -------------------------------------------------------------
                  HL-Gap            0.0008343 Eh            0.0227 eV
             Fermi-level           -0.4319191 Eh          -11.7531 eV

     #   Z          covCN         q      C6AA      α(0)
     1   6 C        0.879     0.006    35.034     9.889
     2   8 O        1.701    -0.032    14.903     5.212
     3   6 C        2.849     0.122    25.307     8.245
     4   6 C        1.986    -0.049    32.368     9.188
     5   6 C        2.958     0.073    26.371     8.423
     6   6 C        1.994     0.038    30.066     8.855
     7   6 C        2.947     0.062    26.615     8.461
     8   6 C        1.911     0.144    27.594     8.484
     9   7 N        0.911    -0.132    23.859     7.065
    10   6 C        2.762     0.278    22.288     7.731
    11   8 O        0.854    -0.394    21.558     6.225
    12   7 N        1.824    -0.124    24.452     7.327
    13   6 C        1.886     0.086    28.962     8.692
    14   6 C        1.953     0.039    30.069     8.855
    15   6 C        1.956     0.000    31.076     9.002
    16   6 C        1.902     0.089    28.889     8.680
    17   7 N        1.827    -0.112    24.205     7.290
    18   6 C        2.770     0.300    21.913     7.667
    19   8 O        0.857    -0.379    21.268     6.183
    20   6 C        2.947     0.049    26.897     8.506
    21   6 C        1.911     0.142    27.657     8.493
    22   7 N        0.911    -0.151    24.268     7.125
    23   6 C        1.999     0.026    30.366     8.899
    24   6 C        2.952     0.077    26.281     8.408
    25   6 C        2.102    -0.026    31.557     9.077
    26   6 C        2.871     0.023    27.490     8.595
    27  35 Br       1.130    -0.055   186.539    22.022
    28   6 C        2.920     0.227    23.245     7.906
    29   8 O        0.857    -0.292    19.630     5.940
    30   6 C        2.855     0.127    25.219     8.231
    31   8 O        1.702    -0.050    15.141     5.253
    32   6 C        0.887    -0.008    35.507     9.960
    33   6 C        1.986    -0.064    32.785     9.247
    34   6 C        2.077    -0.050    32.274     9.177
    35   6 C        2.887     0.073    26.372     8.419
    36  35 Br       1.071    -0.026   185.709    21.973
    37   6 C        2.873     0.226    23.257     7.906
    38   8 O        0.857    -0.266    19.177     5.871

 Mol. C6AA /au·bohr⁶  :      44238.182795
 Mol. C8AA /au·bohr⁸  :    1357979.354023
 Mol. α(0) /au        :        332.483330


Wiberg/Mayer (AO) data.
largest (>0.10) Wiberg bond orders for each atom

 ---------------------------------------------------------------------------
     #   Z sym  total        # sym  WBO       # sym  WBO       # sym  WBO
 ---------------------------------------------------------------------------
     1   6 C    1.836 --     2 O    1.568
     2   8 O    2.619 --     1 C    1.568     3 C    0.976
     3   6 C    3.853 --     4 C    1.698     2 O    0.976    37 C    0.957
     4   6 C    3.647 --     3 C    1.698     5 C    1.107    34 C    0.430
                            38 O    0.126
     5   6 C    3.968 --     6 C    1.638     4 C    1.107    34 C    1.077
     6   6 C    3.763 --     5 C    1.638     7 C    1.534    11 O    0.158
                             9 N    0.126
     7   6 C    3.952 --     6 C    1.534    10 C    1.163     8 C    1.079
     8   6 C    3.942 --     9 N    2.803     7 C    1.079
     9   7 N    3.021 --     8 C    2.803     6 C    0.126
    10   6 C    3.938 --    11 O    1.458    12 N    1.207     7 C    1.163
    11   8 O    1.866 --    10 C    1.458     6 C    0.158
    12   7 N    3.272 --    13 C    1.595    10 C    1.207    14 C    0.164
    13   6 C    3.462 --    12 N    1.595    14 C    1.547    15 C    0.131
    14   6 C    3.435 --    13 C    1.547    15 C    1.489    12 N    0.164
    15   6 C    3.602 --    16 C    1.679    14 C    1.489    17 N    0.135
                            13 C    0.131
    16   6 C    3.540 --    15 C    1.679    17 N    1.518
    17   7 N    3.316 --    16 C    1.518    18 C    1.384    15 C    0.135
    18   6 C    3.928 --    19 O    1.499    17 N    1.384    20 C    0.907
    19   8 O    1.943 --    18 C    1.499    23 C    0.149
    20   6 C    3.959 --    23 C    1.801    21 C    1.074    18 C    0.907
    21   6 C    3.942 --    22 N    2.819    20 C    1.074
    22   7 N    3.019 --    21 C    2.819    23 C    0.128
    23   6 C    3.769 --    20 C    1.801    24 C    1.288    19 O    0.149
                            26 C    0.137    22 N    0.128
    24   6 C    3.965 --    25 C    1.426    23 C    1.288    33 C    1.084
    25   6 C    3.698 --    26 C    1.428    24 C    1.426    33 C    0.421
    26   6 C    3.775 --    25 C    1.428    28 C    1.003    27 Br   0.997
                            23 C    0.137
    27  35 Br   1.253 --    26 C    0.997
    28   6 C    3.917 --    29 O    1.773    26 C    1.003    30 C    0.948
    29   8 O    2.174 --    28 C    1.773    33 C    0.122
    30   6 C    3.856 --    33 C    1.705    31 O    0.972    28 C    0.948
    31   8 O    2.591 --    32 C    1.543    30 C    0.972
    32   6 C    1.805 --    31 O    1.543
    33   6 C    3.650 --    30 C    1.705    24 C    1.084    25 C    0.421
                            29 O    0.122
Note: The following floating-point exceptions are signalling: IEEE_UNDERFLOW_FLAG IEEE_DENORMAL
normal termination of xtb
    34   6 C    3.677 --    35 C    1.729     5 C    1.077     4 C    0.430
                            38 O    0.134    36 Br   0.101
    35   6 C    3.934 --    34 C    1.729    36 Br   1.030    37 C    0.979
    36  35 Br   1.235 --    35 C    1.030    34 C    0.101
    37   6 C    3.919 --    38 O    1.784    35 C    0.979     3 C    0.957
    38   8 O    2.215 --    37 C    1.784    34 C    0.134     4 C    0.126
 ---------------------------------------------------------------------------

Topologies differ in total number of bonds
Writing topology from bond orders to xtbtopo.mol

molecular dipole:
                 x           y           z       tot (Debye)
 q only:        0.485       0.219       1.329
   full:        0.051       0.077       1.533       3.903
molecular quadrupole (traceless):
                xx          xy          yy          xz          yz          zz
 q only:      -14.632       1.422      13.509       6.579       8.064       1.124
  q+dip:      -16.876      10.112      10.436      14.317       6.910       6.440
   full:      -19.503      11.281       9.973      14.724       7.890       9.530


           -------------------------------------------------
          | TOTAL ENERGY              -98.322668637137 Eh   |
          | GRADIENT NORM               0.623524685224 Eh/α |
          | HOMO-LUMO GAP               0.022702083504 eV   |
           -------------------------------------------------

------------------------------------------------------------------------
 * finished run on 2026/07/23 at 16:38:38.318     
------------------------------------------------------------------------
 total:
 * wall-time:     0 d,  0 h,  0 min,  0.997 sec
 *  cpu-time:     0 d,  0 h,  0 min,  1.058 sec
 * ratio c/w:     1.061 speedup
 SCF:
 * wall-time:     0 d,  0 h,  0 min,  0.976 sec
 *  cpu-time:     0 d,  0 h,  0 min,  1.025 sec
 * ratio c/w:     1.050 speedup

