      -----------------------------------------------------------      
     |                   =====================                   |     
     |                           x T B                           |     
     |                   =====================                   |     
     |                         S. Grimme                         |     
     |          Mulliken Center for Theoretical Chemistry        |     
     |                    University of Bonn                     |     
      -----------------------------------------------------------      

   * xtb version 6.6.1 (unknown) compiled by 'builduser@buildhost' on 2023-08-07

   xtb is free software: you can redistribute it and/or modify it under
   the terms of the GNU Lesser General Public License as published by
   the Free Software Foundation, either version 3 of the License, or
   (at your option) any later version.
   
   xtb is distributed in the hope that it will be useful,
   but WITHOUT ANY WARRANTY; without even the implied warranty of
   MERCHANTABILITY or FITNESS FOR A PARTICULAR PURPOSE.  See the
   GNU Lesser General Public License for more details.
   
   Cite this work as:
   * C. Bannwarth, E. Caldeweyher, S. Ehlert, A. Hansen, P. Pracht,
     J. Seibert, S. Spicher, S. Grimme, WIREs Comput. Mol. Sci., 2020, 11,
     e01493. DOI: 10.1002/wcms.1493
   
   for GFN2-xTB:
   * C. Bannwarth, S. Ehlert and S. Grimme., J. Chem. Theory Comput., 2019,
     15, 1652-1671. DOI: 10.1021/acs.jctc.8b01176
   for GFN1-xTB:
   * S. Grimme, C. Bannwarth, P. Shushkov, J. Chem. Theory Comput., 2017,
     13, 1989-2009. DOI: 10.1021/acs.jctc.7b00118
   for GFN0-xTB:
   * P. Pracht, E. Caldeweyher, S. Ehlert, S. Grimme, ChemRxiv, 2019, preprint.
     DOI: 10.26434/chemrxiv.8326202.v1
   for GFN-FF:
   * S. Spicher and S. Grimme, Angew. Chem. Int. Ed., 2020, 59, 15665-15673.
     DOI: 10.1002/anie.202004239
   
   for ALPB and GBSA implicit solvation:
   * S. Ehlert, M. Stahn, S. Spicher, S. Grimme, J. Chem. Theory Comput.,
     2021, 17, 4250-4261. DOI: 10.1021/acs.jctc.1c00471
   
   for DFT-D4:
   * E. Caldeweyher, C. Bannwarth and S. Grimme, J. Chem. Phys., 2017,
     147, 034112. DOI: 10.1063/1.4993215
   * E. Caldeweyher, S. Ehlert, A. Hansen, H. Neugebauer, S. Spicher,
     C. Bannwarth and S. Grimme, J. Chem. Phys., 2019, 150, 154122.
     DOI: 10.1063/1.5090222
   * E. Caldeweyher, J.-M. Mewes, S. Ehlert and S. Grimme, Phys. Chem. Chem. Phys.
     2020, 22, 8499-8512. DOI: 10.1039/D0CP00502A
   
   for sTDA-xTB:
   * S. Grimme and C. Bannwarth, J. Chem. Phys., 2016, 145, 054103.
     DOI: 10.1063/1.4959605
   
   in the mass-spec context:
   * V. Asgeirsson, C. Bauer and S. Grimme, Chem. Sci., 2017, 8, 4879.
     DOI: 10.1039/c7sc00601b
   * J. Koopman and S. Grimme, ACS Omega 2019, 4, 12, 15120-15133.
     DOI: 10.1021/acsomega.9b02011
   
   for metadynamics refer to:
   * S. Grimme, J. Chem. Theory Comput., 2019, 155, 2847-2862
     DOI: 10.1021/acs.jctc.9b00143
   
   for SPH calculations refer to:
   * S. Spicher and S. Grimme, J. Chem. Theory Comput., 2021, 17, 1701-1714
     DOI: 10.1021/acs.jctc.0c01306
   
   with help from (in alphabetical order)
   P. Atkinson, C. Bannwarth, F. Bohle, G. Brandenburg, E. Caldeweyher
   M. Checinski, S. Dohm, S. Ehlert, S. Ehrlich, I. Gerasimov, C. Hölzer
   A. Katbashev, J. Koopman, C. Lavigne, S. Lehtola, F. März, M. Müller,
   F. Musil, H. Neugebauer, J. Pisarek, C. Plett, P. Pracht, F. Pultar,
   J. Seibert, P. Shushkov, S. Spicher, M. Stahn, M. Steiner, T. Strunk,
   J. Stückrath, T. Rose, and J. Unsleber
   
 * started run on 2026/07/23 at 16:42:24.781     

           -------------------------------------------------
          |                Calculation Setup                |
           -------------------------------------------------

          program call               : xtb /home/selva/covalent_quantum_benchmark/data/quantum/erbB_xyz/ERBB2__CHEMBL362232__state02.xyz --gfn2 --chrg 0 --uhf 0 --iterations 300
          coordinate file            : /home/selva/covalent_quantum_benchmark/data/quantum/erbB_xyz/ERBB2__CHEMBL362232__state02.xyz
          omp threads                :                    24

   ID    Z sym.   atoms
    1    6 C      1, 2, 4-6, 8-10, 12, 14-17, 19-25, 27, 28, 30-33, 35,
                  37-39, 41, 42
    2    8 O      3, 18, 26, 36
    3    7 N      7, 11, 13, 34, 40
    4   17 Cl     29

           -------------------------------------------------
          |                 G F N 2 - x T B                 |
           -------------------------------------------------

        Reference                      10.1021/acs.jctc.8b01176
      * Hamiltonian:
        H0-scaling (s, p, d)           1.850000    2.230000    2.230000
        zeta-weighting                 0.500000
      * Dispersion:
        s8                             2.700000
        a1                             0.520000
        a2                             5.000000
        s9                             5.000000
      * Repulsion:
        kExp                           1.500000    1.000000
        rExp                           1.000000
      * Coulomb:
        alpha                          2.000000
        third order                    shell-resolved
        anisotropic                    true
        a3                             3.000000
        a5                             4.000000
        cn-shift                       1.200000
        cn-exp                         4.000000
        max-rad                        5.000000


          ...................................................
          :                      SETUP                      :
          :.................................................:
          :  # basis functions                 174          :
          :  # atomic orbitals                 173          :
          :  # shells                           85          :
          :  # electrons                       184          :
          :  max. iterations                   300          :
          :  Hamiltonian                  GFN2-xTB          :
          :  restarted?                      false          :
          :  GBSA solvation                  false          :
          :  PC potential                    false          :
          :  electronic temp.          300.0000000     K    :
          :  accuracy                    1.0000000          :
          :  -> integral cutoff          0.2500000E+02      :
          :  -> integral neglect         0.1000000E-07      :
          :  -> SCF convergence          0.1000000E-05 Eh   :
          :  -> wf. convergence          0.1000000E-03 e    :
          :  Broyden damping             0.4000000          :
          ...................................................

 iter      E             dE          RMSdq      gap      omega  full diag
   1   -101.5022368 -0.101502E+03  0.916E+00    0.11       0.0  T
   2    -67.5746728  0.339276E+02  0.137E+01    0.20       1.0  T
   3    -43.0787358  0.244959E+02  0.148E+01    0.19       1.0  T
   4    -74.0795809 -0.310008E+02  0.114E+01    0.27       1.0  T
   5    -98.4461050 -0.243665E+02  0.721E+00    0.13       1.0  T
   6    -99.1893962 -0.743291E+00  0.609E+00    0.09       1.0  T
   7   -101.1135647 -0.192417E+01  0.507E+00    0.13       1.0  T
   8    -99.9298444  0.118372E+01  0.517E+00    0.11       1.0  T
   9   -101.6179047 -0.168806E+01  0.474E+00    0.05       1.0  T
  10   -101.7466225 -0.128718E+00  0.369E+00    0.06       1.0  T
  11   -100.4650115  0.128161E+01  0.513E+00    0.12       1.0  T
  12   -102.0434612 -0.157845E+01  0.417E+00    0.00       1.0  T
  13   -101.9182111  0.125250E+00  0.418E+00    0.18       1.0  T
  14   -101.4666104  0.451601E+00  0.419E+00    0.09       1.0  T
  15   -101.7094316 -0.242821E+00  0.369E+00    0.02       1.0  T
  16   -101.7630215 -0.535899E-01  0.341E+00    0.06       1.0  T
  17   -102.6164019 -0.853380E+00  0.222E+00    0.03       1.0  T
  18   -102.6641154 -0.477135E-01  0.238E+00    0.11       1.0  T
  19   -102.7295202 -0.654048E-01  0.191E+00    0.05       1.0  T
  20   -101.7705765  0.958944E+00  0.343E+00    0.11       1.0  T
  21   -101.8114178 -0.408413E-01  0.336E+00    0.10       1.0  T
  22   -101.8918831 -0.804653E-01  0.328E+00    0.11       1.0  T
  23   -102.2511457 -0.359263E+00  0.268E+00    0.08       1.0  T
  24   -102.2057575  0.453881E-01  0.271E+00    0.08       1.0  T
  25   -102.6425261 -0.436769E+00  0.175E+00    0.01       1.0  T
  26   -102.6511349 -0.860883E-02  0.172E+00    0.01       1.0  T
  27   -102.4632351  0.187900E+00  0.215E+00    0.04       1.0  T
  28   -102.8961835 -0.432948E+00  0.744E-01    0.02       1.0  T
  29   -102.8795954  0.165882E-01  0.775E-01    0.02       1.0  T
  30   -102.9270138 -0.474184E-01  0.488E-01    0.04       1.0  T
  31   -102.9275943 -0.580538E-03  0.585E-01    0.02       1.0  T
  32   -102.9141050  0.134894E-01  0.534E-01    0.03       1.0  T
  33   -102.9212434 -0.713843E-02  0.616E-01    0.02       1.0  T
  34   -102.9257492 -0.450585E-02  0.505E-01    0.02       1.0  T
  35   -102.9366162 -0.108670E-01  0.318E-01    0.03       1.0  T
  36   -102.9420319 -0.541573E-02  0.296E-01    0.02       1.0  T
  37   -102.9310137  0.110182E-01  0.505E-01    0.02       1.0  T
  38   -102.9357195 -0.470579E-02  0.417E-01    0.02       1.0  T
  39   -102.9157785  0.199410E-01  0.626E-01    0.02       1.0  T
  40   -102.9166456 -0.867132E-03  0.636E-01    0.02       1.0  T
  41   -102.9352791 -0.186334E-01  0.386E-01    0.03       1.0  T
  42   -102.9356574 -0.378289E-03  0.368E-01    0.03       1.0  T
  43   -102.9412921 -0.563469E-02  0.267E-01    0.03       1.0  T
  44   -102.9444402 -0.314813E-02  0.187E-01    0.03       1.0  T
  45   -102.9469434 -0.250315E-02  0.338E-02    0.03       1.0  T
  46   -102.9465969  0.346425E-03  0.806E-02    0.03       1.0  T
  47   -102.9469012 -0.304265E-03  0.448E-02    0.03       1.0  T
  48   -102.9468904  0.108162E-04  0.444E-02    0.03       1.0  T
  49   -102.9470305 -0.140127E-03  0.154E-02    0.03       1.0  T
  50   -102.9470404 -0.989902E-05  0.114E-02    0.03       1.4  T
  51   -102.9470111  0.293351E-04  0.215E-02    0.03       1.0  T
  52   -102.9470376 -0.265710E-04  0.858E-03    0.03       1.8  T
  53   -102.9470427 -0.503212E-05  0.547E-03    0.03       2.8  T
  54   -102.9470433 -0.649830E-06  0.379E-03    0.03       4.1  T
  55   -102.9470434 -0.753467E-07  0.274E-03    0.03       5.6  T
  56   -102.9470436 -0.235056E-06  0.212E-03    0.03       7.3  T
  57   -102.9470438 -0.198516E-06  0.160E-03    0.03       9.6  T
  58   -102.9470441 -0.224913E-06  0.666E-04    0.03      23.2  T
  59   -102.9470441 -0.262217E-07  0.439E-04    0.03      35.2  T

   *** convergence criteria satisfied after 59 iterations ***

         #    Occupation            Energy/Eh            Energy/eV
      -------------------------------------------------------------
         1        2.0000           -1.0914844             -29.7008
       ...           ...                  ...                  ...
        86        2.0000           -0.4322553             -11.7623
        87        2.0000           -0.4289496             -11.6723
        88        1.9998           -0.4240774             -11.5397
        89        1.9991           -0.4226114             -11.4998
        90        1.9160           -0.4182607             -11.3815
        91        1.5783           -0.4165436             -11.3347
        92        1.3418           -0.4159664             -11.3190 (HOMO)
        93        0.7652           -0.4148353             -11.2882 (LUMO)
        94        0.3921           -0.4139492             -11.2641
        95        0.0074           -0.4099698             -11.1558
        96        0.0003           -0.4069556             -11.0738
        97                         -0.3983309             -10.8391
       ...                                ...                  ...
       173                          1.0542032              28.6863
      -------------------------------------------------------------
                  HL-Gap            0.0011312 Eh            0.0308 eV
             Fermi-level           -0.4152898 Eh          -11.3006 eV

 SCC (total)                   0 d,  0 h,  0 min,  1.414 sec
 SCC setup                      ...        0 min,  0.001 sec (  0.105%)
 Dispersion                     ...        0 min,  0.003 sec (  0.196%)
 classical contributions        ...        0 min,  0.001 sec (  0.102%)
 integral evaluation            ...        0 min,  0.014 sec (  0.980%)
 iterations                     ...        0 min,  1.356 sec ( 95.874%)
 molecular gradient             ...        0 min,  0.035 sec (  2.474%)
 printout                       ...        0 min,  0.004 sec (  0.266%)

         :::::::::::::::::::::::::::::::::::::::::::::::::::::
         ::                     SUMMARY                     ::
         :::::::::::::::::::::::::::::::::::::::::::::::::::::
         :: total energy            -101.833568973596 Eh    ::
         :: gradient norm              0.558411694370 Eh/a0 ::
         :: HOMO-LUMO gap              0.030780541098 eV    ::
         ::.................................................::
         :: SCC energy              -102.947044081999 Eh    ::
         :: -> isotropic ES            0.000839632313 Eh    ::
         :: -> anisotropic ES          0.007685461931 Eh    ::
         :: -> anisotropic XC          0.060946439609 Eh    ::
         :: -> dispersion             -0.064840180472 Eh    ::
         :: repulsion energy           1.112426518189 Eh    ::
         :: add. restraining           0.000000000000 Eh    ::
         :: total charge               0.000000000000 e     ::
         :::::::::::::::::::::::::::::::::::::::::::::::::::::

           -------------------------------------------------
          |                Property Printout                |
           -------------------------------------------------

    * Orbital Energies and Occupations

         #    Occupation            Energy/Eh            Energy/eV
      -------------------------------------------------------------
         1        2.0000           -1.0914844             -29.7008
       ...           ...                  ...                  ...
        80        2.0000           -0.4460871             -12.1386
        81        2.0000           -0.4434755             -12.0676
        82        2.0000           -0.4416107             -12.0168
        83        2.0000           -0.4371016             -11.8941
        84        2.0000           -0.4350535             -11.8384
        85        2.0000           -0.4333025             -11.7908
        86        2.0000           -0.4322553             -11.7623
        87        2.0000           -0.4289496             -11.6723
        88        1.9998           -0.4240774             -11.5397
        89        1.9991           -0.4226114             -11.4998
        90        1.9160           -0.4182607             -11.3815
        91        1.5783           -0.4165436             -11.3347
        92        1.3418           -0.4159664             -11.3190 (HOMO)
        93        0.7652           -0.4148353             -11.2882 (LUMO)
        94        0.3921           -0.4139492             -11.2641
        95        0.0074           -0.4099698             -11.1558
        96        0.0003           -0.4069556             -11.0738
        97                         -0.3983309             -10.8391
        98                         -0.3956357             -10.7658
        99                         -0.3899584             -10.6113
       100                         -0.3832557             -10.4289
       101                         -0.3805810             -10.3561
       102                         -0.3767259             -10.2512
       103                         -0.3657998              -9.9539
       ...                                ...                  ...
       173                          1.0542032              28.6863
      -------------------------------------------------------------
                  HL-Gap            0.0011312 Eh            0.0308 eV
             Fermi-level           -0.4152898 Eh          -11.3006 eV

     #   Z          covCN         q      C6AA      α(0)
     1   6 C        0.976    -0.097    38.972    10.483
     2   6 C        1.839     0.095    28.781     8.667
     3   8 O        1.702    -0.098    15.806     5.368
     4   6 C        2.857     0.161    24.511     8.115
     5   6 C        1.987    -0.085    33.384     9.331
     6   6 C        2.915     0.117    25.425     8.269
     7   7 N        1.831    -0.135    24.698     7.364
     8   6 C        1.934     0.088    28.895     8.681
     9   6 C        2.951     0.023    27.481     8.598
    10   6 C        1.906     0.126    28.023     8.549
    11   7 N        0.911    -0.178    24.861     7.211
    12   6 C        2.904     0.138    24.989     8.197
    13   7 N        1.835    -0.113    24.220     7.293
    14   6 C        2.915     0.126    25.240     8.238
    15   6 C        1.992    -0.025    31.702     9.093
    16   6 C        1.986    -0.038    32.058     9.144
    17   6 C        2.912     0.146    24.817     8.169
    18   8 O        1.703    -0.130    16.265     5.445
    19   6 C        1.874     0.021    30.600     8.935
    20   6 C        2.961     0.048    26.911     8.509
    21   6 C        1.990    -0.027    31.769     9.102
    22   6 C        1.985     0.047    29.852     8.823
    23   6 C        1.987     0.036    30.123     8.863
    24   6 C        1.985    -0.065    32.801     9.249
    25   6 C        2.874     0.158    24.574     8.126
    26   8 O        1.702    -0.045    15.070     5.241
    27   6 C        0.882    -0.013    35.627     9.974
    28   6 C        2.877     0.089    26.011     8.361
    29  17 Cl       0.959    -0.091   102.003    15.451
    30   6 C        2.031    -0.100    33.746     9.382
    31   6 C        2.966     0.015    27.664     8.627
    32   6 C        1.989    -0.057    32.588     9.219
    33   6 C        2.897     0.122    25.319     8.250
    34   7 N        1.835    -0.220    26.634     7.648
    35   6 C        2.754     0.324    21.498     7.593
    36   8 O        0.857    -0.348    20.673     6.096
    37   6 C        1.971    -0.013    31.405     9.050
    38   6 C        1.967     0.026    30.393     8.903
    39   6 C        1.913    -0.025    31.779     9.104
    40   7 N        2.722     0.176    18.309     6.355
    41   6 C        0.940    -0.072    37.879    10.316
    42   6 C        0.935    -0.111    39.121    10.481

 Mol. C6AA /au·bohr⁶  :      50522.739943
 Mol. C8AA /au·bohr⁸  :    1413316.150778
 Mol. α(0) /au        :        357.872791


Wiberg/Mayer (AO) data.
largest (>0.10) Wiberg bond orders for each atom

 ---------------------------------------------------------------------------
     #   Z sym  total        # sym  WBO       # sym  WBO       # sym  WBO
 ---------------------------------------------------------------------------
     1   6 C    2.476 --     2 C    2.162     3 O    0.112
     2   6 C    3.504 --     1 C    2.162     3 O    1.123
     3   8 O    2.482 --     2 C    1.123     4 C    1.104     1 C    0.112
     4   6 C    3.905 --     5 C    1.458     3 O    1.104    33 C    1.069
     5   6 C    3.685 --     4 C    1.458     6 C    1.406    32 C    0.469
     6   6 C    3.924 --     5 C    1.406     7 N    1.177    31 C    1.093
     7   7 N    3.181 --     8 C    1.646     6 C    1.177
     8   6 C    3.691 --     7 N    1.646     9 C    1.588    13 N    0.118
     9   6 C    3.877 --     8 C    1.588    10 C    1.100    12 C    0.983
    10   6 C    3.946 --    11 N    2.792     9 C    1.100
    11   7 N    2.982 --    10 C    2.792
    12   6 C    3.952 --    13 N    1.689    31 C    1.017     9 C    0.983
    13   7 N    3.255 --    12 C    1.689    14 C    1.080     8 C    0.118
    14   6 C    3.934 --    30 C    1.331    15 C    1.313    13 N    1.080
    15   6 C    3.617 --    16 C    1.669    14 C    1.313    30 C    0.303
                            28 C    0.107
    16   6 C    3.435 --    15 C    1.669    17 C    1.374    30 C    0.195
    17   6 C    3.874 --    16 C    1.374    28 C    1.259    18 O    1.005
    18   8 O    2.502 --    19 C    1.357    17 C    1.005
    19   6 C    2.753 --    18 O    1.357    20 C    1.029
    20   6 C    3.963 --    21 C    1.401    25 C    1.235    19 C    1.029
                            23 C    0.136
    21   6 C    3.802 --    22 C    1.673    20 C    1.401    24 C    0.392
Note: The following floating-point exceptions are signalling: IEEE_UNDERFLOW_FLAG IEEE_DENORMAL
normal termination of xtb
                            23 C    0.144
    22   6 C    3.838 --    23 C    1.782    21 C    1.673    24 C    0.141
                            25 C    0.104
    23   6 C    3.870 --    22 C    1.782    24 C    1.648    21 C    0.144
                            20 C    0.136
    24   6 C    3.709 --    23 C    1.648    25 C    1.358    21 C    0.392
                            22 C    0.141
    25   6 C    3.862 --    24 C    1.358    20 C    1.235    26 O    0.997
                            22 C    0.104
    26   8 O    2.607 --    27 C    1.529    25 C    0.997
    27   6 C    1.860 --    26 O    1.529
    28   6 C    3.885 --    30 C    1.438    17 C    1.259    29 Cl   0.996
                            15 C    0.107
    29  17 Cl   1.171 --    28 C    0.996
    30   6 C    3.497 --    28 C    1.438    14 C    1.331    15 C    0.303
                            16 C    0.195
    31   6 C    3.946 --    32 C    1.562     6 C    1.093    12 C    1.017
    32   6 C    3.770 --    31 C    1.562    33 C    1.311     5 C    0.469
    33   6 C    3.958 --    34 N    1.341    32 C    1.311     4 C    1.069
    34   7 N    3.018 --    33 C    1.341    35 C    1.182
    35   6 C    3.922 --    36 O    1.666    34 N    1.182    37 C    0.986
    36   8 O    2.055 --    35 C    1.666
    37   6 C    3.714 --    38 C    2.290    35 C    0.986    39 C    0.163
    38   6 C    3.811 --    37 C    2.290    39 C    1.327
    39   6 C    3.098 --    38 C    1.327    40 N    1.064    42 C    0.405
                            37 C    0.163
    40   7 N    3.679 --    42 C    1.287    41 C    1.281    39 C    1.064
    41   6 C    1.948 --    40 N    1.281    42 C    0.513
    42   6 C    2.352 --    40 N    1.287    41 C    0.513    39 C    0.405
 ---------------------------------------------------------------------------

Topologies differ in total number of bonds
Writing topology from bond orders to xtbtopo.mol

molecular dipole:
                 x           y           z       tot (Debye)
 q only:        0.005      -0.242      -1.235
   full:       -0.001      -1.005      -1.752       5.133
molecular quadrupole (traceless):
                xx          xy          yy          xz          yz          zz
 q only:        2.405       1.039     -11.845      -7.433       5.523       9.440
  q+dip:        1.133      10.167     -11.828      -8.080      19.134      10.695
   full:       -1.735      15.263     -12.508      -4.942      20.125      14.243


           -------------------------------------------------
          | TOTAL ENERGY             -101.833568973596 Eh   |
          | GRADIENT NORM               0.558411694370 Eh/α |
          | HOMO-LUMO GAP               0.030780541098 eV   |
           -------------------------------------------------

------------------------------------------------------------------------
 * finished run on 2026/07/23 at 16:42:26.221     
------------------------------------------------------------------------
 total:
 * wall-time:     0 d,  0 h,  0 min,  1.440 sec
 *  cpu-time:     0 d,  0 h,  0 min,  1.408 sec
 * ratio c/w:     0.978 speedup
 SCF:
 * wall-time:     0 d,  0 h,  0 min,  1.415 sec
 *  cpu-time:     0 d,  0 h,  0 min,  1.375 sec
 * ratio c/w:     0.972 speedup

