      -----------------------------------------------------------      
     |                   =====================                   |     
     |                           x T B                           |     
     |                   =====================                   |     
     |                         S. Grimme                         |     
     |          Mulliken Center for Theoretical Chemistry        |     
     |                    University of Bonn                     |     
      -----------------------------------------------------------      

   * xtb version 6.6.1 (unknown) compiled by 'builduser@buildhost' on 2023-08-07

   xtb is free software: you can redistribute it and/or modify it under
   the terms of the GNU Lesser General Public License as published by
   the Free Software Foundation, either version 3 of the License, or
   (at your option) any later version.
   
   xtb is distributed in the hope that it will be useful,
   but WITHOUT ANY WARRANTY; without even the implied warranty of
   MERCHANTABILITY or FITNESS FOR A PARTICULAR PURPOSE.  See the
   GNU Lesser General Public License for more details.
   
   Cite this work as:
   * C. Bannwarth, E. Caldeweyher, S. Ehlert, A. Hansen, P. Pracht,
     J. Seibert, S. Spicher, S. Grimme, WIREs Comput. Mol. Sci., 2020, 11,
     e01493. DOI: 10.1002/wcms.1493
   
   for GFN2-xTB:
   * C. Bannwarth, S. Ehlert and S. Grimme., J. Chem. Theory Comput., 2019,
     15, 1652-1671. DOI: 10.1021/acs.jctc.8b01176
   for GFN1-xTB:
   * S. Grimme, C. Bannwarth, P. Shushkov, J. Chem. Theory Comput., 2017,
     13, 1989-2009. DOI: 10.1021/acs.jctc.7b00118
   for GFN0-xTB:
   * P. Pracht, E. Caldeweyher, S. Ehlert, S. Grimme, ChemRxiv, 2019, preprint.
     DOI: 10.26434/chemrxiv.8326202.v1
   for GFN-FF:
   * S. Spicher and S. Grimme, Angew. Chem. Int. Ed., 2020, 59, 15665-15673.
     DOI: 10.1002/anie.202004239
   
   for ALPB and GBSA implicit solvation:
   * S. Ehlert, M. Stahn, S. Spicher, S. Grimme, J. Chem. Theory Comput.,
     2021, 17, 4250-4261. DOI: 10.1021/acs.jctc.1c00471
   
   for DFT-D4:
   * E. Caldeweyher, C. Bannwarth and S. Grimme, J. Chem. Phys., 2017,
     147, 034112. DOI: 10.1063/1.4993215
   * E. Caldeweyher, S. Ehlert, A. Hansen, H. Neugebauer, S. Spicher,
     C. Bannwarth and S. Grimme, J. Chem. Phys., 2019, 150, 154122.
     DOI: 10.1063/1.5090222
   * E. Caldeweyher, J.-M. Mewes, S. Ehlert and S. Grimme, Phys. Chem. Chem. Phys.
     2020, 22, 8499-8512. DOI: 10.1039/D0CP00502A
   
   for sTDA-xTB:
   * S. Grimme and C. Bannwarth, J. Chem. Phys., 2016, 145, 054103.
     DOI: 10.1063/1.4959605
   
   in the mass-spec context:
   * V. Asgeirsson, C. Bauer and S. Grimme, Chem. Sci., 2017, 8, 4879.
     DOI: 10.1039/c7sc00601b
   * J. Koopman and S. Grimme, ACS Omega 2019, 4, 12, 15120-15133.
     DOI: 10.1021/acsomega.9b02011
   
   for metadynamics refer to:
   * S. Grimme, J. Chem. Theory Comput., 2019, 155, 2847-2862
     DOI: 10.1021/acs.jctc.9b00143
   
   for SPH calculations refer to:
   * S. Spicher and S. Grimme, J. Chem. Theory Comput., 2021, 17, 1701-1714
     DOI: 10.1021/acs.jctc.0c01306
   
   with help from (in alphabetical order)
   P. Atkinson, C. Bannwarth, F. Bohle, G. Brandenburg, E. Caldeweyher
   M. Checinski, S. Dohm, S. Ehlert, S. Ehrlich, I. Gerasimov, C. Hölzer
   A. Katbashev, J. Koopman, C. Lavigne, S. Lehtola, F. März, M. Müller,
   F. Musil, H. Neugebauer, J. Pisarek, C. Plett, P. Pracht, F. Pultar,
   J. Seibert, P. Shushkov, S. Spicher, M. Stahn, M. Steiner, T. Strunk,
   J. Stückrath, T. Rose, and J. Unsleber
   
 * started run on 2026/07/23 at 16:40:01.665     

           -------------------------------------------------
          |                Calculation Setup                |
           -------------------------------------------------

          program call               : xtb /home/selva/covalent_quantum_benchmark/data/quantum/erbB_xyz/ERBB2__CHEMBL1630109__state03.xyz --gfn2 --chrg 0 --uhf 0 --iterations 300
          coordinate file            : /home/selva/covalent_quantum_benchmark/data/quantum/erbB_xyz/ERBB2__CHEMBL1630109__state03.xyz
          omp threads                :                    24

   ID    Z sym.   atoms
    1    8 O      1, 4, 25
    2    7 N      2, 16, 18, 20
    3    6 C      3, 5-15, 17, 19, 21-24, 26-31, 33, 34, 36-39
    4    9 F      32
    5   17 Cl     35

           -------------------------------------------------
          |                 G F N 2 - x T B                 |
           -------------------------------------------------

        Reference                      10.1021/acs.jctc.8b01176
      * Hamiltonian:
        H0-scaling (s, p, d)           1.850000    2.230000    2.230000
        zeta-weighting                 0.500000
      * Dispersion:
        s8                             2.700000
        a1                             0.520000
        a2                             5.000000
        s9                             5.000000
      * Repulsion:
        kExp                           1.500000    1.000000
        rExp                           1.000000
      * Coulomb:
        alpha                          2.000000
        third order                    shell-resolved
        anisotropic                    true
        a3                             3.000000
        a5                             4.000000
        cn-shift                       1.200000
        cn-exp                         4.000000
        max-rad                        5.000000


          ...................................................
          :                      SETUP                      :
          :.................................................:
          :  # basis functions                 162          :
          :  # atomic orbitals                 161          :
          :  # shells                           79          :
          :  # electrons                       172          :
          :  max. iterations                   300          :
          :  Hamiltonian                  GFN2-xTB          :
          :  restarted?                      false          :
          :  GBSA solvation                  false          :
          :  PC potential                    false          :
          :  electronic temp.          300.0000000     K    :
          :  accuracy                    1.0000000          :
          :  -> integral cutoff          0.2500000E+02      :
          :  -> integral neglect         0.1000000E-07      :
          :  -> SCF convergence          0.1000000E-05 Eh   :
          :  -> wf. convergence          0.1000000E-03 e    :
          :  Broyden damping             0.4000000          :
          ...................................................

 iter      E             dE          RMSdq      gap      omega  full diag
   1    -95.5971363 -0.955971E+02  0.767E+00    0.22       0.0  T
   2    -75.7157582  0.198814E+02  0.118E+01    0.17       1.0  T
   3    -69.6036403  0.611212E+01  0.121E+01    0.03       1.0  T
   4    -87.8615209 -0.182579E+02  0.730E+00    0.04       1.0  T
   5    -81.2308959  0.663062E+01  0.908E+00    0.02       1.0  T
   6    -92.0328311 -0.108019E+02  0.590E+00    0.06       1.0  T
   7    -94.6275049 -0.259467E+01  0.463E+00    0.05       1.0  T
   8    -95.4634254 -0.835921E+00  0.412E+00    0.24       1.0  T
   9    -96.1003745 -0.636949E+00  0.291E+00    0.11       1.0  T
  10    -96.1891167 -0.887422E-01  0.305E+00    0.01       1.0  T
  11    -96.4714765 -0.282360E+00  0.246E+00    0.04       1.0  T
  12    -96.5030706 -0.315941E-01  0.258E+00    0.10       1.0  T
  13    -96.5758303 -0.727597E-01  0.233E+00    0.05       1.0  T
  14    -96.6552131 -0.793828E-01  0.205E+00    0.02       1.0  T
  15    -96.4535627  0.201650E+00  0.215E+00    0.01       1.0  T
  16    -96.5560671 -0.102504E+00  0.211E+00    0.00       1.0  T
  17    -96.1349243  0.421143E+00  0.268E+00    0.06       1.0  T
  18    -96.7411398 -0.606216E+00  0.148E+00    0.04       1.0  T
  19    -96.4457293  0.295410E+00  0.226E+00    0.01       1.0  T
  20    -96.1873966  0.258333E+00  0.274E+00    0.07       1.0  T
  21    -96.7922745 -0.604878E+00  0.996E-01    0.02       1.0  T
  22    -96.3133134  0.478961E+00  0.228E+00    0.02       1.0  T
  23    -96.5495220 -0.236209E+00  0.177E+00    0.01       1.0  T
  24    -96.7639454 -0.214423E+00  0.100E+00    0.03       1.0  T
  25    -96.7429381  0.210073E-01  0.116E+00    0.04       1.0  T
  26    -96.8071473 -0.642092E-01  0.683E-01    0.04       1.0  T
  27    -96.8346329 -0.274856E-01  0.420E-01    0.02       1.0  T
  28    -96.8363387 -0.170586E-02  0.390E-01    0.03       1.0  T
  29    -96.8374774 -0.113868E-02  0.358E-01    0.02       1.0  T
  30    -96.8352544  0.222304E-02  0.386E-01    0.03       1.0  T
  31    -96.8365616 -0.130718E-02  0.360E-01    0.02       1.0  T
  32    -96.8383277 -0.176611E-02  0.319E-01    0.02       1.0  T
  33    -96.8376233  0.704404E-03  0.326E-01    0.02       1.0  T
  34    -96.8406890 -0.306571E-02  0.258E-01    0.02       1.0  T
  35    -96.8443777 -0.368875E-02  0.151E-01    0.02       1.0  T
  36    -96.8451932 -0.815489E-03  0.107E-01    0.02       1.0  T
  37    -96.8448965  0.296760E-03  0.109E-01    0.02       1.0  T
  38    -96.8454457 -0.549233E-03  0.666E-02    0.02       1.0  T
  39    -96.8456367 -0.190974E-03  0.526E-02    0.02       1.0  T
  40    -96.8457392 -0.102541E-03  0.434E-02    0.02       1.0  T
  41    -96.8456603  0.789377E-04  0.507E-02    0.02       1.0  T
  42    -96.8458011 -0.140843E-03  0.308E-02    0.02       1.0  T
  43    -96.8458533 -0.522185E-04  0.212E-02    0.02       1.0  T
  44    -96.8458757 -0.223698E-04  0.139E-02    0.02       1.2  T
  45    -96.8458795 -0.382491E-05  0.148E-02    0.02       1.1  T
  46    -96.8458664  0.131668E-04  0.163E-02    0.02       1.0  T
  47    -96.8458803 -0.139368E-04  0.120E-02    0.02       1.3  T
  48    -96.8458862 -0.592738E-05  0.870E-03    0.02       1.8  T
  49    -96.8458909 -0.467581E-05  0.479E-03    0.02       3.3  T
  50    -96.8458920 -0.114492E-05  0.311E-03    0.02       5.1  T
  51    -96.8458926 -0.525778E-06  0.179E-03    0.02       8.9  T
  52    -96.8458928 -0.260975E-06  0.679E-04    0.02      23.6  T
  53    -96.8458927  0.960432E-07  0.119E-03    0.02      13.5  T
  54    -96.8458928 -0.943456E-07  0.540E-04    0.02      29.6  T

   *** convergence criteria satisfied after 54 iterations ***

         #    Occupation            Energy/Eh            Energy/eV
      -------------------------------------------------------------
         1        2.0000           -1.0832187             -29.4759
       ...           ...                  ...                  ...
        80        2.0000           -0.4269597             -11.6182
        81        1.9999           -0.4252725             -11.5723
        82        1.9988           -0.4223403             -11.4925
        83        1.9653           -0.4191464             -11.4056
        84        1.9487           -0.4187652             -11.3952
        85        1.7610           -0.4172080             -11.3528
        86        1.3373           -0.4159775             -11.3193 (HOMO)
        87        0.9824           -0.4152771             -11.3003 (LUMO)
        88        0.0066           -0.4098787             -11.1534
        89                         -0.3932759             -10.7016
        90                         -0.3908701             -10.6361
        91                         -0.3849973             -10.4763
       ...                                ...                  ...
       161                          0.5792534              15.7623
      -------------------------------------------------------------
                  HL-Gap            0.0007004 Eh            0.0191 eV
             Fermi-level           -0.4153105 Eh          -11.3012 eV

 SCC (total)                   0 d,  0 h,  0 min,  0.921 sec
 SCC setup                      ...        0 min,  0.004 sec (  0.405%)
 Dispersion                     ...        0 min,  0.002 sec (  0.196%)
 classical contributions        ...        0 min,  0.002 sec (  0.176%)
 integral evaluation            ...        0 min,  0.013 sec (  1.394%)
 iterations                     ...        0 min,  0.872 sec ( 94.682%)
 molecular gradient             ...        0 min,  0.025 sec (  2.747%)
 printout                       ...        0 min,  0.004 sec (  0.383%)

         :::::::::::::::::::::::::::::::::::::::::::::::::::::
         ::                     SUMMARY                     ::
         :::::::::::::::::::::::::::::::::::::::::::::::::::::
         :: total energy             -95.743550436082 Eh    ::
         :: gradient norm              0.482652685718 Eh/a0 ::
         :: HOMO-LUMO gap              0.019058742224 eV    ::
         ::.................................................::
         :: SCC energy               -96.845892827983 Eh    ::
         :: -> isotropic ES            0.066185300640 Eh    ::
         :: -> anisotropic ES          0.005955328122 Eh    ::
         :: -> anisotropic XC          0.044944155549 Eh    ::
         :: -> dispersion             -0.054753512911 Eh    ::
         :: repulsion energy           1.102933511987 Eh    ::
         :: add. restraining           0.000000000000 Eh    ::
         :: total charge               0.000000000122 e     ::
         :::::::::::::::::::::::::::::::::::::::::::::::::::::

           -------------------------------------------------
          |                Property Printout                |
           -------------------------------------------------

    * Orbital Energies and Occupations

         #    Occupation            Energy/Eh            Energy/eV
      -------------------------------------------------------------
         1        2.0000           -1.0832187             -29.4759
       ...           ...                  ...                  ...
        74        2.0000           -0.4475033             -12.1772
        75        2.0000           -0.4451038             -12.1119
        76        2.0000           -0.4380000             -11.9186
        77        2.0000           -0.4353181             -11.8456
        78        2.0000           -0.4293980             -11.6845
        79        2.0000           -0.4273078             -11.6276
        80        2.0000           -0.4269597             -11.6182
        81        1.9999           -0.4252725             -11.5723
        82        1.9988           -0.4223403             -11.4925
        83        1.9653           -0.4191464             -11.4056
        84        1.9487           -0.4187652             -11.3952
        85        1.7610           -0.4172080             -11.3528
        86        1.3373           -0.4159775             -11.3193 (HOMO)
        87        0.9824           -0.4152771             -11.3003 (LUMO)
        88        0.0066           -0.4098787             -11.1534
        89                         -0.3932759             -10.7016
        90                         -0.3908701             -10.6361
        91                         -0.3849973             -10.4763
        92                         -0.3819980             -10.3947
        93                         -0.3603176              -9.8047
        94                         -0.3540745              -9.6349
        95                         -0.3524608              -9.5909
        96                         -0.3518889              -9.5754
        97                         -0.3480959              -9.4722
       ...                                ...                  ...
       161                          0.5792534              15.7623
      -------------------------------------------------------------
                  HL-Gap            0.0007004 Eh            0.0191 eV
             Fermi-level           -0.4153105 Eh          -11.3012 eV

     #   Z          covCN         q      C6AA      α(0)
     1   8 O        0.928    -0.137    17.040     5.536
     2   7 N        1.827     0.103    20.105     6.644
     3   6 C        2.735     0.223    23.310     7.905
     4   8 O        0.850    -0.331    20.357     6.049
     5   6 C        1.965     0.010    30.816     8.965
     6   6 C        1.969     0.023    30.476     8.915
     7   6 C        2.964     0.081    26.196     8.395
     8   6 C        1.991     0.022    30.487     8.917
     9   6 C        1.983    -0.018    31.530     9.068
    10   6 C        1.992     0.024    30.438     8.910
    11   6 C        2.964     0.069    26.460     8.437
    12   6 C        2.964     0.069    26.459     8.437
    13   6 C        1.991    -0.033    31.926     9.125
    14   6 C        1.987    -0.013    31.408     9.051
    15   6 C        2.923     0.125    25.253     8.241
    16   7 N        1.831    -0.183    25.777     7.524
    17   6 C        1.908     0.170    27.034     8.397
    18   7 N        1.831    -0.191    25.953     7.549
    19   6 C        2.908     0.198    23.795     7.999
    20   7 N        1.839    -0.146    24.955     7.403
    21   6 C        2.933     0.134    25.070     8.211
    22   6 C        1.992    -0.039    32.086     9.148
    23   6 C        1.985    -0.040    32.122     9.153
    24   6 C        2.914     0.156    24.615     8.136
    25   8 O        1.702    -0.178    16.985     5.564
    26   6 C        1.875     0.038    30.163     8.871
    27   6 C        2.961     0.072    26.398     8.427
    28   6 C        1.990     0.027    30.353     8.897
    29   6 C        1.987    -0.023    31.651     9.086
    30   6 C        1.988    -0.005    31.195     9.020
    31   6 C        2.774     0.206    23.630     7.962
    32   9 F        0.787    -0.161    10.840     3.889
    33   6 C        1.990    -0.080    33.240     9.311
    34   6 C        2.876     0.088    26.039     8.365
    35  17 Cl       0.958    -0.074   101.448    15.409
    36   6 C        2.031    -0.071    32.931     9.268
    37   6 C        2.975     0.003    27.958     8.673
    38   6 C        1.991    -0.052    32.437     9.198
    39   6 C        1.998    -0.063    32.757     9.243

 Mol. C6AA /au·bohr⁶  :      42664.646139
 Mol. C8AA /au·bohr⁸  :    1195186.854486
 Mol. α(0) /au        :        327.296497


Wiberg/Mayer (AO) data.
largest (>0.10) Wiberg bond orders for each atom

 ---------------------------------------------------------------------------
     #   Z sym  total        # sym  WBO       # sym  WBO       # sym  WBO
 ---------------------------------------------------------------------------
     1   8 O    2.158 --     2 N    1.894
     2   7 N    3.017 --     1 O    1.894     3 C    0.972
     3   6 C    3.884 --     4 O    1.668     5 C    1.098     2 N    0.972
     4   8 O    2.000 --     3 C    1.668     6 C    0.132
     5   6 C    3.851 --     6 C    2.449     3 C    1.098
     6   6 C    3.866 --     5 C    2.449     7 C    1.096     4 O    0.132
     7   6 C    3.962 --    39 C    1.358     8 C    1.317     6 C    1.096
     8   6 C    3.750 --     9 C    1.649     7 C    1.317    10 C    0.387
                            39 C    0.158    11 C    0.114
     9   6 C    3.754 --     8 C    1.649    10 C    1.611    39 C    0.399
    10   6 C    3.742 --     9 C    1.611    11 C    1.361     8 C    0.387
                            39 C    0.166
    11   6 C    3.945 --    39 C    1.392    10 C    1.361    12 C    1.001
                             8 C    0.114
    12   6 C    3.931 --    38 C    1.403    13 C    1.309    11 C    1.001
    13   6 C    3.670 --    14 C    1.688    12 C    1.309    38 C    0.240
    14   6 C    3.409 --    13 C    1.688    15 C    1.336    38 C    0.162
    15   6 C    3.922 --    14 C    1.336    37 C    1.198    16 N    1.124
    16   7 N    3.133 --    17 C    1.616    15 C    1.124
    17   6 C    3.863 --    18 N    1.721    16 N    1.616    20 N    0.138
    18   7 N    3.190 --    17 C    1.721    19 C    1.094    20 N    0.101
    19   6 C    3.948 --    20 N    1.582    18 N    1.094    37 C    1.056
    20   7 N    3.233 --    19 C    1.582    21 C    1.096    17 C    0.138
                            18 N    0.101
    21   6 C    3.922 --    36 C    1.345    22 C    1.290    20 N    1.096
    22   6 C    3.614 --    23 C    1.668    21 C    1.290    36 C    0.278
                            34 C    0.107
    23   6 C    3.416 --    22 C    1.668    24 C    1.365    36 C    0.159
    24   6 C    3.851 --    23 C    1.365    34 C    1.257    25 O    0.962
    25   8 O    2.334 --    26 C    1.145    24 C    0.962
Note: The following floating-point exceptions are signalling: IEEE_UNDERFLOW_FLAG IEEE_DENORMAL
normal termination of xtb
    26   6 C    2.756 --    25 O    1.145    27 C    1.045    30 C    0.107
    27   6 C    3.947 --    33 C    1.380    28 C    1.335    26 C    1.045
                            30 C    0.117
    28   6 C    3.769 --    29 C    1.653    27 C    1.335    30 C    0.370
                            33 C    0.171    31 C    0.102
    29   6 C    3.780 --    28 C    1.653    30 C    1.599    33 C    0.401
    30   6 C    3.756 --    29 C    1.599    31 C    1.347    28 C    0.370
                            33 C    0.134    27 C    0.117    26 C    0.107
    31   6 C    3.884 --    33 C    1.385    30 C    1.347    32 F    0.996
                            28 C    0.102
    32   9 F    1.166 --    31 C    0.996
    33   6 C    3.634 --    31 C    1.385    27 C    1.380    29 C    0.401
                            28 C    0.171    30 C    0.134
    34   6 C    3.889 --    36 C    1.441    24 C    1.257    35 Cl   1.004
                            22 C    0.107
    35  17 Cl   1.181 --    34 C    1.004
    36   6 C    3.448 --    34 C    1.441    21 C    1.345    22 C    0.278
                            23 C    0.159
    37   6 C    3.925 --    38 C    1.394    15 C    1.198    19 C    1.056
    38   6 C    3.469 --    12 C    1.403    37 C    1.394    13 C    0.240
                            14 C    0.162
    39   6 C    3.602 --    11 C    1.392     7 C    1.358     9 C    0.399
                            10 C    0.166     8 C    0.158
 ---------------------------------------------------------------------------

Topologies differ in total number of bonds
Writing topology from bond orders to xtbtopo.mol

molecular dipole:
                 x           y           z       tot (Debye)
 q only:       -1.015       0.268       1.538
   full:       -1.575       0.647       1.937       6.556
molecular quadrupole (traceless):
                xx          xy          yy          xz          yz          zz
 q only:      -19.708      11.819      20.340      41.390     -13.145      -0.631
  q+dip:      -11.086       0.097      12.107      26.794     -12.354      -1.020
   full:      -13.176       2.338      13.244      28.942     -13.917      -0.067


           -------------------------------------------------
          | TOTAL ENERGY              -95.743550436082 Eh   |
          | GRADIENT NORM               0.482652685718 Eh/α |
          | HOMO-LUMO GAP               0.019058742224 eV   |
           -------------------------------------------------

------------------------------------------------------------------------
 * finished run on 2026/07/23 at 16:40:02.627     
------------------------------------------------------------------------
 total:
 * wall-time:     0 d,  0 h,  0 min,  0.962 sec
 *  cpu-time:     0 d,  0 h,  0 min,  0.910 sec
 * ratio c/w:     0.946 speedup
 SCF:
 * wall-time:     0 d,  0 h,  0 min,  0.922 sec
 *  cpu-time:     0 d,  0 h,  0 min,  0.884 sec
 * ratio c/w:     0.959 speedup

