      -----------------------------------------------------------      
     |                   =====================                   |     
     |                           x T B                           |     
     |                   =====================                   |     
     |                         S. Grimme                         |     
     |          Mulliken Center for Theoretical Chemistry        |     
     |                    University of Bonn                     |     
      -----------------------------------------------------------      

   * xtb version 6.6.1 (unknown) compiled by 'builduser@buildhost' on 2023-08-07

   xtb is free software: you can redistribute it and/or modify it under
   the terms of the GNU Lesser General Public License as published by
   the Free Software Foundation, either version 3 of the License, or
   (at your option) any later version.
   
   xtb is distributed in the hope that it will be useful,
   but WITHOUT ANY WARRANTY; without even the implied warranty of
   MERCHANTABILITY or FITNESS FOR A PARTICULAR PURPOSE.  See the
   GNU Lesser General Public License for more details.
   
   Cite this work as:
   * C. Bannwarth, E. Caldeweyher, S. Ehlert, A. Hansen, P. Pracht,
     J. Seibert, S. Spicher, S. Grimme, WIREs Comput. Mol. Sci., 2020, 11,
     e01493. DOI: 10.1002/wcms.1493
   
   for GFN2-xTB:
   * C. Bannwarth, S. Ehlert and S. Grimme., J. Chem. Theory Comput., 2019,
     15, 1652-1671. DOI: 10.1021/acs.jctc.8b01176
   for GFN1-xTB:
   * S. Grimme, C. Bannwarth, P. Shushkov, J. Chem. Theory Comput., 2017,
     13, 1989-2009. DOI: 10.1021/acs.jctc.7b00118
   for GFN0-xTB:
   * P. Pracht, E. Caldeweyher, S. Ehlert, S. Grimme, ChemRxiv, 2019, preprint.
     DOI: 10.26434/chemrxiv.8326202.v1
   for GFN-FF:
   * S. Spicher and S. Grimme, Angew. Chem. Int. Ed., 2020, 59, 15665-15673.
     DOI: 10.1002/anie.202004239
   
   for ALPB and GBSA implicit solvation:
   * S. Ehlert, M. Stahn, S. Spicher, S. Grimme, J. Chem. Theory Comput.,
     2021, 17, 4250-4261. DOI: 10.1021/acs.jctc.1c00471
   
   for DFT-D4:
   * E. Caldeweyher, C. Bannwarth and S. Grimme, J. Chem. Phys., 2017,
     147, 034112. DOI: 10.1063/1.4993215
   * E. Caldeweyher, S. Ehlert, A. Hansen, H. Neugebauer, S. Spicher,
     C. Bannwarth and S. Grimme, J. Chem. Phys., 2019, 150, 154122.
     DOI: 10.1063/1.5090222
   * E. Caldeweyher, J.-M. Mewes, S. Ehlert and S. Grimme, Phys. Chem. Chem. Phys.
     2020, 22, 8499-8512. DOI: 10.1039/D0CP00502A
   
   for sTDA-xTB:
   * S. Grimme and C. Bannwarth, J. Chem. Phys., 2016, 145, 054103.
     DOI: 10.1063/1.4959605
   
   in the mass-spec context:
   * V. Asgeirsson, C. Bauer and S. Grimme, Chem. Sci., 2017, 8, 4879.
     DOI: 10.1039/c7sc00601b
   * J. Koopman and S. Grimme, ACS Omega 2019, 4, 12, 15120-15133.
     DOI: 10.1021/acsomega.9b02011
   
   for metadynamics refer to:
   * S. Grimme, J. Chem. Theory Comput., 2019, 155, 2847-2862
     DOI: 10.1021/acs.jctc.9b00143
   
   for SPH calculations refer to:
   * S. Spicher and S. Grimme, J. Chem. Theory Comput., 2021, 17, 1701-1714
     DOI: 10.1021/acs.jctc.0c01306
   
   with help from (in alphabetical order)
   P. Atkinson, C. Bannwarth, F. Bohle, G. Brandenburg, E. Caldeweyher
   M. Checinski, S. Dohm, S. Ehlert, S. Ehrlich, I. Gerasimov, C. Hölzer
   A. Katbashev, J. Koopman, C. Lavigne, S. Lehtola, F. März, M. Müller,
   F. Musil, H. Neugebauer, J. Pisarek, C. Plett, P. Pracht, F. Pultar,
   J. Seibert, P. Shushkov, S. Spicher, M. Stahn, M. Steiner, T. Strunk,
   J. Stückrath, T. Rose, and J. Unsleber
   
 * started run on 2026/07/23 at 16:39:31.607     

           -------------------------------------------------
          |                Calculation Setup                |
           -------------------------------------------------

          program call               : xtb /home/selva/covalent_quantum_benchmark/data/quantum/erbB_xyz/EGFR__CHEMBL94061__state00.xyz --gfn2 --chrg 0 --uhf 0 --iterations 300
          coordinate file            : /home/selva/covalent_quantum_benchmark/data/quantum/erbB_xyz/EGFR__CHEMBL94061__state00.xyz
          omp threads                :                    24

   ID    Z sym.   atoms
    1    6 C      1, 3-7, 10-13, 15, 17, 19-23, 25-27
    2    7 N      2, 9, 14, 16, 18
    3    8 O      8
    4   35 Br     24

           -------------------------------------------------
          |                 G F N 2 - x T B                 |
           -------------------------------------------------

        Reference                      10.1021/acs.jctc.8b01176
      * Hamiltonian:
        H0-scaling (s, p, d)           1.850000    2.230000    2.230000
        zeta-weighting                 0.500000
      * Dispersion:
        s8                             2.700000
        a1                             0.520000
        a2                             5.000000
        s9                             5.000000
      * Repulsion:
        kExp                           1.500000    1.000000
        rExp                           1.000000
      * Coulomb:
        alpha                          2.000000
        third order                    shell-resolved
        anisotropic                    true
        a3                             3.000000
        a5                             4.000000
        cn-shift                       1.200000
        cn-exp                         4.000000
        max-rad                        5.000000


          ...................................................
          :                      SETUP                      :
          :.................................................:
          :  # basis functions                 114          :
          :  # atomic orbitals                 113          :
          :  # shells                           55          :
          :  # electrons                       118          :
          :  max. iterations                   300          :
          :  Hamiltonian                  GFN2-xTB          :
          :  restarted?                      false          :
          :  GBSA solvation                  false          :
          :  PC potential                    false          :
          :  electronic temp.          300.0000000     K    :
          :  accuracy                    1.0000000          :
          :  -> integral cutoff          0.2500000E+02      :
          :  -> integral neglect         0.1000000E-07      :
          :  -> SCF convergence          0.1000000E-05 Eh   :
          :  -> wf. convergence          0.1000000E-03 e    :
          :  Broyden damping             0.4000000          :
          ...................................................

 iter      E             dE          RMSdq      gap      omega  full diag
   1    -64.0347170 -0.640347E+02  0.856E+00    0.25       0.0  T
   2    -46.8762790  0.171584E+02  0.138E+01    0.17       1.0  T
   3    -48.7930807 -0.191680E+01  0.110E+01    0.66       1.0  T
   4    -46.5868945  0.220619E+01  0.121E+01    0.26       1.0  T
   5    -62.3849511 -0.157981E+02  0.698E+00    0.14       1.0  T
   6    -60.8098555  0.157510E+01  0.662E+00    0.07       1.0  T
   7    -64.5732182 -0.376336E+01  0.421E+00    0.13       1.0  T
   8    -64.6189003 -0.456821E-01  0.368E+00    0.08       1.0  T
   9    -64.3425943  0.276306E+00  0.377E+00    0.23       1.0  T
  10    -64.8509313 -0.508337E+00  0.226E+00    0.03       1.0  T
  11    -64.9013861 -0.504548E-01  0.184E+00    0.05       1.0  T
  12    -64.7576107  0.143775E+00  0.227E+00    0.07       1.0  T
  13    -64.7717354 -0.141247E-01  0.208E+00    0.04       1.0  T
  14    -64.7507958  0.209396E-01  0.185E+00    0.04       1.0  T
  15    -64.9345153 -0.183719E+00  0.143E+00    0.03       1.0  T
  16    -64.9255991  0.891616E-02  0.148E+00    0.04       1.0  T
  17    -64.9510939 -0.254948E-01  0.112E+00    0.04       1.0  T
  18    -64.9671935 -0.160996E-01  0.959E-01    0.04       1.0  T
  19    -64.9922423 -0.250488E-01  0.710E-01    0.05       1.0  T
  20    -65.0004935 -0.825119E-02  0.463E-01    0.04       1.0  T
  21    -64.9963572  0.413628E-02  0.489E-01    0.06       1.0  T
  22    -65.0067018 -0.103446E-01  0.219E-01    0.05       1.0  T
  23    -65.0068971 -0.195288E-03  0.231E-01    0.04       1.0  T
  24    -65.0077858 -0.888704E-03  0.149E-01    0.05       1.0  T
  25    -65.0075561  0.229675E-03  0.134E-01    0.05       1.0  T
  26    -65.0086499 -0.109385E-02  0.875E-02    0.05       1.0  T
  27    -65.0084002  0.249767E-03  0.121E-01    0.05       1.0  T
  28    -65.0079022  0.497979E-03  0.129E-01    0.05       1.0  T
  29    -65.0082351 -0.332885E-03  0.997E-02    0.05       1.0  T
  30    -65.0085951 -0.359993E-03  0.643E-02    0.05       1.0  T
  31    -65.0086941 -0.990206E-04  0.422E-02    0.05       1.0  T
  32    -65.0087646 -0.705281E-04  0.184E-02    0.05       1.0  T
  33    -65.0087691 -0.445419E-05  0.154E-02    0.05       1.2  T
  34    -65.0087739 -0.483616E-05  0.897E-03    0.05       2.1  T
  35    -65.0087749 -0.102765E-05  0.880E-03    0.05       2.2  T
  36    -65.0087775 -0.253586E-05  0.450E-03    0.05       4.3  T
  37    -65.0087776 -0.101600E-06  0.422E-03    0.05       4.6  T
  38    -65.0087768  0.779326E-06  0.479E-03    0.05       4.0  T
  39    -65.0087777 -0.917344E-06  0.279E-03    0.05       6.9  T
  40    -65.0087780 -0.274623E-06  0.156E-03    0.05      12.3  T
  41    -65.0087781 -0.820323E-07  0.806E-04    0.05      23.9  T
  42    -65.0087781 -0.118170E-07  0.524E-04    0.05      36.7  T

   *** convergence criteria satisfied after 42 iterations ***

         #    Occupation            Energy/Eh            Energy/eV
      -------------------------------------------------------------
         1        2.0000           -0.8636163             -23.5002
       ...           ...                  ...                  ...
        53        2.0000           -0.4324373             -11.7672
        54        2.0000           -0.4308870             -11.7250
        55        2.0000           -0.4255392             -11.5795
        56        1.9979           -0.4196917             -11.4204
        57        1.9543           -0.4167600             -11.3406
        58        1.9054           -0.4160443             -11.3211
        59        1.4928           -0.4142171             -11.2714 (HOMO)
        60        0.6494           -0.4124959             -11.2246 (LUMO)
        61        0.0002           -0.4045660             -11.0088
        62                         -0.3967615             -10.7964
        63                         -0.3939863             -10.7209
        64                         -0.3913360             -10.6488
       ...                                ...                  ...
       113                          0.6195881              16.8598
      -------------------------------------------------------------
                  HL-Gap            0.0017212 Eh            0.0468 eV
             Fermi-level           -0.4131916 Eh          -11.2435 eV

 SCC (total)                   0 d,  0 h,  0 min,  0.379 sec
 SCC setup                      ...        0 min,  0.000 sec (  0.098%)
 Dispersion                     ...        0 min,  0.001 sec (  0.278%)
 classical contributions        ...        0 min,  0.001 sec (  0.163%)
 integral evaluation            ...        0 min,  0.007 sec (  1.740%)
 iterations                     ...        0 min,  0.342 sec ( 90.164%)
 molecular gradient             ...        0 min,  0.028 sec (  7.262%)
 printout                       ...        0 min,  0.001 sec (  0.284%)

         :::::::::::::::::::::::::::::::::::::::::::::::::::::
         ::                     SUMMARY                     ::
         :::::::::::::::::::::::::::::::::::::::::::::::::::::
         :: total energy             -64.279759580229 Eh    ::
         :: gradient norm              0.441688189801 Eh/a0 ::
         :: HOMO-LUMO gap              0.046835108743 eV    ::
         ::.................................................::
         :: SCC energy               -65.008778080854 Eh    ::
         :: -> isotropic ES            0.013359553610 Eh    ::
         :: -> anisotropic ES          0.006654125548 Eh    ::
         :: -> anisotropic XC          0.039199537929 Eh    ::
         :: -> dispersion             -0.036131079829 Eh    ::
         :: repulsion energy           0.729413395036 Eh    ::
         :: add. restraining           0.000000000000 Eh    ::
         :: total charge              -0.000000000000 e     ::
         :::::::::::::::::::::::::::::::::::::::::::::::::::::

           -------------------------------------------------
          |                Property Printout                |
           -------------------------------------------------

    * Orbital Energies and Occupations

         #    Occupation            Energy/Eh            Energy/eV
      -------------------------------------------------------------
         1        2.0000           -0.8636163             -23.5002
       ...           ...                  ...                  ...
        47        2.0000           -0.4580399             -12.4639
        48        2.0000           -0.4518195             -12.2946
        49        2.0000           -0.4480457             -12.1919
        50        2.0000           -0.4458551             -12.1323
        51        2.0000           -0.4440809             -12.0841
        52        2.0000           -0.4401768             -11.9778
        53        2.0000           -0.4324373             -11.7672
        54        2.0000           -0.4308870             -11.7250
        55        2.0000           -0.4255392             -11.5795
        56        1.9979           -0.4196917             -11.4204
        57        1.9543           -0.4167600             -11.3406
        58        1.9054           -0.4160443             -11.3211
        59        1.4928           -0.4142171             -11.2714 (HOMO)
        60        0.6494           -0.4124959             -11.2246 (LUMO)
        61        0.0002           -0.4045660             -11.0088
        62                         -0.3967615             -10.7964
        63                         -0.3939863             -10.7209
        64                         -0.3913360             -10.6488
        65                         -0.3845298             -10.4636
        66                         -0.3603685              -9.8061
        67                         -0.3541914              -9.6380
        68                         -0.3477434              -9.4626
        69                         -0.3330017              -9.0614
        70                         -0.3181325              -8.6568
       ...                                ...                  ...
       113                          0.6195881              16.8598
      -------------------------------------------------------------
                  HL-Gap            0.0017212 Eh            0.0468 eV
             Fermi-level           -0.4131916 Eh          -11.2435 eV

     #   Z          covCN         q      C6AA      α(0)
     1   6 C        0.931    -0.086    38.256    10.362
     2   7 N        2.721     0.193    18.053     6.310
     3   6 C        0.931    -0.090    38.399    10.382
     4   6 C        1.906    -0.004    31.219     9.024
     5   6 C        1.965     0.030    30.305     8.890
     6   6 C        1.970    -0.002    31.128     9.010
     7   6 C        2.754     0.321    21.553     7.602
     8   8 O        0.857    -0.330    20.336     6.046
     9   7 N        1.835    -0.214    26.492     7.628
    10   6 C        2.893     0.151    24.729     8.153
    11   6 C        1.995    -0.017    31.497     9.063
    12   6 C        2.005    -0.031    31.858     9.115
    13   6 C        2.987     0.142    24.910     8.187
    14   7 N        1.844    -0.143    24.879     7.392
    15   6 C        1.958     0.148    27.476     8.465
    16   7 N        1.831    -0.178    25.669     7.508
    17   6 C        2.889     0.195    23.856     8.008
    18   7 N        1.830    -0.170    25.477     7.479
    19   6 C        2.891     0.134    25.062     8.208
    20   6 C        1.991     0.009    30.811     8.964
    21   6 C        1.986    -0.026    31.745     9.099
    22   6 C        2.062     0.012    30.637     8.941
    23   6 C        2.905     0.112    25.520     8.283
    24  35 Br       1.068    -0.064   186.765    22.035
    25   6 C        2.066    -0.066    32.738     9.242
    26   6 C        2.979     0.009    27.807     8.650
    27   6 C        1.993    -0.035    31.975     9.132

 Mol. C6AA /au·bohr⁶  :      22792.349241
 Mol. C8AA /au·bohr⁸  :     683080.514147
 Mol. α(0) /au        :        241.178719


Wiberg/Mayer (AO) data.
largest (>0.10) Wiberg bond orders for each atom

 ---------------------------------------------------------------------------
     #   Z sym  total        # sym  WBO       # sym  WBO       # sym  WBO
 ---------------------------------------------------------------------------
     1   6 C    2.482 --     2 N    1.356     3 C    0.487     4 C    0.425
                             6 C    0.127
     2   7 N    3.701 --     1 C    1.356     3 C    1.350     4 C    0.962
     3   6 C    2.477 --     2 N    1.350     1 C    0.487     4 C    0.430
                             6 C    0.139
     4   6 C    3.366 --     5 C    1.372     2 N    0.962     3 C    0.430
                             1 C    0.425
     5   6 C    3.829 --     6 C    2.248     4 C    1.372
     6   6 C    3.763 --     5 C    2.248     7 C    0.976     3 C    0.139
                             1 C    0.127
     7   6 C    3.915 --     8 O    1.653     9 N    1.205     6 C    0.976
     8   8 O    2.102 --     7 C    1.653     9 N    0.102
     9   7 N    2.826 --    10 C    1.266     7 C    1.205     8 O    0.102
    10   6 C    3.904 --    27 C    1.292     9 N    1.266    11 C    1.202
    11   6 C    3.723 --    12 C    1.839    10 C    1.202    27 C    0.168
                            15 C    0.138
    12   6 C    3.503 --    11 C    1.839    13 C    1.271    27 C    0.153
    13   6 C    3.884 --    12 C    1.271    14 N    1.238    26 C    1.129
    14   7 N    3.149 --    15 C    1.584    13 C    1.238
    15   6 C    3.775 --    16 N    1.595    14 N    1.584    18 N    0.147
                            11 C    0.138
    16   7 N    3.148 --    15 C    1.595    17 C    1.215
    17   6 C    3.956 --    18 N    1.342    16 N    1.215    26 C    1.166
    18   7 N    3.130 --    17 C    1.342    19 C    1.190    15 C    0.147
    19   6 C    3.943 --    25 C    1.310    20 C    1.278    18 N    1.190
    20   6 C    3.715 --    21 C    1.627    19 C    1.278    22 C    0.396
                            25 C    0.159
    21   6 C    3.748 --    20 C    1.627    22 C    1.618    25 C    0.386
    22   6 C    3.700 --    21 C    1.618    23 C    1.358    20 C    0.396
                            25 C    0.147
    23   6 C    3.929 --    25 C    1.429    22 C    1.358    24 Br   0.994
    24  35 Br   1.195 --    23 C    0.994
    25   6 C    3.553 --    23 C    1.429    19 C    1.310    21 C    0.386
                            20 C    0.159    22 C    0.147
    26   6 C    3.946 --    27 C    1.390    17 C    1.166    13 C    1.129
    27   6 C    3.390 --    26 C    1.390    10 C    1.292    11 C    0.168
                            12 C    0.153
 ---------------------------------------------------------------------------

Topologies differ in total number of bonds
Writing topology from bond orders to xtbtopo.mol

molecular dipole:
                 x           y           z       tot (Debye)
 q only:       -0.526      -0.323       0.469
   full:       -1.225      -0.860       0.574       4.075
molecular quadrupole (traceless):
                xx          xy          yy          xz          yz          zz
 q only:       -1.148       5.117       3.258       8.286       7.463      -2.110
  q+dip:        1.766      12.690       7.695      19.048       7.167      -9.461
   full:       -0.460      10.765       7.460      21.506       1.913      -6.999


           -------------------------------------------------
          | TOTAL ENERGY              -64.279759580229 Eh   |
          | GRADIENT NORM               0.441688189801 Eh/α |
          | HOMO-LUMO GAP               0.046835108743 eV   |
           -------------------------------------------------

------------------------------------------------------------------------
 * finished run on 2026/07/23 at 16:39:32.008     
Note: The following floating-point exceptions are signalling: IEEE_UNDERFLOW_FLAG IEEE_DENORMAL
normal termination of xtb
------------------------------------------------------------------------
 total:
 * wall-time:     0 d,  0 h,  0 min,  0.401 sec
 *  cpu-time:     0 d,  0 h,  0 min,  0.379 sec
 * ratio c/w:     0.945 speedup
 SCF:
 * wall-time:     0 d,  0 h,  0 min,  0.380 sec
 *  cpu-time:     0 d,  0 h,  0 min,  0.358 sec
 * ratio c/w:     0.943 speedup

