      -----------------------------------------------------------      
     |                   =====================                   |     
     |                           x T B                           |     
     |                   =====================                   |     
     |                         S. Grimme                         |     
     |          Mulliken Center for Theoretical Chemistry        |     
     |                    University of Bonn                     |     
      -----------------------------------------------------------      

   * xtb version 6.6.1 (unknown) compiled by 'builduser@buildhost' on 2023-08-07

   xtb is free software: you can redistribute it and/or modify it under
   the terms of the GNU Lesser General Public License as published by
   the Free Software Foundation, either version 3 of the License, or
   (at your option) any later version.
   
   xtb is distributed in the hope that it will be useful,
   but WITHOUT ANY WARRANTY; without even the implied warranty of
   MERCHANTABILITY or FITNESS FOR A PARTICULAR PURPOSE.  See the
   GNU Lesser General Public License for more details.
   
   Cite this work as:
   * C. Bannwarth, E. Caldeweyher, S. Ehlert, A. Hansen, P. Pracht,
     J. Seibert, S. Spicher, S. Grimme, WIREs Comput. Mol. Sci., 2020, 11,
     e01493. DOI: 10.1002/wcms.1493
   
   for GFN2-xTB:
   * C. Bannwarth, S. Ehlert and S. Grimme., J. Chem. Theory Comput., 2019,
     15, 1652-1671. DOI: 10.1021/acs.jctc.8b01176
   for GFN1-xTB:
   * S. Grimme, C. Bannwarth, P. Shushkov, J. Chem. Theory Comput., 2017,
     13, 1989-2009. DOI: 10.1021/acs.jctc.7b00118
   for GFN0-xTB:
   * P. Pracht, E. Caldeweyher, S. Ehlert, S. Grimme, ChemRxiv, 2019, preprint.
     DOI: 10.26434/chemrxiv.8326202.v1
   for GFN-FF:
   * S. Spicher and S. Grimme, Angew. Chem. Int. Ed., 2020, 59, 15665-15673.
     DOI: 10.1002/anie.202004239
   
   for ALPB and GBSA implicit solvation:
   * S. Ehlert, M. Stahn, S. Spicher, S. Grimme, J. Chem. Theory Comput.,
     2021, 17, 4250-4261. DOI: 10.1021/acs.jctc.1c00471
   
   for DFT-D4:
   * E. Caldeweyher, C. Bannwarth and S. Grimme, J. Chem. Phys., 2017,
     147, 034112. DOI: 10.1063/1.4993215
   * E. Caldeweyher, S. Ehlert, A. Hansen, H. Neugebauer, S. Spicher,
     C. Bannwarth and S. Grimme, J. Chem. Phys., 2019, 150, 154122.
     DOI: 10.1063/1.5090222
   * E. Caldeweyher, J.-M. Mewes, S. Ehlert and S. Grimme, Phys. Chem. Chem. Phys.
     2020, 22, 8499-8512. DOI: 10.1039/D0CP00502A
   
   for sTDA-xTB:
   * S. Grimme and C. Bannwarth, J. Chem. Phys., 2016, 145, 054103.
     DOI: 10.1063/1.4959605
   
   in the mass-spec context:
   * V. Asgeirsson, C. Bauer and S. Grimme, Chem. Sci., 2017, 8, 4879.
     DOI: 10.1039/c7sc00601b
   * J. Koopman and S. Grimme, ACS Omega 2019, 4, 12, 15120-15133.
     DOI: 10.1021/acsomega.9b02011
   
   for metadynamics refer to:
   * S. Grimme, J. Chem. Theory Comput., 2019, 155, 2847-2862
     DOI: 10.1021/acs.jctc.9b00143
   
   for SPH calculations refer to:
   * S. Spicher and S. Grimme, J. Chem. Theory Comput., 2021, 17, 1701-1714
     DOI: 10.1021/acs.jctc.0c01306
   
   with help from (in alphabetical order)
   P. Atkinson, C. Bannwarth, F. Bohle, G. Brandenburg, E. Caldeweyher
   M. Checinski, S. Dohm, S. Ehlert, S. Ehrlich, I. Gerasimov, C. Hölzer
   A. Katbashev, J. Koopman, C. Lavigne, S. Lehtola, F. März, M. Müller,
   F. Musil, H. Neugebauer, J. Pisarek, C. Plett, P. Pracht, F. Pultar,
   J. Seibert, P. Shushkov, S. Spicher, M. Stahn, M. Steiner, T. Strunk,
   J. Stückrath, T. Rose, and J. Unsleber
   
 * started run on 2026/07/23 at 16:37:30.286     

           -------------------------------------------------
          |                Calculation Setup                |
           -------------------------------------------------

          program call               : xtb /home/selva/covalent_quantum_benchmark/data/quantum/erbB_xyz/EGFR__CHEMBL144778__state03.xyz --gfn2 --chrg 0 --uhf 0 --iterations 300
          coordinate file            : /home/selva/covalent_quantum_benchmark/data/quantum/erbB_xyz/EGFR__CHEMBL144778__state03.xyz
          omp threads                :                    24

   ID    Z sym.   atoms
    1    7 N      1, 15, 22, 27
    2    6 C      2-8, 10, 12, 13, 16-21, 23, 25, 26, 28-31, 33, 35, 36
    3    8 O      9, 11, 14, 24, 32, 34

           -------------------------------------------------
          |                 G F N 2 - x T B                 |
           -------------------------------------------------

        Reference                      10.1021/acs.jctc.8b01176
      * Hamiltonian:
        H0-scaling (s, p, d)           1.850000    2.230000    2.230000
        zeta-weighting                 0.500000
      * Dispersion:
        s8                             2.700000
        a1                             0.520000
        a2                             5.000000
        s9                             5.000000
      * Repulsion:
        kExp                           1.500000    1.000000
        rExp                           1.000000
      * Coulomb:
        alpha                          2.000000
        third order                    shell-resolved
        anisotropic                    true
        a3                             3.000000
        a5                             4.000000
        cn-shift                       1.200000
        cn-exp                         4.000000
        max-rad                        5.000000


          ...................................................
          :                      SETUP                      :
          :.................................................:
          :  # basis functions                 144          :
          :  # atomic orbitals                 144          :
          :  # shells                           72          :
          :  # electrons                       160          :
          :  max. iterations                   300          :
          :  Hamiltonian                  GFN2-xTB          :
          :  restarted?                      false          :
          :  GBSA solvation                  false          :
          :  PC potential                    false          :
          :  electronic temp.          300.0000000     K    :
          :  accuracy                    1.0000000          :
          :  -> integral cutoff          0.2500000E+02      :
          :  -> integral neglect         0.1000000E-07      :
          :  -> SCF convergence          0.1000000E-05 Eh   :
          :  -> wf. convergence          0.1000000E-03 e    :
          :  Broyden damping             0.4000000          :
          ...................................................

 iter      E             dE          RMSdq      gap      omega  full diag
   1    -90.1552904 -0.901553E+02  0.841E+00    0.07       0.0  T
   2    -62.4376361  0.277177E+02  0.129E+01    0.02       1.0  T
   3    -55.9213197  0.651632E+01  0.131E+01    0.01       1.0  T
   4    -79.8603639 -0.239390E+02  0.945E+00    0.24       1.0  T
   5    -81.5399784 -0.167961E+01  0.841E+00    0.09       1.0  T
   6    -84.2946768 -0.275470E+01  0.701E+00    0.11       1.0  T
   7    -89.0339159 -0.473924E+01  0.542E+00    0.37       1.0  T
   8    -89.4582141 -0.424298E+00  0.467E+00    0.45       1.0  T
   9    -89.8341971 -0.375983E+00  0.374E+00    0.07       1.0  T
  10    -89.6666496  0.167547E+00  0.392E+00    0.14       1.0  T
  11    -90.2700823 -0.603433E+00  0.298E+00    0.03       1.0  T
  12    -90.5009838 -0.230902E+00  0.274E+00    0.04       1.0  T
  13    -90.2781017  0.222882E+00  0.280E+00    0.09       1.0  T
  14    -90.5297099 -0.251608E+00  0.248E+00    0.06       1.0  T
  15    -90.3807164  0.148994E+00  0.264E+00    0.02       1.0  T
  16    -90.9548161 -0.574100E+00  0.205E+00    0.08       1.0  T
  17    -90.8886700  0.661461E-01  0.193E+00    0.04       1.0  T
  18    -91.0621066 -0.173437E+00  0.147E+00    0.12       1.0  T
  19    -91.0762597 -0.141531E-01  0.126E+00    0.04       1.0  T
  20    -91.1281560 -0.518963E-01  0.949E-01    0.11       1.0  T
  21    -91.1173792  0.107768E-01  0.913E-01    0.07       1.0  T
  22    -91.1111297  0.624949E-02  0.840E-01    0.12       1.0  T
  23    -91.0750209  0.361088E-01  0.894E-01    0.08       1.0  T
  24    -91.1245514 -0.495305E-01  0.679E-01    0.11       1.0  T
  25    -90.9084975  0.216054E+00  0.153E+00    0.02       1.0  T
  26    -91.1247072 -0.216210E+00  0.645E-01    0.09       1.0  T
  27    -91.1260487 -0.134147E-02  0.597E-01    0.09       1.0  T
  28    -91.1380276 -0.119789E-01  0.526E-01    0.09       1.0  T
  29    -91.1402460 -0.221836E-02  0.476E-01    0.09       1.0  T
  30    -91.1462854 -0.603944E-02  0.367E-01    0.10       1.0  T
  31    -91.1553282 -0.904282E-02  0.148E-01    0.10       1.0  T
  32    -91.1569706 -0.164241E-02  0.848E-02    0.11       1.0  T
  33    -91.1569540  0.166811E-04  0.850E-02    0.11       1.0  T
  34    -91.1569581 -0.418997E-05  0.834E-02    0.11       1.0  T
  35    -91.1569616 -0.341914E-05  0.780E-02    0.10       1.0  T
  36    -91.1570811 -0.119526E-03  0.692E-02    0.10       1.0  T
  37    -91.1572398 -0.158701E-03  0.515E-02    0.11       1.0  T
  38    -91.1573097 -0.699448E-04  0.400E-02    0.11       1.0  T
  39    -91.1573524 -0.426561E-04  0.331E-02    0.11       1.0  T
  40    -91.1573807 -0.283475E-04  0.256E-02    0.11       1.0  T
  41    -91.1574060 -0.252177E-04  0.167E-02    0.11       1.0  T
  42    -91.1574117 -0.569631E-05  0.146E-02    0.11       1.1  T
  43    -91.1574182 -0.658315E-05  0.111E-02    0.11       1.5  T
  44    -91.1574218 -0.358061E-05  0.906E-03    0.11       1.8  T
  45    -91.1574238 -0.201803E-05  0.648E-03    0.11       2.6  T
  46    -91.1574239 -0.511427E-07  0.537E-03    0.11       3.1  T
  47    -91.1574226  0.124044E-05  0.525E-03    0.11       3.2  T
  48    -91.1574232 -0.506660E-06  0.484E-03    0.11       3.4  T
  49    -91.1574242 -0.107961E-05  0.357E-03    0.11       4.7  T
  50    -91.1574244 -0.122811E-06  0.329E-03    0.11       5.1  T
  51    -91.1574254 -0.101059E-05  0.149E-03    0.11      11.2  T
  52    -91.1574256 -0.247307E-06  0.665E-04    0.11      25.0  T
  53    -91.1574257 -0.510241E-07  0.286E-04    0.11      58.4  T

   *** convergence criteria satisfied after 53 iterations ***

         #    Occupation            Energy/Eh            Energy/eV
      -------------------------------------------------------------
         1        2.0000           -0.7763414             -21.1253
       ...           ...                  ...                  ...
        74        2.0000           -0.4627227             -12.5913
        75        1.9991           -0.4578536             -12.4588
        76        1.9976           -0.4569351             -12.4338
        77        1.9972           -0.4568146             -12.4306
        78        1.9832           -0.4550927             -12.3837
        79        1.8877           -0.4532394             -12.3333
        80        1.8441           -0.4529053             -12.3242 (HOMO)
        81        0.2826           -0.4488436             -12.2137 (LUMO)
        82        0.0069           -0.4451794             -12.1139
        83        0.0015           -0.4437216             -12.0743
        84                         -0.4283343             -11.6556
        85                         -0.4137413             -11.2585
       ...                                ...                  ...
       144                          1.0194177              27.7398
      -------------------------------------------------------------
                  HL-Gap            0.0040617 Eh            0.1105 eV
             Fermi-level           -0.4505580 Eh          -12.2603 eV

 SCC (total)                   0 d,  0 h,  0 min,  0.797 sec
 SCC setup                      ...        0 min,  0.000 sec (  0.050%)
 Dispersion                     ...        0 min,  0.001 sec (  0.130%)
 classical contributions        ...        0 min,  0.000 sec (  0.060%)
 integral evaluation            ...        0 min,  0.004 sec (  0.485%)
 iterations                     ...        0 min,  0.763 sec ( 95.798%)
 molecular gradient             ...        0 min,  0.025 sec (  3.184%)
 printout                       ...        0 min,  0.002 sec (  0.290%)

         :::::::::::::::::::::::::::::::::::::::::::::::::::::
         ::                     SUMMARY                     ::
         :::::::::::::::::::::::::::::::::::::::::::::::::::::
         :: total energy             -90.143824334106 Eh    ::
         :: gradient norm              0.606356821243 Eh/a0 ::
         :: HOMO-LUMO gap              0.110524816659 eV    ::
         ::.................................................::
         :: SCC energy               -91.157425667347 Eh    ::
         :: -> isotropic ES            0.155335677892 Eh    ::
         :: -> anisotropic ES         -0.000486791281 Eh    ::
         :: -> anisotropic XC          0.059378061775 Eh    ::
         :: -> dispersion             -0.049271471112 Eh    ::
         :: repulsion energy           1.013727779699 Eh    ::
         :: add. restraining           0.000000000000 Eh    ::
         :: total charge               0.000000000002 e     ::
         :::::::::::::::::::::::::::::::::::::::::::::::::::::

           -------------------------------------------------
          |                Property Printout                |
           -------------------------------------------------

    * Orbital Energies and Occupations

         #    Occupation            Energy/Eh            Energy/eV
      -------------------------------------------------------------
         1        2.0000           -0.7763414             -21.1253
       ...           ...                  ...                  ...
        68        2.0000           -0.4851556             -13.2018
        69        2.0000           -0.4821225             -13.1192
        70        2.0000           -0.4801189             -13.0647
        71        2.0000           -0.4766891             -12.9714
        72        2.0000           -0.4729639             -12.8700
        73        2.0000           -0.4714051             -12.8276
        74        2.0000           -0.4627227             -12.5913
        75        1.9991           -0.4578536             -12.4588
        76        1.9976           -0.4569351             -12.4338
        77        1.9972           -0.4568146             -12.4306
        78        1.9832           -0.4550927             -12.3837
        79        1.8877           -0.4532394             -12.3333
        80        1.8441           -0.4529053             -12.3242 (HOMO)
        81        0.2826           -0.4488436             -12.2137 (LUMO)
        82        0.0069           -0.4451794             -12.1139
        83        0.0015           -0.4437216             -12.0743
        84                         -0.4283343             -11.6556
        85                         -0.4137413             -11.2585
        86                         -0.4074949             -11.0885
        87                         -0.4023985             -10.9498
        88                         -0.3877443             -10.5511
        89                         -0.3840327             -10.4501
        90                         -0.3787827             -10.3072
        91                         -0.3703278             -10.0771
       ...                                ...                  ...
       144                          1.0194177              27.7398
      -------------------------------------------------------------
                  HL-Gap            0.0040617 Eh            0.1105 eV
             Fermi-level           -0.4505580 Eh          -12.2603 eV

     #   Z          covCN         q      C6AA      α(0)
     1   7 N        0.911    -0.147    24.192     7.114
     2   6 C        1.903     0.145    27.576     8.481
     3   6 C        2.946     0.039    27.115     8.541
     4   6 C        1.990     0.058    29.570     8.782
     5   6 C        2.967     0.089    26.019     8.367
     6   6 C        1.992    -0.004    31.161     9.015
     7   6 C        1.985    -0.011    31.342     9.041
     8   6 C        2.843     0.228    23.219     7.897
     9   8 O        0.854    -0.264    19.154     5.868
    10   6 C        2.844     0.221    23.355     7.920
    11   8 O        0.855    -0.255    18.985     5.842
    12   6 C        1.993    -0.056    32.565     9.216
    13   6 C        2.761     0.318    21.602     7.611
    14   8 O        0.858    -0.342    20.554     6.078
    15   7 N        1.825    -0.183    25.764     7.521
    16   6 C        2.861     0.138    24.986     8.193
    17   6 C        1.955    -0.049    32.399     9.192
    18   6 C        1.955     0.047    29.867     8.826
    19   6 C        1.954     0.032    30.261     8.884
    20   6 C        1.955    -0.029    31.851     9.114
    21   6 C        2.860     0.152    24.707     8.147
    22   7 N        1.823    -0.190    25.941     7.547
    23   6 C        2.760     0.315    21.643     7.618
    24   8 O        0.858    -0.341    20.532     6.075
    25   6 C        2.944     0.038    27.156     8.547
    26   6 C        1.903     0.142    27.648     8.492
    27   7 N        0.911    -0.119    23.594     7.025
    28   6 C        2.000     0.080    29.024     8.700
    29   6 C        2.956     0.091    25.965     8.358
    30   6 C        1.990    -0.064    32.773     9.245
    31   6 C        2.817     0.250    22.812     7.826
    32   8 O        0.857    -0.231    18.578     5.779
    33   6 C        2.806     0.184    24.058     8.036
    34   8 O        0.851    -0.281    19.452     5.913
    35   6 C        1.970     0.011    30.776     8.959
    36   6 C        1.977    -0.013    31.396     9.049

 Mol. C6AA /au·bohr⁶  :      33369.510488
 Mol. C8AA /au·bohr⁸  :     894166.514147
 Mol. α(0) /au        :        286.817577


Wiberg/Mayer (AO) data.
largest (>0.10) Wiberg bond orders for each atom

 ---------------------------------------------------------------------------
     #   Z sym  total        # sym  WBO       # sym  WBO       # sym  WBO
 ---------------------------------------------------------------------------
     1   7 N    3.080 --     2 C    2.792     4 C    0.156
     2   6 C    3.936 --     1 N    2.792     3 C    1.046
     3   6 C    3.954 --     4 C    1.792     2 C    1.046    13 C    0.924
     4   6 C    3.752 --     3 C    1.792     5 C    1.211     7 C    0.210
                             1 N    0.156     6 C    0.140
     5   6 C    3.959 --    12 C    1.403     4 C    1.211     6 C    1.144
     6   6 C    3.790 --     7 C    1.746     5 C    1.144    12 C    0.336
                             9 O    0.192     4 C    0.140
     7   6 C    3.720 --     6 C    1.746     8 C    1.226    12 C    0.274
                             4 C    0.210    11 O    0.105
     8   6 C    3.940 --     9 O    1.598     7 C    1.226    10 C    0.970
     9   8 O    2.083 --     8 C    1.598     6 C    0.192    11 O    0.149
    10   6 C    3.936 --    11 O    1.572    12 C    1.259     8 C    0.970
    11   8 O    2.061 --    10 C    1.572     9 O    0.149     7 C    0.105
    12   6 C    3.524 --     5 C    1.403    10 C    1.259     6 C    0.336
                             7 C    0.274
    13   6 C    3.932 --    14 O    1.689    15 N    1.214     3 C    0.924
    14   8 O    2.094 --    13 C    1.689    15 N    0.128
    15   7 N    3.174 --    16 C    1.425    13 C    1.214    18 C    0.130
                            14 O    0.128
    16   6 C    3.851 --    15 N    1.425    17 C    1.173    21 C    0.948
    17   6 C    3.339 --    18 C    1.456    16 C    1.173    20 C    0.263
                            19 C    0.248
    18   6 C    3.506 --    19 C    1.527    17 C    1.456    20 C    0.206
                            15 N    0.130
    19   6 C    3.596 --    20 C    1.552    18 C    1.527    17 C    0.248
                            21 C    0.112
    20   6 C    3.272 --    19 C    1.552    21 C    1.092    17 C    0.263
                            18 C    0.206
    21   6 C    3.814 --    22 N    1.437    20 C    1.092    16 C    0.948
                            19 C    0.112
    22   7 N    3.125 --    21 C    1.437    23 C    1.219    24 O    0.151
    23   6 C    3.932 --    24 O    1.673    22 N    1.219    25 C    0.934
    24   8 O    2.091 --    23 C    1.673    22 N    0.151
    25   6 C    3.956 --    28 C    1.781    26 C    1.043    23 C    0.934
Note: The following floating-point exceptions are signalling: IEEE_UNDERFLOW_FLAG IEEE_DENORMAL
normal termination of xtb
    26   6 C    3.937 --    27 N    2.795    25 C    1.043
    27   7 N    3.104 --    26 C    2.795    28 C    0.166
    28   6 C    3.774 --    25 C    1.781    29 C    1.231    35 C    0.240
                            27 N    0.166
    29   6 C    3.956 --    30 C    1.533    28 C    1.231    36 C    1.018
    30   6 C    3.534 --    29 C    1.533    31 C    1.100    36 C    0.251
                            35 C    0.212    34 O    0.111
    31   6 C    3.917 --    32 O    1.830    30 C    1.100    33 C    0.863
    32   8 O    2.196 --    31 C    1.830
    33   6 C    3.826 --    34 O    1.630    35 C    1.073    31 C    0.863
    34   8 O    2.085 --    33 C    1.630    36 C    0.190    30 C    0.111
    35   6 C    3.728 --    36 C    2.012    33 C    1.073    28 C    0.240
                            30 C    0.212
    36   6 C    3.812 --    35 C    2.012    29 C    1.018    30 C    0.251
                            34 O    0.190
 ---------------------------------------------------------------------------

Topologies differ in total number of bonds
Writing topology from bond orders to xtbtopo.mol

molecular dipole:
                 x           y           z       tot (Debye)
 q only:       -0.492       0.834       2.233
   full:        0.116       0.402       2.453       6.324
molecular quadrupole (traceless):
                xx          xy          yy          xz          yz          zz
 q only:        8.254      36.464     -19.626      -7.412       5.966      11.371
  q+dip:        8.540      39.135     -27.104      -2.546       4.789      18.564
   full:       10.205      40.288     -26.006       0.403       6.001      15.801


           -------------------------------------------------
          | TOTAL ENERGY              -90.143824334106 Eh   |
          | GRADIENT NORM               0.606356821243 Eh/α |
          | HOMO-LUMO GAP               0.110524816659 eV   |
           -------------------------------------------------

------------------------------------------------------------------------
 * finished run on 2026/07/23 at 16:37:31.103     
------------------------------------------------------------------------
 total:
 * wall-time:     0 d,  0 h,  0 min,  0.817 sec
 *  cpu-time:     0 d,  0 h,  0 min,  0.823 sec
 * ratio c/w:     1.007 speedup
 SCF:
 * wall-time:     0 d,  0 h,  0 min,  0.797 sec
 *  cpu-time:     0 d,  0 h,  0 min,  0.799 sec
 * ratio c/w:     1.002 speedup

