      -----------------------------------------------------------      
     |                   =====================                   |     
     |                           x T B                           |     
     |                   =====================                   |     
     |                         S. Grimme                         |     
     |          Mulliken Center for Theoretical Chemistry        |     
     |                    University of Bonn                     |     
      -----------------------------------------------------------      

   * xtb version 6.6.1 (unknown) compiled by 'builduser@buildhost' on 2023-08-07

   xtb is free software: you can redistribute it and/or modify it under
   the terms of the GNU Lesser General Public License as published by
   the Free Software Foundation, either version 3 of the License, or
   (at your option) any later version.
   
   xtb is distributed in the hope that it will be useful,
   but WITHOUT ANY WARRANTY; without even the implied warranty of
   MERCHANTABILITY or FITNESS FOR A PARTICULAR PURPOSE.  See the
   GNU Lesser General Public License for more details.
   
   Cite this work as:
   * C. Bannwarth, E. Caldeweyher, S. Ehlert, A. Hansen, P. Pracht,
     J. Seibert, S. Spicher, S. Grimme, WIREs Comput. Mol. Sci., 2020, 11,
     e01493. DOI: 10.1002/wcms.1493
   
   for GFN2-xTB:
   * C. Bannwarth, S. Ehlert and S. Grimme., J. Chem. Theory Comput., 2019,
     15, 1652-1671. DOI: 10.1021/acs.jctc.8b01176
   for GFN1-xTB:
   * S. Grimme, C. Bannwarth, P. Shushkov, J. Chem. Theory Comput., 2017,
     13, 1989-2009. DOI: 10.1021/acs.jctc.7b00118
   for GFN0-xTB:
   * P. Pracht, E. Caldeweyher, S. Ehlert, S. Grimme, ChemRxiv, 2019, preprint.
     DOI: 10.26434/chemrxiv.8326202.v1
   for GFN-FF:
   * S. Spicher and S. Grimme, Angew. Chem. Int. Ed., 2020, 59, 15665-15673.
     DOI: 10.1002/anie.202004239
   
   for ALPB and GBSA implicit solvation:
   * S. Ehlert, M. Stahn, S. Spicher, S. Grimme, J. Chem. Theory Comput.,
     2021, 17, 4250-4261. DOI: 10.1021/acs.jctc.1c00471
   
   for DFT-D4:
   * E. Caldeweyher, C. Bannwarth and S. Grimme, J. Chem. Phys., 2017,
     147, 034112. DOI: 10.1063/1.4993215
   * E. Caldeweyher, S. Ehlert, A. Hansen, H. Neugebauer, S. Spicher,
     C. Bannwarth and S. Grimme, J. Chem. Phys., 2019, 150, 154122.
     DOI: 10.1063/1.5090222
   * E. Caldeweyher, J.-M. Mewes, S. Ehlert and S. Grimme, Phys. Chem. Chem. Phys.
     2020, 22, 8499-8512. DOI: 10.1039/D0CP00502A
   
   for sTDA-xTB:
   * S. Grimme and C. Bannwarth, J. Chem. Phys., 2016, 145, 054103.
     DOI: 10.1063/1.4959605
   
   in the mass-spec context:
   * V. Asgeirsson, C. Bauer and S. Grimme, Chem. Sci., 2017, 8, 4879.
     DOI: 10.1039/c7sc00601b
   * J. Koopman and S. Grimme, ACS Omega 2019, 4, 12, 15120-15133.
     DOI: 10.1021/acsomega.9b02011
   
   for metadynamics refer to:
   * S. Grimme, J. Chem. Theory Comput., 2019, 155, 2847-2862
     DOI: 10.1021/acs.jctc.9b00143
   
   for SPH calculations refer to:
   * S. Spicher and S. Grimme, J. Chem. Theory Comput., 2021, 17, 1701-1714
     DOI: 10.1021/acs.jctc.0c01306
   
   with help from (in alphabetical order)
   P. Atkinson, C. Bannwarth, F. Bohle, G. Brandenburg, E. Caldeweyher
   M. Checinski, S. Dohm, S. Ehlert, S. Ehrlich, I. Gerasimov, C. Hölzer
   A. Katbashev, J. Koopman, C. Lavigne, S. Lehtola, F. März, M. Müller,
   F. Musil, H. Neugebauer, J. Pisarek, C. Plett, P. Pracht, F. Pultar,
   J. Seibert, P. Shushkov, S. Spicher, M. Stahn, M. Steiner, T. Strunk,
   J. Stückrath, T. Rose, and J. Unsleber
   
 * started run on 2026/07/23 at 16:37:10.830     

           -------------------------------------------------
          |                Calculation Setup                |
           -------------------------------------------------

          program call               : xtb /home/selva/covalent_quantum_benchmark/data/quantum/erbB_xyz/EGFR__CHEMBL116853__state00.xyz --gfn2 --chrg 0 --uhf 0 --iterations 300
          coordinate file            : /home/selva/covalent_quantum_benchmark/data/quantum/erbB_xyz/EGFR__CHEMBL116853__state00.xyz
          omp threads                :                    24

   ID    Z sym.   atoms
    1    6 C      1, 3-5, 7-9, 11, 13-17, 19-22, 24, 26-28, 30, 31
    2    8 O      2, 25
    3    7 N      6, 10, 12, 23, 29
    4   35 Br     18

           -------------------------------------------------
          |                 G F N 2 - x T B                 |
           -------------------------------------------------

        Reference                      10.1021/acs.jctc.8b01176
      * Hamiltonian:
        H0-scaling (s, p, d)           1.850000    2.230000    2.230000
        zeta-weighting                 0.500000
      * Dispersion:
        s8                             2.700000
        a1                             0.520000
        a2                             5.000000
        s9                             5.000000
      * Repulsion:
        kExp                           1.500000    1.000000
        rExp                           1.000000
      * Coulomb:
        alpha                          2.000000
        third order                    shell-resolved
        anisotropic                    true
        a3                             3.000000
        a5                             4.000000
        cn-shift                       1.200000
        cn-exp                         4.000000
        max-rad                        5.000000


          ...................................................
          :                      SETUP                      :
          :.................................................:
          :  # basis functions                 130          :
          :  # atomic orbitals                 129          :
          :  # shells                           63          :
          :  # electrons                       136          :
          :  max. iterations                   300          :
          :  Hamiltonian                  GFN2-xTB          :
          :  restarted?                      false          :
          :  GBSA solvation                  false          :
          :  PC potential                    false          :
          :  electronic temp.          300.0000000     K    :
          :  accuracy                    1.0000000          :
          :  -> integral cutoff          0.2500000E+02      :
          :  -> integral neglect         0.1000000E-07      :
          :  -> SCF convergence          0.1000000E-05 Eh   :
          :  -> wf. convergence          0.1000000E-03 e    :
          :  Broyden damping             0.4000000          :
          ...................................................

 iter      E             dE          RMSdq      gap      omega  full diag
   1    -74.7112810 -0.747113E+02  0.917E+00    0.03       0.0  T
   2    -62.0239637  0.126873E+02  0.130E+01    0.16       1.0  T
   3    -53.0345087  0.898946E+01  0.116E+01    0.58       1.0  T
   4    -59.2869045 -0.625240E+01  0.113E+01    0.15       1.0  T
   5    -70.8241371 -0.115372E+02  0.706E+00    0.40       1.0  T
   6    -67.8770067  0.294713E+01  0.937E+00    0.29       1.0  T
   7    -74.3762949 -0.649929E+01  0.440E+00    0.14       1.0  T
   8    -74.6073753 -0.231080E+00  0.489E+00    0.13       1.0  T
   9    -75.1211443 -0.513769E+00  0.365E+00    0.03       1.0  T
  10    -74.7627159  0.358428E+00  0.359E+00    0.03       1.0  T
  11    -75.3047092 -0.541993E+00  0.287E+00    0.09       1.0  T
  12    -75.2364817  0.682275E-01  0.283E+00    0.04       1.0  T
  13    -75.2868827 -0.504010E-01  0.266E+00    0.02       1.0  T
  14    -75.4886802 -0.201798E+00  0.194E+00    0.09       1.0  T
  15    -75.5417776 -0.530973E-01  0.149E+00    0.13       1.0  T
  16    -75.5120641  0.297135E-01  0.156E+00    0.13       1.0  T
  17    -75.4871446  0.249194E-01  0.168E+00    0.06       1.0  T
  18    -75.5065423 -0.193976E-01  0.136E+00    0.26       1.0  T
  19    -75.5842671 -0.777249E-01  0.702E-01    0.12       1.0  T
  20    -75.5824263  0.184081E-02  0.679E-01    0.15       1.0  T
  21    -75.5851925 -0.276622E-02  0.564E-01    0.13       1.0  T
  22    -75.5685967  0.165958E-01  0.741E-01    0.17       1.0  T
  23    -75.5742920 -0.569525E-02  0.551E-01    0.10       1.0  T
  24    -75.5388863  0.354057E-01  0.855E-01    0.07       1.0  T
  25    -75.5845721 -0.456858E-01  0.451E-01    0.12       1.0  T
  26    -75.5845832 -0.111370E-04  0.456E-01    0.14       1.0  T
  27    -75.5905771 -0.599385E-02  0.356E-01    0.14       1.0  T
  28    -75.5916398 -0.106273E-02  0.313E-01    0.13       1.0  T
  29    -75.5915334  0.106411E-03  0.305E-01    0.12       1.0  T
  30    -75.5912842  0.249197E-03  0.316E-01    0.11       1.0  T
  31    -75.5921704 -0.886180E-03  0.295E-01    0.11       1.0  T
  32    -75.5939583 -0.178793E-02  0.249E-01    0.11       1.0  T
  33    -75.5954171 -0.145882E-02  0.212E-01    0.11       1.0  T
  34    -75.5967810 -0.136384E-02  0.159E-01    0.11       1.0  T
  35    -75.5971289 -0.347966E-03  0.138E-01    0.11       1.0  T
  36    -75.5977829 -0.653952E-03  0.852E-02    0.11       1.0  T
  37    -75.5978866 -0.103681E-03  0.748E-02    0.11       1.0  T
  38    -75.5979941 -0.107540E-03  0.636E-02    0.11       1.0  T
  39    -75.5980740 -0.799050E-04  0.475E-02    0.11       1.0  T
  40    -75.5980966 -0.226398E-04  0.421E-02    0.11       1.0  T
  41    -75.5981251 -0.284244E-04  0.368E-02    0.11       1.0  T
  42    -75.5981572 -0.321342E-04  0.289E-02    0.11       1.0  T
  43    -75.5981814 -0.241650E-04  0.220E-02    0.11       1.0  T
  44    -75.5981852 -0.378570E-05  0.216E-02    0.11       1.0  T
  45    -75.5981946 -0.942699E-05  0.187E-02    0.11       1.0  T
  46    -75.5981993 -0.473972E-05  0.167E-02    0.11       1.1  T
  47    -75.5982050 -0.565521E-05  0.136E-02    0.11       1.3  T
  48    -75.5982090 -0.402654E-05  0.114E-02    0.11       1.6  T
  49    -75.5982123 -0.331307E-05  0.901E-03    0.11       2.0  T
  50    -75.5982163 -0.402891E-05  0.524E-03    0.11       3.4  T
  51    -75.5982182 -0.181136E-05  0.182E-03    0.11       9.8  T
  52    -75.5982183 -0.131996E-06  0.975E-04    0.11      18.4  T
  53    -75.5982183 -0.412716E-07  0.614E-04    0.11      29.3  T

   *** convergence criteria satisfied after 53 iterations ***

         #    Occupation            Energy/Eh            Energy/eV
      -------------------------------------------------------------
         1        2.0000           -0.8685390             -23.6341
       ...           ...                  ...                  ...
        62        2.0000           -0.4363166             -11.8728
        63        2.0000           -0.4336879             -11.8012
        64        2.0000           -0.4271241             -11.6226
        65        1.9999           -0.4232584             -11.5174
        66        1.9994           -0.4217453             -11.4763
        67        1.9945           -0.4195946             -11.4178
        68        1.7760           -0.4159699             -11.3191 (HOMO)
        69        0.2300           -0.4120644             -11.2128 (LUMO)
        70        0.0002           -0.4050772             -11.0227
        71        0.0001           -0.4048950             -11.0178
        72                         -0.3967632             -10.7965
        73                         -0.3942305             -10.7276
       ...                                ...                  ...
       129                          1.3127252              35.7211
      -------------------------------------------------------------
                  HL-Gap            0.0039056 Eh            0.1063 eV
             Fermi-level           -0.4140031 Eh          -11.2656 eV

 SCC (total)                   0 d,  0 h,  0 min,  0.494 sec
 SCC setup                      ...        0 min,  0.000 sec (  0.089%)
 Dispersion                     ...        0 min,  0.002 sec (  0.449%)
 classical contributions        ...        0 min,  0.001 sec (  0.117%)
 integral evaluation            ...        0 min,  0.009 sec (  1.895%)
 iterations                     ...        0 min,  0.463 sec ( 93.765%)
 molecular gradient             ...        0 min,  0.017 sec (  3.416%)
 printout                       ...        0 min,  0.001 sec (  0.260%)

         :::::::::::::::::::::::::::::::::::::::::::::::::::::
         ::                     SUMMARY                     ::
         :::::::::::::::::::::::::::::::::::::::::::::::::::::
         :: total energy             -74.655457687975 Eh    ::
         :: gradient norm              0.436739889620 Eh/a0 ::
         :: HOMO-LUMO gap              0.106276356257 eV    ::
         ::.................................................::
         :: SCC energy               -75.598218332703 Eh    ::
         :: -> isotropic ES            0.012962303323 Eh    ::
         :: -> anisotropic ES          0.006088523777 Eh    ::
         :: -> anisotropic XC          0.051935260824 Eh    ::
         :: -> dispersion             -0.043963381498 Eh    ::
         :: repulsion energy           0.942576288808 Eh    ::
         :: add. restraining           0.000000000000 Eh    ::
         :: total charge              -0.000000000002 e     ::
         :::::::::::::::::::::::::::::::::::::::::::::::::::::

           -------------------------------------------------
          |                Property Printout                |
           -------------------------------------------------

    * Orbital Energies and Occupations

         #    Occupation            Energy/Eh            Energy/eV
      -------------------------------------------------------------
         1        2.0000           -0.8685390             -23.6341
       ...           ...                  ...                  ...
        56        2.0000           -0.4674437             -12.7198
        57        2.0000           -0.4618938             -12.5688
        58        2.0000           -0.4546302             -12.3711
        59        2.0000           -0.4515250             -12.2866
        60        2.0000           -0.4445937             -12.0980
        61        2.0000           -0.4435354             -12.0692
        62        2.0000           -0.4363166             -11.8728
        63        2.0000           -0.4336879             -11.8012
        64        2.0000           -0.4271241             -11.6226
        65        1.9999           -0.4232584             -11.5174
        66        1.9994           -0.4217453             -11.4763
        67        1.9945           -0.4195946             -11.4178
        68        1.7760           -0.4159699             -11.3191 (HOMO)
        69        0.2300           -0.4120644             -11.2128 (LUMO)
        70        0.0002           -0.4050772             -11.0227
        71        0.0001           -0.4048950             -11.0178
        72                         -0.3967632             -10.7965
        73                         -0.3942305             -10.7276
        74                         -0.3932404             -10.7006
        75                         -0.3856029             -10.4928
        76                         -0.3827516             -10.4152
        77                         -0.3607932              -9.8177
        78                         -0.3584574              -9.7541
        79                         -0.3442631              -9.3679
       ...                                ...                  ...
       129                          1.3127252              35.7211
      -------------------------------------------------------------
                  HL-Gap            0.0039056 Eh            0.1063 eV
             Fermi-level           -0.4140031 Eh          -11.2656 eV

     #   Z          covCN         q      C6AA      α(0)
     1   6 C        0.868    -0.007    35.357     9.929
     2   8 O        1.703    -0.018    14.718     5.180
     3   6 C        2.862     0.154    24.662     8.140
     4   6 C        2.002    -0.076    33.094     9.290
     5   6 C        2.951     0.117    25.419     8.269
     6   7 N        1.845    -0.115    24.282     7.303
     7   6 C        1.970     0.062    29.501     8.771
     8   6 C        2.958     0.035    27.210     8.556
     9   6 C        1.907     0.124    28.056     8.554
    10   7 N        0.911    -0.179    24.889     7.216
    11   6 C        2.910     0.133    25.100     8.215
    12   7 N        1.828    -0.173    25.548     7.490
    13   6 C        2.893     0.132    25.112     8.216
    14   6 C        1.993     0.027    30.356     8.898
    15   6 C        1.986    -0.019    31.557     9.072
    16   6 C        2.062     0.018    30.509     8.922
    17   6 C        2.906     0.113    25.513     8.282
    18  35 Br       1.068    -0.070   186.944    22.045
    19   6 C        2.063    -0.111    34.018     9.421
    20   6 C        2.977     0.022    27.518     8.605
    21   6 C        1.990    -0.038    32.077     9.146
    22   6 C        2.895     0.113    25.516     8.282
    23   7 N        1.838    -0.253    27.428     7.761
    24   6 C        2.748     0.326    21.468     7.587
    25   8 O        0.860    -0.367    21.032     6.149
    26   6 C        1.974     0.023    30.477     8.915
    27   6 C        1.961     0.033    30.214     8.877
    28   6 C        1.905    -0.004    31.228     9.025
    29   7 N        2.722     0.190    18.093     6.317
    30   6 C        0.931    -0.096    38.582    10.406
    31   6 C        0.931    -0.094    38.517    10.397

 Mol. C6AA /au·bohr⁶  :      29291.744640
 Mol. C8AA /au·bohr⁸  :     867904.133926
 Mol. α(0) /au        :        273.237616


Wiberg/Mayer (AO) data.
largest (>0.10) Wiberg bond orders for each atom

 ---------------------------------------------------------------------------
     #   Z sym  total        # sym  WBO       # sym  WBO       # sym  WBO
 ---------------------------------------------------------------------------
     1   6 C    2.225 --     2 O    1.533     4 C    0.202    23 N    0.155
                            21 C    0.129     3 C    0.104
     2   8 O    2.660 --     1 C    1.533     3 C    1.032
     3   6 C    3.864 --     4 C    1.449    22 C    1.091     2 O    1.032
                             1 C    0.104
     4   6 C    3.678 --     3 C    1.449     5 C    1.375    21 C    0.368
                             1 C    0.202
     5   6 C    3.928 --     4 C    1.375     6 N    1.237    20 C    1.080
     6   7 N    3.304 --     7 C    1.665     5 C    1.237
     7   6 C    3.684 --     6 N    1.665     8 C    1.379    12 N    0.286
     8   6 C    3.945 --     7 C    1.379    11 C    1.233     9 C    1.081
     9   6 C    3.945 --    10 N    2.815     8 C    1.081
    10   7 N    3.001 --     9 C    2.815
    11   6 C    3.960 --    12 N    1.251     8 C    1.233    20 C    1.183
    12   7 N    3.225 --    11 C    1.251    13 C    1.211     7 C    0.286
    13   6 C    3.950 --    19 C    1.289    14 C    1.266    12 N    1.211
    14   6 C    3.694 --    15 C    1.660    13 C    1.266    16 C    0.377
                            19 C    0.154
    15   6 C    3.828 --    14 C    1.660    16 C    1.632    19 C    0.435
    16   6 C    3.685 --    15 C    1.632    17 C    1.360    14 C    0.377
                            19 C    0.150
    17   6 C    3.931 --    19 C    1.422    16 C    1.360    18 Br   0.994
    18  35 Br   1.196 --    17 C    0.994
    19   6 C    3.607 --    17 C    1.422    13 C    1.289    15 C    0.435
                            14 C    0.154    16 C    0.150
    20   6 C    3.966 --    21 C    1.423    11 C    1.183     5 C    1.080
    21   6 C    3.777 --    20 C    1.423    22 C    1.393     4 C    0.368
                             1 C    0.129
    22   6 C    3.961 --    21 C    1.393    23 N    1.256     3 C    1.091
    23   7 N    3.052 --    22 C    1.256    24 C    1.204     1 C    0.155
                            25 O    0.141
    24   6 C    3.936 --    25 O    1.634    23 N    1.204    26 C    1.020
    25   8 O    2.040 --    24 C    1.634    23 N    0.141
    26   6 C    3.921 --    27 C    2.516    24 C    1.020    31 C    0.111
                            30 C    0.104
    27   6 C    3.956 --    26 C    2.516    28 C    1.272
    28   6 C    3.329 --    27 C    1.272    29 N    0.951    31 C    0.511
                            30 C    0.499
    29   7 N    3.697 --    30 C    1.359    31 C    1.357    28 C    0.951
    30   6 C    2.530 --    29 N    1.359    31 C    0.535    28 C    0.499
Note: The following floating-point exceptions are signalling: IEEE_UNDERFLOW_FLAG IEEE_DENORMAL
normal termination of xtb
                            26 C    0.104
    31   6 C    2.557 --    29 N    1.357    30 C    0.535    28 C    0.511
                            26 C    0.111
 ---------------------------------------------------------------------------

Topologies differ in total number of bonds
Writing topology from bond orders to xtbtopo.mol

molecular dipole:
                 x           y           z       tot (Debye)
 q only:       -0.633       0.228       0.904
   full:       -0.431      -0.388       0.680       2.272
molecular quadrupole (traceless):
                xx          xy          yy          xz          yz          zz
 q only:       -3.287       1.499       0.115      -1.132       1.192       3.173
  q+dip:       -2.790       0.976      -3.687       2.124       1.413       6.477
   full:       -5.119      -2.039      -2.361       4.937      -2.046       7.480


           -------------------------------------------------
          | TOTAL ENERGY              -74.655457687975 Eh   |
          | GRADIENT NORM               0.436739889620 Eh/α |
          | HOMO-LUMO GAP               0.106276356257 eV   |
           -------------------------------------------------

------------------------------------------------------------------------
 * finished run on 2026/07/23 at 16:37:11.350     
------------------------------------------------------------------------
 total:
 * wall-time:     0 d,  0 h,  0 min,  0.520 sec
 *  cpu-time:     0 d,  0 h,  0 min,  0.466 sec
 * ratio c/w:     0.896 speedup
 SCF:
 * wall-time:     0 d,  0 h,  0 min,  0.494 sec
 *  cpu-time:     0 d,  0 h,  0 min,  0.449 sec
 * ratio c/w:     0.910 speedup

