      -----------------------------------------------------------      
     |                   =====================                   |     
     |                           x T B                           |     
     |                   =====================                   |     
     |                         S. Grimme                         |     
     |          Mulliken Center for Theoretical Chemistry        |     
     |                    University of Bonn                     |     
      -----------------------------------------------------------      

   * xtb version 6.6.1 (unknown) compiled by 'builduser@buildhost' on 2023-08-07

   xtb is free software: you can redistribute it and/or modify it under
   the terms of the GNU Lesser General Public License as published by
   the Free Software Foundation, either version 3 of the License, or
   (at your option) any later version.
   
   xtb is distributed in the hope that it will be useful,
   but WITHOUT ANY WARRANTY; without even the implied warranty of
   MERCHANTABILITY or FITNESS FOR A PARTICULAR PURPOSE.  See the
   GNU Lesser General Public License for more details.
   
   Cite this work as:
   * C. Bannwarth, E. Caldeweyher, S. Ehlert, A. Hansen, P. Pracht,
     J. Seibert, S. Spicher, S. Grimme, WIREs Comput. Mol. Sci., 2020, 11,
     e01493. DOI: 10.1002/wcms.1493
   
   for GFN2-xTB:
   * C. Bannwarth, S. Ehlert and S. Grimme., J. Chem. Theory Comput., 2019,
     15, 1652-1671. DOI: 10.1021/acs.jctc.8b01176
   for GFN1-xTB:
   * S. Grimme, C. Bannwarth, P. Shushkov, J. Chem. Theory Comput., 2017,
     13, 1989-2009. DOI: 10.1021/acs.jctc.7b00118
   for GFN0-xTB:
   * P. Pracht, E. Caldeweyher, S. Ehlert, S. Grimme, ChemRxiv, 2019, preprint.
     DOI: 10.26434/chemrxiv.8326202.v1
   for GFN-FF:
   * S. Spicher and S. Grimme, Angew. Chem. Int. Ed., 2020, 59, 15665-15673.
     DOI: 10.1002/anie.202004239
   
   for ALPB and GBSA implicit solvation:
   * S. Ehlert, M. Stahn, S. Spicher, S. Grimme, J. Chem. Theory Comput.,
     2021, 17, 4250-4261. DOI: 10.1021/acs.jctc.1c00471
   
   for DFT-D4:
   * E. Caldeweyher, C. Bannwarth and S. Grimme, J. Chem. Phys., 2017,
     147, 034112. DOI: 10.1063/1.4993215
   * E. Caldeweyher, S. Ehlert, A. Hansen, H. Neugebauer, S. Spicher,
     C. Bannwarth and S. Grimme, J. Chem. Phys., 2019, 150, 154122.
     DOI: 10.1063/1.5090222
   * E. Caldeweyher, J.-M. Mewes, S. Ehlert and S. Grimme, Phys. Chem. Chem. Phys.
     2020, 22, 8499-8512. DOI: 10.1039/D0CP00502A
   
   for sTDA-xTB:
   * S. Grimme and C. Bannwarth, J. Chem. Phys., 2016, 145, 054103.
     DOI: 10.1063/1.4959605
   
   in the mass-spec context:
   * V. Asgeirsson, C. Bauer and S. Grimme, Chem. Sci., 2017, 8, 4879.
     DOI: 10.1039/c7sc00601b
   * J. Koopman and S. Grimme, ACS Omega 2019, 4, 12, 15120-15133.
     DOI: 10.1021/acsomega.9b02011
   
   for metadynamics refer to:
   * S. Grimme, J. Chem. Theory Comput., 2019, 155, 2847-2862
     DOI: 10.1021/acs.jctc.9b00143
   
   for SPH calculations refer to:
   * S. Spicher and S. Grimme, J. Chem. Theory Comput., 2021, 17, 1701-1714
     DOI: 10.1021/acs.jctc.0c01306
   
   with help from (in alphabetical order)
   P. Atkinson, C. Bannwarth, F. Bohle, G. Brandenburg, E. Caldeweyher
   M. Checinski, S. Dohm, S. Ehlert, S. Ehrlich, I. Gerasimov, C. Hölzer
   A. Katbashev, J. Koopman, C. Lavigne, S. Lehtola, F. März, M. Müller,
   F. Musil, H. Neugebauer, J. Pisarek, C. Plett, P. Pracht, F. Pultar,
   J. Seibert, P. Shushkov, S. Spicher, M. Stahn, M. Steiner, T. Strunk,
   J. Stückrath, T. Rose, and J. Unsleber
   
 * started run on 2026/07/23 at 16:38:48.523     

           -------------------------------------------------
          |                Calculation Setup                |
           -------------------------------------------------

          program call               : xtb /home/selva/covalent_quantum_benchmark/data/quantum/erbB_xyz/EGFR__CHEMBL431996__state01.xyz --gfn2 --chrg 0 --uhf 0 --iterations 300
          coordinate file            : /home/selva/covalent_quantum_benchmark/data/quantum/erbB_xyz/EGFR__CHEMBL431996__state01.xyz
          omp threads                :                    24

   ID    Z sym.   atoms
    1    8 O      1, 3, 14, 21, 22
    2    6 C      2, 4-8, 10-13, 16-20, 23-28
    3    7 N      9, 15

           -------------------------------------------------
          |                 G F N 2 - x T B                 |
           -------------------------------------------------

        Reference                      10.1021/acs.jctc.8b01176
      * Hamiltonian:
        H0-scaling (s, p, d)           1.850000    2.230000    2.230000
        zeta-weighting                 0.500000
      * Dispersion:
        s8                             2.700000
        a1                             0.520000
        a2                             5.000000
        s9                             5.000000
      * Repulsion:
        kExp                           1.500000    1.000000
        rExp                           1.000000
      * Coulomb:
        alpha                          2.000000
        third order                    shell-resolved
        anisotropic                    true
        a3                             3.000000
        a5                             4.000000
        cn-shift                       1.200000
        cn-exp                         4.000000
        max-rad                        5.000000


          ...................................................
          :                      SETUP                      :
          :.................................................:
          :  # basis functions                 112          :
          :  # atomic orbitals                 112          :
          :  # shells                           56          :
          :  # electrons                       124          :
          :  max. iterations                   300          :
          :  Hamiltonian                  GFN2-xTB          :
          :  restarted?                      false          :
          :  GBSA solvation                  false          :
          :  PC potential                    false          :
          :  electronic temp.          300.0000000     K    :
          :  accuracy                    1.0000000          :
          :  -> integral cutoff          0.2500000E+02      :
          :  -> integral neglect         0.1000000E-07      :
          :  -> SCF convergence          0.1000000E-05 Eh   :
          :  -> wf. convergence          0.1000000E-03 e    :
          :  Broyden damping             0.4000000          :
          ...................................................

 iter      E             dE          RMSdq      gap      omega  full diag
   1    -69.9869822 -0.699870E+02  0.821E+00    0.04       0.0  T
   2    -60.4159512  0.957103E+01  0.123E+01    0.11       1.0  T
   3    -66.8746868 -0.645874E+01  0.847E+00    0.16       1.0  T
   4    -67.9442406 -0.106955E+01  0.776E+00    0.31       1.0  T
   5    -67.3161580  0.628083E+00  0.690E+00    0.16       1.0  T
   6    -65.7991578  0.151700E+01  0.712E+00    0.06       1.0  T
   7    -66.9029123 -0.110375E+01  0.615E+00    0.10       1.0  T
   8    -69.7505976 -0.284769E+01  0.469E+00    0.19       1.0  T
   9    -68.9573471  0.793250E+00  0.439E+00    0.13       1.0  T
  10    -69.7987785 -0.841431E+00  0.334E+00    0.03       1.0  T
  11    -69.7706256  0.281530E-01  0.332E+00    0.04       1.0  T
  12    -69.9554129 -0.184787E+00  0.336E+00    0.06       1.0  T
  13    -70.2251039 -0.269691E+00  0.274E+00    0.03       1.0  T
  14    -70.3005978 -0.754938E-01  0.242E+00    0.01       1.0  T
  15    -70.2352430  0.653548E-01  0.243E+00    0.02       1.0  T
  16    -70.3175960 -0.823531E-01  0.240E+00    0.04       1.0  T
  17    -70.3791516 -0.615556E-01  0.213E+00    0.04       1.0  T
  18    -70.4231260 -0.439744E-01  0.192E+00    0.03       1.0  T
  19    -70.1525155  0.270610E+00  0.283E+00    0.06       1.0  T
  20    -70.2256031 -0.730876E-01  0.262E+00    0.05       1.0  T
  21    -70.2156801  0.992299E-02  0.272E+00    0.06       1.0  T
  22    -70.1423283  0.733518E-01  0.294E+00    0.06       1.0  T
  23    -70.2580157 -0.115687E+00  0.265E+00    0.04       1.0  T
  24    -70.0561884  0.201827E+00  0.327E+00    0.06       1.0  T
  25    -70.1729124 -0.116724E+00  0.282E+00    0.06       1.0  T
  26    -70.4018385 -0.228926E+00  0.223E+00    0.01       1.0  T
  27    -70.5304095 -0.128571E+00  0.143E+00    0.03       1.0  T
  28    -70.3206845  0.209725E+00  0.254E+00    0.08       1.0  T
  29    -70.3245228 -0.383835E-02  0.253E+00    0.08       1.0  T
  30    -70.4622592 -0.137736E+00  0.181E+00    0.05       1.0  T
  31    -70.5409397 -0.786806E-01  0.142E+00    0.04       1.0  T
  32    -70.5680405 -0.271008E-01  0.118E+00    0.03       1.0  T
  33    -70.5535130  0.145275E-01  0.124E+00    0.04       1.0  T
  34    -70.6001301 -0.466171E-01  0.752E-01    0.03       1.0  T
  35    -70.6077746 -0.764449E-02  0.622E-01    0.03       1.0  T
  36    -70.6111542 -0.337963E-02  0.537E-01    0.02       1.0  T
  37    -70.6092666  0.188761E-02  0.520E-01    0.01       1.0  T
  38    -70.6215732 -0.123065E-01  0.255E-01    0.01       1.0  T
  39    -70.6218730 -0.299837E-03  0.216E-01    0.01       1.0  T
  40    -70.6223551 -0.482132E-03  0.202E-01    0.01       1.0  T
  41    -70.6204182  0.193692E-02  0.296E-01    0.01       1.0  T
  42    -70.6243282 -0.391001E-02  0.549E-02    0.02       1.0  T
  43    -70.6236873  0.640901E-03  0.121E-01    0.01       1.0  T
  44    -70.6242914 -0.604052E-03  0.578E-02    0.01       1.0  T
  45    -70.6238074  0.483989E-03  0.111E-01    0.02       1.0  T
  46    -70.6243017 -0.494350E-03  0.478E-02    0.01       1.0  T
  47    -70.6243512 -0.494644E-04  0.342E-02    0.02       1.0  T
  48    -70.6242868  0.643584E-04  0.439E-02    0.02       1.0  T
  49    -70.6243602 -0.734115E-04  0.268E-02    0.02       1.0  T
  50    -70.6243968 -0.365706E-04  0.162E-02    0.02       1.2  T
  51    -70.6244012 -0.439159E-05  0.131E-02    0.02       1.4  T
  52    -70.6244079 -0.666777E-05  0.949E-03    0.02       2.0  T
  53    -70.6244119 -0.400982E-05  0.275E-03    0.02       6.9  T
  54    -70.6244121 -0.186544E-06  0.139E-03    0.02      13.6  T
  55    -70.6244121  0.773493E-08  0.154E-03    0.02      12.3  T
  56    -70.6244122 -0.997167E-07  0.714E-04    0.02      26.5  T
  57    -70.6244122 -0.177211E-07  0.362E-04    0.02      52.3  T

   *** convergence criteria satisfied after 57 iterations ***

         #    Occupation            Energy/Eh            Energy/eV
      -------------------------------------------------------------
         1        2.0000           -0.7848341             -21.3564
       ...           ...                  ...                  ...
        56        2.0000           -0.4789450             -13.0328
        57        1.9999           -0.4702675             -12.7966
        58        1.9957           -0.4667568             -12.7011
        59        1.9273           -0.4640274             -12.6268
        60        1.8730           -0.4634694             -12.6116
        61        1.6301           -0.4623221             -12.5804
        62        1.2740           -0.4614471             -12.5566 (HOMO)
        63        0.9800           -0.4608749             -12.5410 (LUMO)
        64        0.3199           -0.4593370             -12.4992
        65        0.0000           -0.4502386             -12.2516
        66                         -0.4342779             -11.8173
        67                         -0.4190298             -11.4024
       ...                                ...                  ...
       112                          0.6412554              17.4494
      -------------------------------------------------------------
                  HL-Gap            0.0005723 Eh            0.0156 eV
             Fermi-level           -0.4609129 Eh          -12.5421 eV

 SCC (total)                   0 d,  0 h,  0 min,  0.499 sec
 SCC setup                      ...        0 min,  0.000 sec (  0.041%)
 Dispersion                     ...        0 min,  0.001 sec (  0.169%)
 classical contributions        ...        0 min,  0.001 sec (  0.115%)
 integral evaluation            ...        0 min,  0.003 sec (  0.578%)
 iterations                     ...        0 min,  0.483 sec ( 96.783%)
 molecular gradient             ...        0 min,  0.011 sec (  2.128%)
 printout                       ...        0 min,  0.001 sec (  0.180%)

         :::::::::::::::::::::::::::::::::::::::::::::::::::::
         ::                     SUMMARY                     ::
         :::::::::::::::::::::::::::::::::::::::::::::::::::::
         :: total energy             -69.878196848001 Eh    ::
         :: gradient norm              0.608690244690 Eh/a0 ::
         :: HOMO-LUMO gap              0.015572435219 eV    ::
         ::.................................................::
         :: SCC energy               -70.624412182136 Eh    ::
         :: -> isotropic ES            0.133878973988 Eh    ::
         :: -> anisotropic ES          0.002517607265 Eh    ::
         :: -> anisotropic XC          0.025453266339 Eh    ::
         :: -> dispersion             -0.037899370295 Eh    ::
         :: repulsion energy           0.746223532127 Eh    ::
         :: add. restraining           0.000000000000 Eh    ::
         :: total charge               0.000000000003 e     ::
         :::::::::::::::::::::::::::::::::::::::::::::::::::::

           -------------------------------------------------
          |                Property Printout                |
           -------------------------------------------------

    * Orbital Energies and Occupations

         #    Occupation            Energy/Eh            Energy/eV
      -------------------------------------------------------------
         1        2.0000           -0.7848341             -21.3564
       ...           ...                  ...                  ...
        50        2.0000           -0.4938121             -13.4373
        51        2.0000           -0.4911294             -13.3643
        52        2.0000           -0.4859291             -13.2228
        53        2.0000           -0.4835117             -13.1570
        54        2.0000           -0.4811967             -13.0940
        55        2.0000           -0.4800051             -13.0616
        56        2.0000           -0.4789450             -13.0328
        57        1.9999           -0.4702675             -12.7966
        58        1.9957           -0.4667568             -12.7011
        59        1.9273           -0.4640274             -12.6268
        60        1.8730           -0.4634694             -12.6116
        61        1.6301           -0.4623221             -12.5804
        62        1.2740           -0.4614471             -12.5566 (HOMO)
        63        0.9800           -0.4608749             -12.5410 (LUMO)
        64        0.3199           -0.4593370             -12.4992
        65        0.0000           -0.4502386             -12.2516
        66                         -0.4342779             -11.8173
        67                         -0.4190298             -11.4024
        68                         -0.4118767             -11.2077
        69                         -0.3941929             -10.7265
        70                         -0.3845926             -10.4653
        71                         -0.3688457             -10.0368
        72                         -0.3631206              -9.8810
        73                         -0.3521880              -9.5835
       ...                                ...                  ...
       112                          0.6412554              17.4494
      -------------------------------------------------------------
                  HL-Gap            0.0005723 Eh            0.0156 eV
             Fermi-level           -0.4609129 Eh          -12.5421 eV

     #   Z          covCN         q      C6AA      α(0)
     1   8 O        0.856    -0.290    19.594     5.935
     2   6 C        2.690     0.408    20.120     7.341
     3   8 O        0.855    -0.316    20.072     6.007
     4   6 C        1.955    -0.014    31.439     9.055
     5   6 C        1.967     0.027    30.376     8.900
     6   6 C        3.057     0.069    26.404     8.427
     7   6 C        3.008     0.050    26.868     8.503
     8   6 C        3.030     0.136    25.003     8.202
     9   7 N        1.893    -0.169    25.451     7.479
    10   6 C        2.970     0.122    25.320     8.254
    11   6 C        1.970     0.043    29.956     8.839
    12   6 C        3.018     0.046    26.942     8.514
    13   6 C        3.170     0.278    22.007     7.664
    14   8 O        0.854    -0.310    19.962     5.990
    15   7 N        1.860    -0.132    24.636     7.357
    16   6 C        3.211     0.148    24.204     8.007
    17   6 C        1.968    -0.009    31.314     9.037
    18   6 C        1.984     0.065    29.420     8.759
    19   6 C        2.956     0.059    26.675     8.471
    20   6 C        2.701     0.357    20.932     7.488
    21   8 O        0.853    -0.309    19.940     5.987
    22   8 O        0.853    -0.320    20.151     6.018
    23   6 C        1.976    -0.003    31.135     9.011
    24   6 C        3.125     0.036    27.015     8.511
    25   6 C        1.957    -0.026    31.762     9.101
    26   6 C        1.955     0.041    30.031     8.850
    27   6 C        1.954     0.039    30.070     8.855
    28   6 C        1.957    -0.029    31.841     9.113

 Mol. C6AA /au·bohr⁶  :      20173.308388
 Mol. C8AA /au·bohr⁸  :     543860.903852
 Mol. α(0) /au        :        223.675790


Wiberg/Mayer (AO) data.
largest (>0.10) Wiberg bond orders for each atom

 ---------------------------------------------------------------------------
     #   Z sym  total        # sym  WBO       # sym  WBO       # sym  WBO
 ---------------------------------------------------------------------------
     1   8 O    2.146 --     2 C    1.652     3 O    0.240     4 C    0.119
     2   6 C    3.920 --     1 O    1.652     3 O    1.377     4 C    0.847
     3   8 O    1.816 --     2 C    1.377     1 O    0.240
     4   6 C    3.228 --     5 C    1.945     2 C    0.847     1 O    0.119
     5   6 C    3.760 --     4 C    1.945     6 C    1.522
     6   6 C    3.922 --     5 C    1.522     7 C    1.114    10 C    1.023
     7   6 C    3.923 --    28 C    1.267     8 C    1.224     6 C    1.114
     8   6 C    3.945 --     9 N    1.300     7 C    1.224    25 C    1.180
     9   7 N    2.930 --     8 C    1.300    10 C    1.226
    10   6 C    3.946 --    11 C    1.524     9 N    1.226     6 C    1.023
    11   6 C    3.641 --    10 C    1.524    12 C    1.503    14 O    0.117
    12   6 C    3.927 --    11 C    1.503    13 C    1.122    24 C    1.108
    13   6 C    3.929 --    14 O    1.571    15 N    1.134    12 C    1.122
    14   8 O    1.877 --    13 C    1.571    11 C    0.117
    15   7 N    2.982 --    16 C    1.510    13 C    1.134
    16   6 C    3.887 --    15 N    1.510    17 C    1.180    24 C    0.925
    17   6 C    3.605 --    18 C    2.017    16 C    1.180    23 C    0.240
    18   6 C    3.622 --    17 C    2.017    19 C    1.149    22 O    0.135
                            21 O    0.134
    19   6 C    3.770 --    23 C    1.301    20 C    1.157    18 C    1.149
    20   6 C    3.923 --    21 O    1.373    22 O    1.353    19 C    1.157
    21   8 O    1.897 --    20 C    1.373    22 O    0.268    18 C    0.134
    22   8 O    1.860 --    20 C    1.353    21 O    0.268    18 C    0.135
    23   6 C    3.583 --    24 C    1.622    19 C    1.301    17 C    0.240
    24   6 C    3.850 --    23 C    1.622    12 C    1.108    16 C    0.925
    25   6 C    3.338 --    26 C    1.510     8 C    1.180    28 C    0.305
                            27 C    0.213
    26   6 C    3.557 --    27 C    1.668    25 C    1.510    28 C    0.206
    27   6 C    3.544 --    26 C    1.668    28 C    1.476    25 C    0.213
    28   6 C    3.428 --    27 C    1.476     7 C    1.267    25 C    0.305
                            26 C    0.206
 ---------------------------------------------------------------------------

Topologies differ in total number of bonds
Writing topology from bond orders to xtbtopo.mol

molecular dipole:
                 x           y           z       tot (Debye)
 q only:        0.688       0.069       0.622
   full:        0.451      -0.053       0.808       2.356
molecular quadrupole (traceless):
Note: The following floating-point exceptions are signalling: IEEE_UNDERFLOW_FLAG IEEE_DENORMAL
normal termination of xtb
                xx          xy          yy          xz          yz          zz
 q only:       22.408      -3.891      31.440       1.925     -23.678     -53.848
  q+dip:       18.996      -5.450      36.895       3.159     -23.688     -55.891
   full:       20.450     -11.182      38.154       1.793     -24.067     -58.604


           -------------------------------------------------
          | TOTAL ENERGY              -69.878196848001 Eh   |
          | GRADIENT NORM               0.608690244690 Eh/α |
          | HOMO-LUMO GAP               0.015572435219 eV   |
           -------------------------------------------------

------------------------------------------------------------------------
 * finished run on 2026/07/23 at 16:38:49.040     
------------------------------------------------------------------------
 total:
 * wall-time:     0 d,  0 h,  0 min,  0.517 sec
 *  cpu-time:     0 d,  0 h,  0 min,  0.510 sec
 * ratio c/w:     0.987 speedup
 SCF:
 * wall-time:     0 d,  0 h,  0 min,  0.500 sec
 *  cpu-time:     0 d,  0 h,  0 min,  0.495 sec
 * ratio c/w:     0.990 speedup

