      -----------------------------------------------------------      
     |                   =====================                   |     
     |                           x T B                           |     
     |                   =====================                   |     
     |                         S. Grimme                         |     
     |          Mulliken Center for Theoretical Chemistry        |     
     |                    University of Bonn                     |     
      -----------------------------------------------------------      

   * xtb version 6.6.1 (unknown) compiled by 'builduser@buildhost' on 2023-08-07

   xtb is free software: you can redistribute it and/or modify it under
   the terms of the GNU Lesser General Public License as published by
   the Free Software Foundation, either version 3 of the License, or
   (at your option) any later version.
   
   xtb is distributed in the hope that it will be useful,
   but WITHOUT ANY WARRANTY; without even the implied warranty of
   MERCHANTABILITY or FITNESS FOR A PARTICULAR PURPOSE.  See the
   GNU Lesser General Public License for more details.
   
   Cite this work as:
   * C. Bannwarth, E. Caldeweyher, S. Ehlert, A. Hansen, P. Pracht,
     J. Seibert, S. Spicher, S. Grimme, WIREs Comput. Mol. Sci., 2020, 11,
     e01493. DOI: 10.1002/wcms.1493
   
   for GFN2-xTB:
   * C. Bannwarth, S. Ehlert and S. Grimme., J. Chem. Theory Comput., 2019,
     15, 1652-1671. DOI: 10.1021/acs.jctc.8b01176
   for GFN1-xTB:
   * S. Grimme, C. Bannwarth, P. Shushkov, J. Chem. Theory Comput., 2017,
     13, 1989-2009. DOI: 10.1021/acs.jctc.7b00118
   for GFN0-xTB:
   * P. Pracht, E. Caldeweyher, S. Ehlert, S. Grimme, ChemRxiv, 2019, preprint.
     DOI: 10.26434/chemrxiv.8326202.v1
   for GFN-FF:
   * S. Spicher and S. Grimme, Angew. Chem. Int. Ed., 2020, 59, 15665-15673.
     DOI: 10.1002/anie.202004239
   
   for ALPB and GBSA implicit solvation:
   * S. Ehlert, M. Stahn, S. Spicher, S. Grimme, J. Chem. Theory Comput.,
     2021, 17, 4250-4261. DOI: 10.1021/acs.jctc.1c00471
   
   for DFT-D4:
   * E. Caldeweyher, C. Bannwarth and S. Grimme, J. Chem. Phys., 2017,
     147, 034112. DOI: 10.1063/1.4993215
   * E. Caldeweyher, S. Ehlert, A. Hansen, H. Neugebauer, S. Spicher,
     C. Bannwarth and S. Grimme, J. Chem. Phys., 2019, 150, 154122.
     DOI: 10.1063/1.5090222
   * E. Caldeweyher, J.-M. Mewes, S. Ehlert and S. Grimme, Phys. Chem. Chem. Phys.
     2020, 22, 8499-8512. DOI: 10.1039/D0CP00502A
   
   for sTDA-xTB:
   * S. Grimme and C. Bannwarth, J. Chem. Phys., 2016, 145, 054103.
     DOI: 10.1063/1.4959605
   
   in the mass-spec context:
   * V. Asgeirsson, C. Bauer and S. Grimme, Chem. Sci., 2017, 8, 4879.
     DOI: 10.1039/c7sc00601b
   * J. Koopman and S. Grimme, ACS Omega 2019, 4, 12, 15120-15133.
     DOI: 10.1021/acsomega.9b02011
   
   for metadynamics refer to:
   * S. Grimme, J. Chem. Theory Comput., 2019, 155, 2847-2862
     DOI: 10.1021/acs.jctc.9b00143
   
   for SPH calculations refer to:
   * S. Spicher and S. Grimme, J. Chem. Theory Comput., 2021, 17, 1701-1714
     DOI: 10.1021/acs.jctc.0c01306
   
   with help from (in alphabetical order)
   P. Atkinson, C. Bannwarth, F. Bohle, G. Brandenburg, E. Caldeweyher
   M. Checinski, S. Dohm, S. Ehlert, S. Ehrlich, I. Gerasimov, C. Hölzer
   A. Katbashev, J. Koopman, C. Lavigne, S. Lehtola, F. März, M. Müller,
   F. Musil, H. Neugebauer, J. Pisarek, C. Plett, P. Pracht, F. Pultar,
   J. Seibert, P. Shushkov, S. Spicher, M. Stahn, M. Steiner, T. Strunk,
   J. Stückrath, T. Rose, and J. Unsleber
   
 * started run on 2026/07/23 at 16:42:06.421     

           -------------------------------------------------
          |                Calculation Setup                |
           -------------------------------------------------

          program call               : xtb /home/selva/covalent_quantum_benchmark/data/quantum/erbB_xyz/ERBB2__CHEMBL360028__state01.xyz --gfn2 --chrg 0 --uhf 0 --iterations 300
          coordinate file            : /home/selva/covalent_quantum_benchmark/data/quantum/erbB_xyz/ERBB2__CHEMBL360028__state01.xyz
          omp threads                :                    24

   ID    Z sym.   atoms
    1    6 C      1, 2, 4-6, 8-10, 12, 14-17, 19-23, 25, 26, 28, 30-33, 35,
                  37-39, 41, 42
    2    8 O      3, 18, 36
    3    7 N      7, 11, 13, 34, 40
    4    9 F      24, 27
    5   17 Cl     29

           -------------------------------------------------
          |                 G F N 2 - x T B                 |
           -------------------------------------------------

        Reference                      10.1021/acs.jctc.8b01176
      * Hamiltonian:
        H0-scaling (s, p, d)           1.850000    2.230000    2.230000
        zeta-weighting                 0.500000
      * Dispersion:
        s8                             2.700000
        a1                             0.520000
        a2                             5.000000
        s9                             5.000000
      * Repulsion:
        kExp                           1.500000    1.000000
        rExp                           1.000000
      * Coulomb:
        alpha                          2.000000
        third order                    shell-resolved
        anisotropic                    true
        a3                             3.000000
        a5                             4.000000
        cn-shift                       1.200000
        cn-exp                         4.000000
        max-rad                        5.000000


          ...................................................
          :                      SETUP                      :
          :.................................................:
          :  # basis functions                 174          :
          :  # atomic orbitals                 173          :
          :  # shells                           85          :
          :  # electrons                       188          :
          :  max. iterations                   300          :
          :  Hamiltonian                  GFN2-xTB          :
          :  restarted?                      false          :
          :  GBSA solvation                  false          :
          :  PC potential                    false          :
          :  electronic temp.          300.0000000     K    :
          :  accuracy                    1.0000000          :
          :  -> integral cutoff          0.2500000E+02      :
          :  -> integral neglect         0.1000000E-07      :
          :  -> SCF convergence          0.1000000E-05 Eh   :
          :  -> wf. convergence          0.1000000E-03 e    :
          :  Broyden damping             0.4000000          :
          ...................................................

 iter      E             dE          RMSdq      gap      omega  full diag
   1   -104.9134543 -0.104913E+03  0.905E+00    0.15       0.0  T
   2    -89.6032902  0.153102E+02  0.123E+01    0.06       1.0  T
   3    -91.5862988 -0.198301E+01  0.960E+00    0.05       1.0  T
   4    -92.3099775 -0.723679E+00  0.964E+00    0.29       1.0  T
   5   -101.4939188 -0.918394E+01  0.701E+00    0.05       1.0  T
   6    -95.2635332  0.623039E+01  0.883E+00    0.03       1.0  T
   7   -104.8584070 -0.959487E+01  0.476E+00    0.17       1.0  T
   8   -104.0313079  0.827099E+00  0.477E+00    0.05       1.0  T
   9   -105.3035629 -0.127226E+01  0.398E+00    0.12       1.0  T
  10   -105.3927160 -0.891531E-01  0.371E+00    0.11       1.0  T
  11   -105.2537087  0.139007E+00  0.365E+00    0.10       1.0  T
  12   -105.6296794 -0.375971E+00  0.325E+00    0.07       1.0  T
  13   -106.2040185 -0.574339E+00  0.254E+00    0.07       1.0  T
  14   -106.2035188  0.499694E-03  0.234E+00    0.03       1.0  T
  15   -105.7595723  0.443946E+00  0.296E+00    0.01       1.0  T
  16   -105.8846724 -0.125100E+00  0.264E+00    0.02       1.0  T
  17   -106.0910419 -0.206369E+00  0.224E+00    0.02       1.0  T
  18   -105.7451253  0.345917E+00  0.272E+00    0.05       1.0  T
  19   -105.6733317  0.717936E-01  0.259E+00    0.00       1.0  T
  20   -106.1578436 -0.484512E+00  0.191E+00    0.06       1.0  T
  21   -104.5343520  0.162349E+01  0.402E+00    0.03       1.0  T
  22   -104.8581385 -0.323787E+00  0.373E+00    0.03       1.0  T
  23   -104.9814467 -0.123308E+00  0.360E+00    0.02       1.0  T
  24   -104.8464536  0.134993E+00  0.371E+00    0.03       1.0  T
  25   -105.0489326 -0.202479E+00  0.345E+00    0.02       1.0  T
  26   -105.3854424 -0.336510E+00  0.306E+00    0.01       1.0  T
  27   -105.3731194  0.123231E-01  0.302E+00    0.02       1.0  T
  28   -105.5451718 -0.172052E+00  0.272E+00    0.01       1.0  T
  29   -106.2261679 -0.680996E+00  0.152E+00    0.04       1.0  T
  30   -106.2508138 -0.246458E-01  0.145E+00    0.05       1.0  T
  31   -106.1917826  0.590311E-01  0.154E+00    0.03       1.0  T
  32   -106.2126916 -0.209090E-01  0.148E+00    0.04       1.0  T
  33   -106.2637944 -0.511028E-01  0.134E+00    0.06       1.0  T
  34   -106.3421390 -0.783447E-01  0.106E+00    0.05       1.0  T
  35   -106.3392622  0.287687E-02  0.923E-01    0.03       1.0  T
  36   -106.3365803  0.268187E-02  0.898E-01    0.02       1.0  T
  37   -106.3343937  0.218660E-02  0.867E-01    0.01       1.0  T
  38   -106.3619496 -0.275559E-01  0.816E-01    0.03       1.0  T
  39   -106.3485093  0.134403E-01  0.673E-01    0.01       1.0  T
  40   -106.3512161 -0.270681E-02  0.665E-01    0.01       1.0  T
  41   -106.3530807 -0.186459E-02  0.613E-01    0.01       1.0  T
  42   -106.3601156 -0.703487E-02  0.544E-01    0.02       1.0  T
  43   -106.3651770 -0.506143E-02  0.498E-01    0.02       1.0  T
  44   -106.3595352  0.564179E-02  0.495E-01    0.01       1.0  T
  45   -106.3690310 -0.949578E-02  0.409E-01    0.02       1.0  T
  46   -106.3761868 -0.715584E-02  0.327E-01    0.02       1.0  T
  47   -106.3755041  0.682765E-03  0.300E-01    0.02       1.0  T
  48   -106.3768180 -0.131395E-02  0.257E-01    0.02       1.0  T
  49   -106.3761434  0.674591E-03  0.247E-01    0.02       1.0  T
  50   -106.3784540 -0.231057E-02  0.180E-01    0.03       1.0  T
  51   -106.3778347  0.619248E-03  0.172E-01    0.03       1.0  T
  52   -106.3787865 -0.951794E-03  0.129E-01    0.03       1.0  T
  53   -106.3786960  0.905904E-04  0.123E-01    0.03       1.0  T
  54   -106.3787848 -0.888348E-04  0.107E-01    0.03       1.0  T
  55   -106.3789095 -0.124725E-03  0.953E-02    0.03       1.0  T
  56   -106.3787959  0.113609E-03  0.896E-02    0.02       1.0  T
  57   -106.3790858 -0.289889E-03  0.690E-02    0.03       1.0  T
  58   -106.3793980 -0.312169E-03  0.375E-02    0.03       1.0  T
  59   -106.3794559 -0.579126E-04  0.275E-02    0.03       1.0  T
  60   -106.3795251 -0.692477E-04  0.660E-03    0.03       2.3  T
  61   -106.3795285 -0.336137E-05  0.340E-03    0.03       4.5  T
  62   -106.3795289 -0.406144E-06  0.213E-03    0.03       7.2  T
  63   -106.3795290 -0.131635E-06  0.147E-03    0.03      10.5  T
  64   -106.3795290  0.442515E-07  0.134E-03    0.03      11.5  T
  65   -106.3795291 -0.110006E-06  0.891E-04    0.03      17.3  T
  66   -106.3795291 -0.491930E-07  0.485E-04    0.03      31.8  T

   *** convergence criteria satisfied after 66 iterations ***

         #    Occupation            Energy/Eh            Energy/eV
      -------------------------------------------------------------
         1        2.0000           -1.0995604             -29.9206
       ...           ...                  ...                  ...
        88        2.0000           -0.4373029             -11.8996
        89        1.9999           -0.4361149             -11.8673
        90        1.9972           -0.4328568             -11.7786
        91        1.9881           -0.4314795             -11.7412
        92        1.8537           -0.4290277             -11.6744
        93        1.6622           -0.4281295             -11.6500
        94        1.3786           -0.4273726             -11.6294 (HOMO)
        95        0.8978           -0.4264207             -11.6035 (LUMO)
        96        0.1590           -0.4242886             -11.5455
        97        0.0632           -0.4233645             -11.5203
        98        0.0004           -0.4185233             -11.3886
        99        0.0000           -0.4120238             -11.2117
       ...           ...                  ...                  ...
       173                          1.0441293              28.4122
      -------------------------------------------------------------
                  HL-Gap            0.0009520 Eh            0.0259 eV
             Fermi-level           -0.4266156 Eh          -11.6088 eV

 SCC (total)                   0 d,  0 h,  0 min,  1.593 sec
 SCC setup                      ...        0 min,  0.000 sec (  0.030%)
 Dispersion                     ...        0 min,  0.002 sec (  0.097%)
 classical contributions        ...        0 min,  0.001 sec (  0.039%)
 integral evaluation            ...        0 min,  0.008 sec (  0.533%)
 iterations                     ...        0 min,  1.543 sec ( 96.840%)
 molecular gradient             ...        0 min,  0.035 sec (  2.213%)
 printout                       ...        0 min,  0.004 sec (  0.246%)

         :::::::::::::::::::::::::::::::::::::::::::::::::::::
         ::                     SUMMARY                     ::
         :::::::::::::::::::::::::::::::::::::::::::::::::::::
         :: total energy            -105.256076179181 Eh    ::
         :: gradient norm              0.541920716274 Eh/a0 ::
         :: HOMO-LUMO gap              0.025904170814 eV    ::
         ::.................................................::
         :: SCC energy              -106.379529134196 Eh    ::
         :: -> isotropic ES            0.042437710686 Eh    ::
         :: -> anisotropic ES          0.008127051914 Eh    ::
         :: -> anisotropic XC          0.047089457987 Eh    ::
         :: -> dispersion             -0.063590970536 Eh    ::
         :: repulsion energy           1.123046382734 Eh    ::
         :: add. restraining           0.000000000000 Eh    ::
         :: total charge               0.000000000001 e     ::
         :::::::::::::::::::::::::::::::::::::::::::::::::::::

           -------------------------------------------------
          |                Property Printout                |
           -------------------------------------------------

    * Orbital Energies and Occupations

         #    Occupation            Energy/Eh            Energy/eV
      -------------------------------------------------------------
         1        2.0000           -1.0995604             -29.9206
       ...           ...                  ...                  ...
        82        2.0000           -0.4539248             -12.3519
        83        2.0000           -0.4513905             -12.2830
        84        2.0000           -0.4493599             -12.2277
        85        2.0000           -0.4472673             -12.1708
        86        2.0000           -0.4434611             -12.0672
        87        2.0000           -0.4415156             -12.0143
        88        2.0000           -0.4373029             -11.8996
        89        1.9999           -0.4361149             -11.8673
        90        1.9972           -0.4328568             -11.7786
        91        1.9881           -0.4314795             -11.7412
        92        1.8537           -0.4290277             -11.6744
        93        1.6622           -0.4281295             -11.6500
        94        1.3786           -0.4273726             -11.6294 (HOMO)
        95        0.8978           -0.4264207             -11.6035 (LUMO)
        96        0.1590           -0.4242886             -11.5455
        97        0.0632           -0.4233645             -11.5203
        98        0.0004           -0.4185233             -11.3886
        99        0.0000           -0.4120238             -11.2117
       100                         -0.4026685             -10.9572
       101                         -0.3947383             -10.7414
       102                         -0.3915017             -10.6533
       103                         -0.3740310             -10.1779
       104                         -0.3667690              -9.9803
       105                         -0.3665743              -9.9750
       ...                                ...                  ...
       173                          1.0441293              28.4122
      -------------------------------------------------------------
                  HL-Gap            0.0009520 Eh            0.0259 eV
             Fermi-level           -0.4266156 Eh          -11.6088 eV

     #   Z          covCN         q      C6AA      α(0)
     1   6 C        0.976    -0.092    38.785    10.458
     2   6 C        1.847     0.086    29.002     8.700
     3   8 O        1.704    -0.106    15.920     5.387
     4   6 C        2.862     0.163    24.484     8.111
     5   6 C        1.990    -0.065    32.798     9.249
     6   6 C        2.915     0.117    25.427     8.269
     7   7 N        1.831    -0.120    24.381     7.317
     8   6 C        1.933     0.093    28.770     8.662
     9   6 C        2.952     0.028    27.385     8.583
    10   6 C        1.907     0.126    28.006     8.547
    11   7 N        0.911    -0.170    24.677     7.185
    12   6 C        2.899     0.136    25.040     8.205
    13   7 N        1.836    -0.110    24.167     7.285
    14   6 C        2.912     0.127    25.213     8.234
    15   6 C        1.991    -0.034    31.964     9.130
    16   6 C        1.985    -0.037    32.028     9.139
    17   6 C        2.900     0.156    24.614     8.135
    18   8 O        1.702    -0.138    16.384     5.465
    19   6 C        1.863     0.089    28.900     8.683
    20   6 C        2.961     0.040    27.092     8.537
    21   6 C        1.991    -0.031    31.867     9.116
    22   6 C        1.986    -0.017    31.491     9.062
    23   6 C        2.777     0.208    23.586     7.954
    24   9 F        0.787    -0.156    10.790     3.880
    25   6 C        1.987    -0.083    33.325     9.323
    26   6 C        2.780     0.187    23.995     8.023
    27   9 F        0.787    -0.162    10.853     3.891
    28   6 C        2.877     0.089    26.014     8.361
    29  17 Cl       0.960    -0.080   101.645    15.424
    30   6 C        2.034    -0.076    33.062     9.287
    31   6 C        2.963     0.016    27.662     8.627
    32   6 C        1.995    -0.064    32.789     9.247
    33   6 C        2.927     0.126    25.229     8.237
    34   7 N        1.831    -0.177    25.639     7.503
    35   6 C        2.787     0.298    21.949     7.674
    36   8 O        0.858    -0.419    22.071     6.299
    37   6 C        1.968     0.008    30.869     8.972
    38   6 C        1.968     0.018    30.595     8.932
    39   6 C        1.913    -0.014    31.474     9.060
    40   7 N        2.721     0.181    18.221     6.340
    41   6 C        0.941    -0.060    37.504    10.265
    42   6 C        0.935    -0.083    38.203    10.357

 Mol. C6AA /au·bohr⁶  :      48610.220583
 Mol. C8AA /au·bohr⁸  :    1348248.786509
 Mol. α(0) /au        :        349.118111


Wiberg/Mayer (AO) data.
largest (>0.10) Wiberg bond orders for each atom

 ---------------------------------------------------------------------------
     #   Z sym  total        # sym  WBO       # sym  WBO       # sym  WBO
 ---------------------------------------------------------------------------
     1   6 C    2.242 --     2 C    2.026
     2   6 C    3.337 --     1 C    2.026     3 O    1.140
     3   8 O    2.415 --     2 C    1.140     4 C    1.077
     4   6 C    3.900 --     5 C    1.450    33 C    1.127     3 O    1.077
     5   6 C    3.644 --     4 C    1.450     6 C    1.392    32 C    0.450
     6   6 C    3.890 --     5 C    1.392     7 N    1.170    31 C    1.106
     7   7 N    3.167 --     8 C    1.669     6 C    1.170
     8   6 C    3.742 --     7 N    1.669     9 C    1.577    13 N    0.113
     9   6 C    3.864 --     8 C    1.577    10 C    1.099    12 C    0.990
    10   6 C    3.946 --    11 N    2.794     9 C    1.099
    11   7 N    2.979 --    10 C    2.794
    12   6 C    3.941 --    13 N    1.657    31 C    1.032     9 C    0.990
    13   7 N    3.227 --    12 C    1.657    14 C    1.106     8 C    0.113
    14   6 C    3.919 --    30 C    1.328    15 C    1.283    13 N    1.106
    15   6 C    3.726 --    16 C    1.712    14 C    1.283    30 C    0.236
Note: The following floating-point exceptions are signalling: IEEE_UNDERFLOW_FLAG IEEE_DENORMAL
normal termination of xtb
                            28 C    0.101
    16   6 C    3.465 --    15 C    1.712    17 C    1.358    30 C    0.189
    17   6 C    3.859 --    16 C    1.358    28 C    1.246    18 O    0.963
    18   8 O    2.378 --    19 C    1.162    17 C    0.963
    19   6 C    2.951 --    18 O    1.162    20 C    1.022    21 C    0.162
                            25 C    0.158    22 C    0.102
    20   6 C    3.880 --    21 C    1.366    26 C    1.219    19 C    1.022
    21   6 C    3.853 --    22 C    1.830    20 C    1.366    25 C    0.331
                            19 C    0.162
    22   6 C    3.621 --    21 C    1.830    23 C    1.323    26 C    0.105
                            19 C    0.102
    23   6 C    3.872 --    25 C    1.394    22 C    1.323    24 F    0.999
    24   9 F    1.152 --    23 C    0.999
    25   6 C    3.609 --    26 C    1.459    23 C    1.394    21 C    0.331
                            19 C    0.158
    26   6 C    3.860 --    25 C    1.459    20 C    1.219    27 F    1.000
                            22 C    0.105
    27   9 F    1.158 --    26 C    1.000
    28   6 C    3.894 --    30 C    1.443    17 C    1.246    29 Cl   1.003
                            15 C    0.101
    29  17 Cl   1.185 --    28 C    1.003
    30   6 C    3.481 --    28 C    1.443    14 C    1.328    15 C    0.236
                            16 C    0.189
    31   6 C    3.923 --    32 C    1.520     6 C    1.106    12 C    1.032
    32   6 C    3.723 --    31 C    1.520    33 C    1.352     5 C    0.450
    33   6 C    3.907 --    32 C    1.352    34 N    1.203     4 C    1.127
    34   7 N    3.112 --    35 C    1.419    33 C    1.203    36 O    0.165
    35   6 C    3.930 --    34 N    1.419    36 O    1.397    37 C    1.013
    36   8 O    1.798 --    35 C    1.397    34 N    0.165
    37   6 C    3.801 --    38 C    2.337    35 C    1.013    42 C    0.161
                            39 C    0.123
    38   6 C    3.824 --    37 C    2.337    39 C    1.266
    39   6 C    3.180 --    38 C    1.266    40 N    1.081    42 C    0.466
                            41 C    0.151    37 C    0.123
    40   7 N    3.686 --    42 C    1.280    41 C    1.272    39 C    1.081
    41   6 C    2.098 --    40 N    1.272    42 C    0.560    39 C    0.151
    42   6 C    2.506 --    40 N    1.280    41 C    0.560    39 C    0.466
                            37 C    0.161
 ---------------------------------------------------------------------------

Topologies differ in total number of bonds
Writing topology from bond orders to xtbtopo.mol

molecular dipole:
                 x           y           z       tot (Debye)
 q only:        0.144       1.084      -0.422
   full:       -0.026       0.917      -0.381       2.526
molecular quadrupole (traceless):
                xx          xy          yy          xz          yz          zz
 q only:      -23.315      -6.166      10.544       0.241      -0.063      12.771
  q+dip:      -15.220     -11.630       2.336      -7.283       0.255      12.884
   full:      -17.109     -12.560      -0.834      -8.238       1.961      17.943


           -------------------------------------------------
          | TOTAL ENERGY             -105.256076179181 Eh   |
          | GRADIENT NORM               0.541920716274 Eh/α |
          | HOMO-LUMO GAP               0.025904170814 eV   |
           -------------------------------------------------

------------------------------------------------------------------------
 * finished run on 2026/07/23 at 16:42:08.051     
------------------------------------------------------------------------
 total:
 * wall-time:     0 d,  0 h,  0 min,  1.630 sec
 *  cpu-time:     0 d,  0 h,  0 min,  1.586 sec
 * ratio c/w:     0.973 speedup
 SCF:
 * wall-time:     0 d,  0 h,  0 min,  1.594 sec
 *  cpu-time:     0 d,  0 h,  0 min,  1.554 sec
 * ratio c/w:     0.975 speedup

