      -----------------------------------------------------------      
     |                   =====================                   |     
     |                           x T B                           |     
     |                   =====================                   |     
     |                         S. Grimme                         |     
     |          Mulliken Center for Theoretical Chemistry        |     
     |                    University of Bonn                     |     
      -----------------------------------------------------------      

   * xtb version 6.6.1 (unknown) compiled by 'builduser@buildhost' on 2023-08-07

   xtb is free software: you can redistribute it and/or modify it under
   the terms of the GNU Lesser General Public License as published by
   the Free Software Foundation, either version 3 of the License, or
   (at your option) any later version.
   
   xtb is distributed in the hope that it will be useful,
   but WITHOUT ANY WARRANTY; without even the implied warranty of
   MERCHANTABILITY or FITNESS FOR A PARTICULAR PURPOSE.  See the
   GNU Lesser General Public License for more details.
   
   Cite this work as:
   * C. Bannwarth, E. Caldeweyher, S. Ehlert, A. Hansen, P. Pracht,
     J. Seibert, S. Spicher, S. Grimme, WIREs Comput. Mol. Sci., 2020, 11,
     e01493. DOI: 10.1002/wcms.1493
   
   for GFN2-xTB:
   * C. Bannwarth, S. Ehlert and S. Grimme., J. Chem. Theory Comput., 2019,
     15, 1652-1671. DOI: 10.1021/acs.jctc.8b01176
   for GFN1-xTB:
   * S. Grimme, C. Bannwarth, P. Shushkov, J. Chem. Theory Comput., 2017,
     13, 1989-2009. DOI: 10.1021/acs.jctc.7b00118
   for GFN0-xTB:
   * P. Pracht, E. Caldeweyher, S. Ehlert, S. Grimme, ChemRxiv, 2019, preprint.
     DOI: 10.26434/chemrxiv.8326202.v1
   for GFN-FF:
   * S. Spicher and S. Grimme, Angew. Chem. Int. Ed., 2020, 59, 15665-15673.
     DOI: 10.1002/anie.202004239
   
   for ALPB and GBSA implicit solvation:
   * S. Ehlert, M. Stahn, S. Spicher, S. Grimme, J. Chem. Theory Comput.,
     2021, 17, 4250-4261. DOI: 10.1021/acs.jctc.1c00471
   
   for DFT-D4:
   * E. Caldeweyher, C. Bannwarth and S. Grimme, J. Chem. Phys., 2017,
     147, 034112. DOI: 10.1063/1.4993215
   * E. Caldeweyher, S. Ehlert, A. Hansen, H. Neugebauer, S. Spicher,
     C. Bannwarth and S. Grimme, J. Chem. Phys., 2019, 150, 154122.
     DOI: 10.1063/1.5090222
   * E. Caldeweyher, J.-M. Mewes, S. Ehlert and S. Grimme, Phys. Chem. Chem. Phys.
     2020, 22, 8499-8512. DOI: 10.1039/D0CP00502A
   
   for sTDA-xTB:
   * S. Grimme and C. Bannwarth, J. Chem. Phys., 2016, 145, 054103.
     DOI: 10.1063/1.4959605
   
   in the mass-spec context:
   * V. Asgeirsson, C. Bauer and S. Grimme, Chem. Sci., 2017, 8, 4879.
     DOI: 10.1039/c7sc00601b
   * J. Koopman and S. Grimme, ACS Omega 2019, 4, 12, 15120-15133.
     DOI: 10.1021/acsomega.9b02011
   
   for metadynamics refer to:
   * S. Grimme, J. Chem. Theory Comput., 2019, 155, 2847-2862
     DOI: 10.1021/acs.jctc.9b00143
   
   for SPH calculations refer to:
   * S. Spicher and S. Grimme, J. Chem. Theory Comput., 2021, 17, 1701-1714
     DOI: 10.1021/acs.jctc.0c01306
   
   with help from (in alphabetical order)
   P. Atkinson, C. Bannwarth, F. Bohle, G. Brandenburg, E. Caldeweyher
   M. Checinski, S. Dohm, S. Ehlert, S. Ehrlich, I. Gerasimov, C. Hölzer
   A. Katbashev, J. Koopman, C. Lavigne, S. Lehtola, F. März, M. Müller,
   F. Musil, H. Neugebauer, J. Pisarek, C. Plett, P. Pracht, F. Pultar,
   J. Seibert, P. Shushkov, S. Spicher, M. Stahn, M. Steiner, T. Strunk,
   J. Stückrath, T. Rose, and J. Unsleber
   
 * started run on 2026/07/23 at 16:39:31.210     

           -------------------------------------------------
          |                Calculation Setup                |
           -------------------------------------------------

          program call               : xtb /home/selva/covalent_quantum_benchmark/data/quantum/erbB_xyz/EGFR__CHEMBL93784__state03.xyz --gfn2 --chrg 0 --uhf 0 --iterations 300
          coordinate file            : /home/selva/covalent_quantum_benchmark/data/quantum/erbB_xyz/EGFR__CHEMBL93784__state03.xyz
          omp threads                :                    24

   ID    Z sym.   atoms
    1    6 C      1, 3-7, 9-12, 15-18, 20, 22, 24-28, 30-32
    2    8 O      2, 13
    3    7 N      8, 14, 19, 21, 23
    4   35 Br     29

           -------------------------------------------------
          |                 G F N 2 - x T B                 |
           -------------------------------------------------

        Reference                      10.1021/acs.jctc.8b01176
      * Hamiltonian:
        H0-scaling (s, p, d)           1.850000    2.230000    2.230000
        zeta-weighting                 0.500000
      * Dispersion:
        s8                             2.700000
        a1                             0.520000
        a2                             5.000000
        s9                             5.000000
      * Repulsion:
        kExp                           1.500000    1.000000
        rExp                           1.000000
      * Coulomb:
        alpha                          2.000000
        third order                    shell-resolved
        anisotropic                    true
        a3                             3.000000
        a5                             4.000000
        cn-shift                       1.200000
        cn-exp                         4.000000
        max-rad                        5.000000


          ...................................................
          :                      SETUP                      :
          :.................................................:
          :  # basis functions                 134          :
          :  # atomic orbitals                 133          :
          :  # shells                           65          :
          :  # electrons                       140          :
          :  max. iterations                   300          :
          :  Hamiltonian                  GFN2-xTB          :
          :  restarted?                      false          :
          :  GBSA solvation                  false          :
          :  PC potential                    false          :
          :  electronic temp.          300.0000000     K    :
          :  accuracy                    1.0000000          :
          :  -> integral cutoff          0.2500000E+02      :
          :  -> integral neglect         0.1000000E-07      :
          :  -> SCF convergence          0.1000000E-05 Eh   :
          :  -> wf. convergence          0.1000000E-03 e    :
          :  Broyden damping             0.4000000          :
          ...................................................

 iter      E             dE          RMSdq      gap      omega  full diag
   1    -75.9998251 -0.759998E+02  0.907E+00    0.21       0.0  T
   2    -52.7580830  0.232417E+02  0.144E+01    0.11       1.0  T
   3    -57.3478386 -0.458976E+01  0.119E+01    0.21       1.0  T
   4    -67.8057564 -0.104579E+02  0.990E+00    0.07       1.0  T
   5    -76.3278555 -0.852210E+01  0.562E+00    0.07       1.0  T
   6    -75.3857635  0.942092E+00  0.585E+00    0.05       1.0  T
   7    -76.0771699 -0.691406E+00  0.422E+00    0.02       1.0  T
   8    -75.6137730  0.463397E+00  0.428E+00    0.21       1.0  T
   9    -76.5312125 -0.917439E+00  0.373E+00    0.09       1.0  T
  10    -77.2399985 -0.708786E+00  0.267E+00    0.08       1.0  T
  11    -76.6333963  0.606602E+00  0.359E+00    0.22       1.0  T
  12    -76.5674508  0.659455E-01  0.354E+00    0.12       1.0  T
  13    -76.6548307 -0.873799E-01  0.342E+00    0.15       1.0  T
  14    -77.0336703 -0.378840E+00  0.260E+00    0.06       1.0  T
  15    -76.2864755  0.747195E+00  0.450E+00    0.06       1.0  T
  16    -76.7753369 -0.488861E+00  0.365E+00    0.04       1.0  T
  17    -75.8485049  0.926832E+00  0.504E+00    0.09       1.0  T
  18    -76.0697618 -0.221257E+00  0.472E+00    0.10       1.0  T
  19    -76.6109579 -0.541196E+00  0.385E+00    0.08       1.0  T
  20    -77.2039714 -0.593014E+00  0.247E+00    0.02       1.0  T
  21    -77.1678575  0.361139E-01  0.256E+00    0.03       1.0  T
  22    -77.1345328  0.333248E-01  0.244E+00    0.02       1.0  T
  23    -77.1735435 -0.390107E-01  0.239E+00    0.01       1.0  T
  24    -77.1881019 -0.145585E-01  0.231E+00    0.01       1.0  T
  25    -77.2437647 -0.556627E-01  0.187E+00    0.02       1.0  T
  26    -77.4298303 -0.186066E+00  0.106E+00    0.02       1.0  T
  27    -77.4875685 -0.577382E-01  0.642E-01    0.05       1.0  T
  28    -77.4843016  0.326695E-02  0.671E-01    0.05       1.0  T
  29    -77.4910124 -0.671084E-02  0.607E-01    0.06       1.0  T
  30    -77.4842542  0.675824E-02  0.594E-01    0.03       1.0  T
  31    -77.4947318 -0.104776E-01  0.483E-01    0.04       1.0  T
  32    -77.5062702 -0.115384E-01  0.302E-01    0.06       1.0  T
  33    -77.5064200 -0.149789E-03  0.281E-01    0.06       1.0  T
  34    -77.5079280 -0.150797E-02  0.248E-01    0.06       1.0  T
  35    -77.5092961 -0.136817E-02  0.205E-01    0.06       1.0  T
  36    -77.5084721  0.823997E-03  0.203E-01    0.06       1.0  T
  37    -77.5108068 -0.233463E-02  0.121E-01    0.06       1.0  T
  38    -77.5100715  0.735271E-03  0.137E-01    0.06       1.0  T
  39    -77.5106210 -0.549476E-03  0.105E-01    0.06       1.0  T
  40    -77.5109752 -0.354247E-03  0.818E-02    0.06       1.0  T
  41    -77.5112231 -0.247875E-03  0.563E-02    0.06       1.0  T
  42    -77.5112207  0.236337E-05  0.559E-02    0.06       1.0  T
  43    -77.5111919  0.287768E-04  0.574E-02    0.06       1.0  T
  44    -77.5113345 -0.142570E-03  0.308E-02    0.06       1.0  T
  45    -77.5113427 -0.818483E-05  0.259E-02    0.06       1.0  T
  46    -77.5113592 -0.165028E-04  0.194E-02    0.06       1.0  T
  47    -77.5113599 -0.730944E-06  0.153E-02    0.06       1.2  T
  48    -77.5113673 -0.739321E-05  0.104E-02    0.06       1.7  T
  49    -77.5113725 -0.513945E-05  0.596E-03    0.06       3.0  T
  50    -77.5113734 -0.924521E-06  0.323E-03    0.06       5.5  T
  51    -77.5113735 -0.135604E-06  0.290E-03    0.06       6.1  T
  52    -77.5113734  0.945928E-07  0.275E-03    0.06       6.4  T
  53    -77.5113739 -0.484577E-06  0.109E-03    0.06      16.2  T
  54    -77.5113740 -0.581301E-07  0.710E-04    0.06      24.9  T
  55    -77.5113740 -0.130824E-07  0.515E-04    0.06      34.3  T

   *** convergence criteria satisfied after 55 iterations ***

         #    Occupation            Energy/Eh            Energy/eV
      -------------------------------------------------------------
         1        2.0000           -0.8708322             -23.6966
       ...           ...                  ...                  ...
        64        2.0000           -0.4370580             -11.8930
        65        2.0000           -0.4354435             -11.8490
        66        1.9999           -0.4318388             -11.7509
        67        1.9993           -0.4299427             -11.6993
        68        1.9576           -0.4260127             -11.5924
        69        1.8019           -0.4244694             -11.5504
        70        1.5269           -0.4234850             -11.5236 (HOMO)
        71        0.4837           -0.4212864             -11.4638 (LUMO)
        72        0.2222           -0.4203961             -11.4396
        73        0.0084           -0.4171780             -11.3520
        74        0.0000           -0.4070429             -11.0762
        75                         -0.4000720             -10.8865
       ...                                ...                  ...
       133                          1.3161208              35.8135
      -------------------------------------------------------------
                  HL-Gap            0.0021986 Eh            0.0598 eV
             Fermi-level           -0.4223718 Eh          -11.4933 eV

 SCC (total)                   0 d,  0 h,  0 min,  0.452 sec
 SCC setup                      ...        0 min,  0.000 sec (  0.054%)
 Dispersion                     ...        0 min,  0.001 sec (  0.206%)
 classical contributions        ...        0 min,  0.004 sec (  0.900%)
 integral evaluation            ...        0 min,  0.003 sec (  0.731%)
 iterations                     ...        0 min,  0.424 sec ( 93.727%)
 molecular gradient             ...        0 min,  0.018 sec (  4.066%)
 printout                       ...        0 min,  0.001 sec (  0.310%)

         :::::::::::::::::::::::::::::::::::::::::::::::::::::
         ::                     SUMMARY                     ::
         :::::::::::::::::::::::::::::::::::::::::::::::::::::
         :: total energy             -76.636899976029 Eh    ::
         :: gradient norm              0.512509680887 Eh/a0 ::
         :: HOMO-LUMO gap              0.059827849030 eV    ::
         ::.................................................::
         :: SCC energy               -77.511373989782 Eh    ::
         :: -> isotropic ES            0.030559644459 Eh    ::
         :: -> anisotropic ES          0.009149034027 Eh    ::
         :: -> anisotropic XC          0.038883143527 Eh    ::
         :: -> dispersion             -0.046603739128 Eh    ::
         :: repulsion energy           0.873456520837 Eh    ::
         :: add. restraining           0.000000000000 Eh    ::
         :: total charge               0.000000000004 e     ::
         :::::::::::::::::::::::::::::::::::::::::::::::::::::

           -------------------------------------------------
          |                Property Printout                |
           -------------------------------------------------

    * Orbital Energies and Occupations

         #    Occupation            Energy/Eh            Energy/eV
      -------------------------------------------------------------
         1        2.0000           -0.8708322             -23.6966
       ...           ...                  ...                  ...
        58        2.0000           -0.4601720             -12.5219
        59        2.0000           -0.4502167             -12.2510
        60        2.0000           -0.4484296             -12.2024
        61        2.0000           -0.4469248             -12.1614
        62        2.0000           -0.4397197             -11.9654
        63        2.0000           -0.4392979             -11.9539
        64        2.0000           -0.4370580             -11.8930
        65        2.0000           -0.4354435             -11.8490
        66        1.9999           -0.4318388             -11.7509
        67        1.9993           -0.4299427             -11.6993
        68        1.9576           -0.4260127             -11.5924
        69        1.8019           -0.4244694             -11.5504
        70        1.5269           -0.4234850             -11.5236 (HOMO)
        71        0.4837           -0.4212864             -11.4638 (LUMO)
        72        0.2222           -0.4203961             -11.4396
        73        0.0084           -0.4171780             -11.3520
        74        0.0000           -0.4070429             -11.0762
        75                         -0.4000720             -10.8865
        76                         -0.3961277             -10.7792
        77                         -0.3853209             -10.4851
        78                         -0.3659494              -9.9580
        79                         -0.3632602              -9.8848
        80                         -0.3562659              -9.6945
        81                         -0.3264640              -8.8835
       ...                                ...                  ...
       133                          1.3161208              35.8135
      -------------------------------------------------------------
                  HL-Gap            0.0021986 Eh            0.0598 eV
             Fermi-level           -0.4223718 Eh          -11.4933 eV

     #   Z          covCN         q      C6AA      α(0)
     1   6 C        0.878    -0.017    35.735     9.987
     2   8 O        1.697    -0.015    14.673     5.172
     3   6 C        1.854     0.016    30.727     8.954
     4   6 C        2.909     0.083    26.152     8.386
     5   6 C        1.984    -0.009    31.290     9.034
     6   6 C        1.974    -0.025    31.739     9.098
     7   6 C        1.940    -0.008    31.309     9.036
     8   7 N        2.754     0.028    20.749     6.765
     9   6 C        1.904    -0.029    31.877     9.118
    10   6 C        1.965     0.030    30.289     8.888
    11   6 C        1.969     0.024    30.450     8.911
    12   6 C        2.783     0.299    21.921     7.669
    13   8 O        0.857    -0.369    21.072     6.155
    14   7 N        1.836    -0.131    24.625     7.354
    15   6 C        2.932     0.133    25.097     8.216
    16   6 C        1.992    -0.032    31.887     9.119
    17   6 C        1.989    -0.021    31.597     9.078
    18   6 C        2.924     0.132    25.111     8.218
    19   7 N        1.831    -0.165    25.367     7.464
    20   6 C        1.908     0.174    26.937     8.382
    21   7 N        1.831    -0.186    25.853     7.535
    22   6 C        2.907     0.199    23.768     7.994
    23   7 N        1.839    -0.154    25.120     7.428
    24   6 C        2.933     0.132    25.111     8.218
    25   6 C        1.991     0.010    30.800     8.963
    26   6 C        1.986    -0.017    31.514     9.066
    27   6 C        2.060     0.013    30.635     8.940
    28   6 C        2.906     0.114    25.479     8.277
    29  35 Br       1.068    -0.061   186.677    22.030
    30   6 C        2.069    -0.083    33.206     9.308
    31   6 C        2.977     0.001    27.991     8.678
    32   6 C        1.990    -0.067    32.878     9.260

 Mol. C6AA /au·bohr⁶  :      31053.500323
 Mol. C8AA /au·bohr⁸  :     919167.061122
 Mol. α(0) /au        :        280.698280


Wiberg/Mayer (AO) data.
largest (>0.10) Wiberg bond orders for each atom

 ---------------------------------------------------------------------------
     #   Z sym  total        # sym  WBO       # sym  WBO       # sym  WBO
 ---------------------------------------------------------------------------
     1   6 C    2.066 --     2 O    1.508     3 C    0.280     4 C    0.112
     2   8 O    2.702 --     1 C    1.508     3 C    1.116
     3   6 C    3.042 --     4 C    1.349     2 O    1.116     1 C    0.280
                             7 C    0.104
     4   6 C    3.763 --     3 C    1.349     5 C    1.138     8 N    1.013
                             1 C    0.112
     5   6 C    3.513 --     6 C    1.644     4 C    1.138     7 C    0.422
     6   6 C    3.254 --     5 C    1.644     7 C    1.273     9 C    0.143
     7   6 C    3.093 --     6 C    1.273     8 N    1.095     5 C    0.422
                             9 C    0.106     3 C    0.104
     8   7 N    3.556 --     9 C    1.223     7 C    1.095     4 C    1.013
     9   6 C    3.101 --    10 C    1.227     8 N    1.223     6 C    0.143
                            11 C    0.112     7 C    0.106
    10   6 C    3.954 --    11 C    2.547     9 C    1.227
    11   6 C    3.824 --    10 C    2.547    12 C    1.005     9 C    0.112
    12   6 C    3.942 --    14 N    1.439    13 O    1.427    11 C    1.005
    13   8 O    1.894 --    12 C    1.427    14 N    0.242
    14   7 N    3.122 --    12 C    1.439    15 C    1.193    13 O    0.242
    15   6 C    3.911 --    32 C    1.289    16 C    1.235    14 N    1.193
    16   6 C    3.714 --    17 C    1.764    15 C    1.235    32 C    0.220
                            20 C    0.113
    17   6 C    3.484 --    16 C    1.764    18 C    1.291    32 C    0.177
    18   6 C    3.888 --    17 C    1.291    19 N    1.170    31 C    1.167
    19   7 N    3.110 --    20 C    1.578    18 C    1.170
    20   6 C    3.839 --    21 N    1.733    19 N    1.578    23 N    0.134
                            16 C    0.113
    21   7 N    3.171 --    20 C    1.733    22 C    1.088
    22   6 C    3.951 --    23 N    1.595    21 N    1.088    31 C    1.055
    23   7 N    3.236 --    22 C    1.595    24 C    1.088    20 C    0.134
    24   6 C    3.953 --    30 C    1.357    25 C    1.321    23 N    1.088
                            27 C    0.101
    25   6 C    3.744 --    26 C    1.623    24 C    1.321    27 C    0.389
                            30 C    0.157    28 C    0.101
    26   6 C    3.749 --    27 C    1.632    25 C    1.623    30 C    0.389
    27   6 C    3.745 --    26 C    1.632    28 C    1.366    25 C    0.389
                            30 C    0.155    24 C    0.101
Note: The following floating-point exceptions are signalling: IEEE_UNDERFLOW_FLAG IEEE_DENORMAL
normal termination of xtb
    28   6 C    3.928 --    30 C    1.415    27 C    1.366    29 Br   0.995
                            25 C    0.101
    29  35 Br   1.199 --    28 C    0.995
    30   6 C    3.601 --    28 C    1.415    24 C    1.357    26 C    0.389
                            25 C    0.157    27 C    0.155
    31   6 C    3.940 --    32 C    1.446    18 C    1.167    22 C    1.055
    32   6 C    3.442 --    31 C    1.446    15 C    1.289    16 C    0.220
                            17 C    0.177
 ---------------------------------------------------------------------------

Topologies differ in total number of bonds
Writing topology from bond orders to xtbtopo.mol

molecular dipole:
                 x           y           z       tot (Debye)
 q only:       -1.558       0.044       1.215
   full:       -1.344       0.443       1.808       5.835
molecular quadrupole (traceless):
                xx          xy          yy          xz          yz          zz
 q only:      -13.037      -3.031      14.109      14.727      -1.157      -1.072
  q+dip:      -18.803     -10.750      18.681      15.211      -3.049       0.122
   full:      -23.346     -11.379      22.909      16.890      -4.526       0.437


           -------------------------------------------------
          | TOTAL ENERGY              -76.636899976029 Eh   |
          | GRADIENT NORM               0.512509680887 Eh/α |
          | HOMO-LUMO GAP               0.059827849030 eV   |
           -------------------------------------------------

------------------------------------------------------------------------
 * finished run on 2026/07/23 at 16:39:31.676     
------------------------------------------------------------------------
 total:
 * wall-time:     0 d,  0 h,  0 min,  0.466 sec
 *  cpu-time:     0 d,  0 h,  0 min,  0.476 sec
 * ratio c/w:     1.020 speedup
 SCF:
 * wall-time:     0 d,  0 h,  0 min,  0.453 sec
 *  cpu-time:     0 d,  0 h,  0 min,  0.461 sec
 * ratio c/w:     1.018 speedup

