      -----------------------------------------------------------      
     |                   =====================                   |     
     |                           x T B                           |     
     |                   =====================                   |     
     |                         S. Grimme                         |     
     |          Mulliken Center for Theoretical Chemistry        |     
     |                    University of Bonn                     |     
      -----------------------------------------------------------      

   * xtb version 6.6.1 (unknown) compiled by 'builduser@buildhost' on 2023-08-07

   xtb is free software: you can redistribute it and/or modify it under
   the terms of the GNU Lesser General Public License as published by
   the Free Software Foundation, either version 3 of the License, or
   (at your option) any later version.
   
   xtb is distributed in the hope that it will be useful,
   but WITHOUT ANY WARRANTY; without even the implied warranty of
   MERCHANTABILITY or FITNESS FOR A PARTICULAR PURPOSE.  See the
   GNU Lesser General Public License for more details.
   
   Cite this work as:
   * C. Bannwarth, E. Caldeweyher, S. Ehlert, A. Hansen, P. Pracht,
     J. Seibert, S. Spicher, S. Grimme, WIREs Comput. Mol. Sci., 2020, 11,
     e01493. DOI: 10.1002/wcms.1493
   
   for GFN2-xTB:
   * C. Bannwarth, S. Ehlert and S. Grimme., J. Chem. Theory Comput., 2019,
     15, 1652-1671. DOI: 10.1021/acs.jctc.8b01176
   for GFN1-xTB:
   * S. Grimme, C. Bannwarth, P. Shushkov, J. Chem. Theory Comput., 2017,
     13, 1989-2009. DOI: 10.1021/acs.jctc.7b00118
   for GFN0-xTB:
   * P. Pracht, E. Caldeweyher, S. Ehlert, S. Grimme, ChemRxiv, 2019, preprint.
     DOI: 10.26434/chemrxiv.8326202.v1
   for GFN-FF:
   * S. Spicher and S. Grimme, Angew. Chem. Int. Ed., 2020, 59, 15665-15673.
     DOI: 10.1002/anie.202004239
   
   for ALPB and GBSA implicit solvation:
   * S. Ehlert, M. Stahn, S. Spicher, S. Grimme, J. Chem. Theory Comput.,
     2021, 17, 4250-4261. DOI: 10.1021/acs.jctc.1c00471
   
   for DFT-D4:
   * E. Caldeweyher, C. Bannwarth and S. Grimme, J. Chem. Phys., 2017,
     147, 034112. DOI: 10.1063/1.4993215
   * E. Caldeweyher, S. Ehlert, A. Hansen, H. Neugebauer, S. Spicher,
     C. Bannwarth and S. Grimme, J. Chem. Phys., 2019, 150, 154122.
     DOI: 10.1063/1.5090222
   * E. Caldeweyher, J.-M. Mewes, S. Ehlert and S. Grimme, Phys. Chem. Chem. Phys.
     2020, 22, 8499-8512. DOI: 10.1039/D0CP00502A
   
   for sTDA-xTB:
   * S. Grimme and C. Bannwarth, J. Chem. Phys., 2016, 145, 054103.
     DOI: 10.1063/1.4959605
   
   in the mass-spec context:
   * V. Asgeirsson, C. Bauer and S. Grimme, Chem. Sci., 2017, 8, 4879.
     DOI: 10.1039/c7sc00601b
   * J. Koopman and S. Grimme, ACS Omega 2019, 4, 12, 15120-15133.
     DOI: 10.1021/acsomega.9b02011
   
   for metadynamics refer to:
   * S. Grimme, J. Chem. Theory Comput., 2019, 155, 2847-2862
     DOI: 10.1021/acs.jctc.9b00143
   
   for SPH calculations refer to:
   * S. Spicher and S. Grimme, J. Chem. Theory Comput., 2021, 17, 1701-1714
     DOI: 10.1021/acs.jctc.0c01306
   
   with help from (in alphabetical order)
   P. Atkinson, C. Bannwarth, F. Bohle, G. Brandenburg, E. Caldeweyher
   M. Checinski, S. Dohm, S. Ehlert, S. Ehrlich, I. Gerasimov, C. Hölzer
   A. Katbashev, J. Koopman, C. Lavigne, S. Lehtola, F. März, M. Müller,
   F. Musil, H. Neugebauer, J. Pisarek, C. Plett, P. Pracht, F. Pultar,
   J. Seibert, P. Shushkov, S. Spicher, M. Stahn, M. Steiner, T. Strunk,
   J. Stückrath, T. Rose, and J. Unsleber
   
 * started run on 2026/07/23 at 16:38:29.344     

           -------------------------------------------------
          |                Calculation Setup                |
           -------------------------------------------------

          program call               : xtb /home/selva/covalent_quantum_benchmark/data/quantum/erbB_xyz/EGFR__CHEMBL333454__state00.xyz --gfn2 --chrg 0 --uhf 0 --iterations 300
          coordinate file            : /home/selva/covalent_quantum_benchmark/data/quantum/erbB_xyz/EGFR__CHEMBL333454__state00.xyz
          omp threads                :                    24

   ID    Z sym.   atoms
    1    6 C      1, 3-8, 10, 13-15, 17-24
    2    8 O      2, 12, 25
    3    7 N      9, 11
    4   16 S      16

           -------------------------------------------------
          |                 G F N 2 - x T B                 |
           -------------------------------------------------

        Reference                      10.1021/acs.jctc.8b01176
      * Hamiltonian:
        H0-scaling (s, p, d)           1.850000    2.230000    2.230000
        zeta-weighting                 0.500000
      * Dispersion:
        s8                             2.700000
        a1                             0.520000
        a2                             5.000000
        s9                             5.000000
      * Repulsion:
        kExp                           1.500000    1.000000
        rExp                           1.000000
      * Coulomb:
        alpha                          2.000000
        third order                    shell-resolved
        anisotropic                    true
        a3                             3.000000
        a5                             4.000000
        cn-shift                       1.200000
        cn-exp                         4.000000
        max-rad                        5.000000


          ...................................................
          :                      SETUP                      :
          :.................................................:
          :  # basis functions                 106          :
          :  # atomic orbitals                 105          :
          :  # shells                           51          :
          :  # electrons                       110          :
          :  max. iterations                   300          :
          :  Hamiltonian                  GFN2-xTB          :
          :  restarted?                      false          :
          :  GBSA solvation                  false          :
          :  PC potential                    false          :
          :  electronic temp.          300.0000000     K    :
          :  accuracy                    1.0000000          :
          :  -> integral cutoff          0.2500000E+02      :
          :  -> integral neglect         0.1000000E-07      :
          :  -> SCF convergence          0.1000000E-05 Eh   :
          :  -> wf. convergence          0.1000000E-03 e    :
          :  Broyden damping             0.4000000          :
          ...................................................

 iter      E             dE          RMSdq      gap      omega  full diag
   1    -60.3658869 -0.603659E+02  0.101E+01    0.40       0.0  T
   2    -47.5550668  0.128108E+02  0.142E+01    0.38       1.0  T
   3    -43.7863314  0.376874E+01  0.135E+01    0.12       1.0  T
   4    -51.8347083 -0.804838E+01  0.105E+01    0.19       1.0  T
   5    -59.8811971 -0.804649E+01  0.660E+00    0.16       1.0  T
   6    -58.8667995  0.101440E+01  0.672E+00    0.14       1.0  T
   7    -60.4157850 -0.154899E+01  0.526E+00    0.27       1.0  T
   8    -59.9715466  0.444238E+00  0.548E+00    0.10       1.0  T
   9    -60.0717778 -0.100231E+00  0.495E+00    0.11       1.0  T
  10    -60.5660062 -0.494228E+00  0.426E+00    0.09       1.0  T
  11    -61.0455735 -0.479567E+00  0.292E+00    0.05       1.0  T
  12    -60.5798765  0.465697E+00  0.408E+00    0.12       1.0  T
  13    -60.6178713 -0.379948E-01  0.391E+00    0.09       1.0  T
  14    -60.7172650 -0.993937E-01  0.363E+00    0.09       1.0  T
  15    -61.0454057 -0.328141E+00  0.254E+00    0.03       1.0  T
  16    -61.2455025 -0.200097E+00  0.125E+00    0.04       1.0  T
  17    -60.8561403  0.389362E+00  0.290E+00    0.05       1.0  T
  18    -60.0860271  0.770113E+00  0.487E+00    0.03       1.0  T
  19    -60.2879880 -0.201961E+00  0.451E+00    0.01       1.0  T
  20    -59.0828179  0.120517E+01  0.626E+00    0.30       1.0  T
  21    -59.1429631 -0.601452E-01  0.618E+00    0.29       1.0  T
  22    -59.0143288  0.128634E+00  0.631E+00    0.31       1.0  T
  23    -59.3491993 -0.334871E+00  0.579E+00    0.16       1.0  T
  24    -60.1293430 -0.780144E+00  0.432E+00    0.04       1.0  T
  25    -60.0080893  0.121254E+00  0.459E+00    0.06       1.0  T
  26    -59.8310847  0.177005E+00  0.504E+00    0.09       1.0  T
  27    -60.2113675 -0.380283E+00  0.409E+00    0.03       1.0  T
  28    -60.9346832 -0.723316E+00  0.257E+00    0.07       1.0  T
  29    -60.8425586  0.921246E-01  0.276E+00    0.04       1.0  T
  30    -60.8824662 -0.399076E-01  0.266E+00    0.05       1.0  T
  31    -60.8324041  0.500622E-01  0.278E+00    0.03       1.0  T
  32    -61.0338515 -0.201447E+00  0.237E+00    0.12       1.0  T
  33    -61.0363419 -0.249043E-02  0.229E+00    0.10       1.0  T
  34    -61.0658522 -0.295103E-01  0.218E+00    0.10       1.0  T
  35    -61.0942037 -0.283515E-01  0.210E+00    0.11       1.0  T
  36    -61.0942869 -0.831817E-04  0.210E+00    0.11       1.0  T
  37    -61.1629763 -0.686894E-01  0.173E+00    0.09       1.0  T
  38    -61.2432497 -0.802734E-01  0.107E+00    0.05       1.0  T
  39    -61.2450035 -0.175374E-02  0.105E+00    0.05       1.0  T
  40    -61.2393257  0.567781E-02  0.973E-01    0.01       1.0  T
  41    -61.1951865  0.441392E-01  0.121E+00    0.02       1.0  T
  42    -60.9968916  0.198295E+00  0.217E+00    0.05       1.0  T
  43    -61.0323755 -0.354839E-01  0.205E+00    0.05       1.0  T
  44    -61.0654466 -0.330711E-01  0.192E+00    0.04       1.0  T
  45    -61.2216792 -0.156233E+00  0.107E+00    0.02       1.0  T
  46    -61.0683796  0.153300E+00  0.191E+00    0.04       1.0  T
  47    -61.2285217 -0.160142E+00  0.104E+00    0.02       1.0  T
  48    -61.2136499  0.148718E-01  0.114E+00    0.02       1.0  T
  49    -61.2890729 -0.754231E-01  0.180E-01    0.02       1.0  T
  50    -61.2725243  0.165487E-01  0.531E-01    0.01       1.0  T
  51    -61.2841550 -0.116308E-01  0.302E-01    0.01       1.0  T
  52    -61.2773345  0.682053E-02  0.453E-01    0.01       1.0  T
  53    -61.2883816 -0.110471E-01  0.167E-01    0.02       1.0  T
  54    -61.2882669  0.114715E-03  0.174E-01    0.02       1.0  T
  55    -61.2899210 -0.165418E-02  0.880E-02    0.02       1.0  T
  56    -61.2903113 -0.390254E-03  0.446E-02    0.02       1.0  T
  57    -61.2898289  0.482377E-03  0.957E-02    0.02       1.0  T
  58    -61.2897015  0.127385E-03  0.105E-01    0.02       1.0  T
  59    -61.2903531 -0.651608E-03  0.532E-02    0.02       1.0  T
  60    -61.2902811  0.720084E-04  0.601E-02    0.02       1.0  T
  61    -61.2900241  0.257053E-03  0.911E-02    0.02       1.0  T
  62    -61.2902085 -0.184371E-03  0.655E-02    0.02       1.0  T
  63    -61.2903478 -0.139345E-03  0.376E-02    0.02       1.0  T
  64    -61.2903862 -0.383847E-04  0.250E-02    0.02       1.0  T
  65    -61.2904053 -0.190816E-04  0.148E-02    0.02       1.3  T
  66    -61.2904110 -0.576157E-05  0.977E-03    0.02       2.0  T
  67    -61.2904136 -0.256532E-05  0.546E-03    0.02       3.7  T
  68    -61.2904139 -0.338925E-06  0.265E-03    0.02       7.6  T
  69    -61.2904142 -0.234364E-06  0.245E-03    0.02       8.2  T
  70    -61.2904143 -0.141833E-06  0.127E-03    0.02      15.8  T
  71    -61.2904143 -0.286778E-07  0.800E-04    0.02      25.0  T
  72    -61.2904144 -0.263444E-07  0.279E-04    0.02      71.8  T

   *** convergence criteria satisfied after 72 iterations ***

         #    Occupation            Energy/Eh            Energy/eV
      -------------------------------------------------------------
         1        2.0000           -0.8215960             -22.3568
       ...           ...                  ...                  ...
        49        2.0000           -0.4592013             -12.4955
        50        2.0000           -0.4466235             -12.1532
        51        1.9984           -0.4375591             -11.9066
        52        1.9830           -0.4353256             -11.8458
        53        1.8640           -0.4332903             -11.7904
        54        1.7698           -0.4327407             -11.7755
        55        1.1552           -0.4311003             -11.7308 (HOMO)
        56        0.7749           -0.4303679             -11.7109 (LUMO)
        57        0.4548           -0.4296411             -11.6911
        58        0.0000           -0.4196604             -11.4195
        59        0.0000           -0.4191547             -11.4058
        60        0.0000           -0.4182847             -11.3821
       ...           ...                  ...                  ...
       105                          1.0246313              27.8816
      -------------------------------------------------------------
                  HL-Gap            0.0007324 Eh            0.0199 eV
             Fermi-level           -0.4308031 Eh          -11.7227 eV

 SCC (total)                   0 d,  0 h,  0 min,  0.547 sec
 SCC setup                      ...        0 min,  0.004 sec (  0.702%)
 Dispersion                     ...        0 min,  0.002 sec (  0.300%)
 classical contributions        ...        0 min,  0.001 sec (  0.144%)
 integral evaluation            ...        0 min,  0.007 sec (  1.212%)
 iterations                     ...        0 min,  0.515 sec ( 94.074%)
 molecular gradient             ...        0 min,  0.019 sec (  3.403%)
 printout                       ...        0 min,  0.001 sec (  0.158%)

         :::::::::::::::::::::::::::::::::::::::::::::::::::::
         ::                     SUMMARY                     ::
         :::::::::::::::::::::::::::::::::::::::::::::::::::::
         :: total energy             -60.582491461262 Eh    ::
         :: gradient norm              0.411168436689 Eh/a0 ::
         :: HOMO-LUMO gap              0.019929256050 eV    ::
         ::.................................................::
         :: SCC energy               -61.290414359462 Eh    ::
         :: -> isotropic ES            0.042738191755 Eh    ::
         :: -> anisotropic ES          0.003181696508 Eh    ::
         :: -> anisotropic XC          0.045016076866 Eh    ::
         :: -> dispersion             -0.035627623493 Eh    ::
         :: repulsion energy           0.707218219819 Eh    ::
         :: add. restraining           0.000000000000 Eh    ::
         :: total charge               0.000000000442 e     ::
         :::::::::::::::::::::::::::::::::::::::::::::::::::::

           -------------------------------------------------
          |                Property Printout                |
           -------------------------------------------------

    * Orbital Energies and Occupations

         #    Occupation            Energy/Eh            Energy/eV
      -------------------------------------------------------------
         1        2.0000           -0.8215960             -22.3568
       ...           ...                  ...                  ...
        43        2.0000           -0.4968360             -13.5196
        44        2.0000           -0.4899498             -13.3322
        45        2.0000           -0.4768802             -12.9766
        46        2.0000           -0.4725805             -12.8596
        47        2.0000           -0.4662354             -12.6869
        48        2.0000           -0.4643295             -12.6350
        49        2.0000           -0.4592013             -12.4955
        50        2.0000           -0.4466235             -12.1532
        51        1.9984           -0.4375591             -11.9066
        52        1.9830           -0.4353256             -11.8458
        53        1.8640           -0.4332903             -11.7904
        54        1.7698           -0.4327407             -11.7755
        55        1.1552           -0.4311003             -11.7308 (HOMO)
        56        0.7749           -0.4303679             -11.7109 (LUMO)
        57        0.4548           -0.4296411             -11.6911
        58        0.0000           -0.4196604             -11.4195
        59        0.0000           -0.4191547             -11.4058
        60        0.0000           -0.4182847             -11.3821
        61                         -0.4090306             -11.1303
        62                         -0.4051025             -11.0234
        63                         -0.4024346             -10.9508
        64                         -0.3522413              -9.5850
        65                         -0.3459410              -9.4135
        66                         -0.3145984              -8.5607
       ...                                ...                  ...
       105                          1.0246313              27.8816
      -------------------------------------------------------------
                  HL-Gap            0.0007324 Eh            0.0199 eV
             Fermi-level           -0.4308031 Eh          -11.7227 eV

     #   Z          covCN         q      C6AA      α(0)
     1   6 C        0.872     0.004    35.048     9.887
     2   8 O        1.703    -0.010    14.613     5.161
     3   6 C        2.858     0.144    24.862     8.173
     4   6 C        1.990    -0.060    32.679     9.232
     5   6 C        2.962     0.075    26.324     8.416
     6   6 C        1.986     0.028    30.339     8.895
     7   6 C        2.946     0.047    26.943     8.513
     8   6 C        1.904     0.147    27.547     8.476
     9   7 N        0.911    -0.138    23.986     7.083
    10   6 C        2.756     0.311    21.725     7.633
    11   7 N        0.916    -0.215    25.650     7.322
    12   8 O        0.859    -0.320    20.154     6.019
    13   6 C        1.998    -0.042    32.170     9.160
    14   6 C        2.979     0.042    27.061     8.533
    15   6 C        1.949    -0.040    32.140     9.155
    16  16 S        2.030     0.175   134.107    19.491
    17   6 C        2.956     0.080    26.213     8.398
    18   6 C        2.014    -0.033    31.898     9.121
    19   6 C        1.989    -0.015    31.453     9.057
    20   6 C        2.960     0.117    25.426     8.271
    21   6 C        0.983    -0.048    37.412    10.275
    22   6 C        1.989    -0.021    31.596     9.078
    23   6 C        2.025    -0.052    32.400     9.193
    24   6 C        2.847     0.197    23.815     7.998
    25   8 O        0.854    -0.372    21.133     6.163

 Mol. C6AA /au·bohr⁶  :      18718.843792
 Mol. C8AA /au·bohr⁸  :     542398.517419
 Mol. α(0) /au        :        218.702176


Wiberg/Mayer (AO) data.
largest (>0.10) Wiberg bond orders for each atom

 ---------------------------------------------------------------------------
     #   Z sym  total        # sym  WBO       # sym  WBO       # sym  WBO
 ---------------------------------------------------------------------------
     1   6 C    1.954 --     2 O    1.546     4 C    0.104
     2   8 O    2.651 --     1 C    1.546     3 C    1.030
     3   6 C    3.861 --     4 C    1.442    24 C    1.118     2 O    1.030
     4   6 C    3.652 --     3 C    1.442     5 C    1.279    13 C    0.419
                            25 O    0.132     1 C    0.104
     5   6 C    3.960 --    13 C    1.287     4 C    1.279     6 C    1.203
     6   6 C    3.771 --     7 C    1.852     5 C    1.203     9 N    0.167
                            12 O    0.154    11 N    0.137
     7   6 C    3.919 --     6 C    1.852     8 C    1.047    10 C    0.843
     8   6 C    3.931 --     9 N    2.782     7 C    1.047
     9   7 N    3.083 --     8 C    2.782     6 C    0.167
    10   6 C    3.914 --    12 O    1.579    11 N    1.422     7 C    0.843
    11   7 N    1.863 --    10 C    1.422    12 O    0.191     6 C    0.137
    12   8 O    1.987 --    10 C    1.579    11 N    0.191     6 C    0.154
    13   6 C    3.708 --    14 C    1.449     5 C    1.287     4 C    0.419
                            25 O    0.162
    14   6 C    3.940 --    13 C    1.449    15 C    1.150    24 C    1.122
    15   6 C    3.013 --    16 S    1.401    14 C    1.150
    16  16 S    2.568 --    15 C    1.401    17 C    0.939
    17   6 C    3.927 --    18 C    1.349    23 C    1.339    16 S    0.939
    18   6 C    3.510 --    19 C    1.625    17 C    1.349    22 C    0.197
                            21 C    0.192
    19   6 C    3.663 --    18 C    1.625    20 C    1.185    21 C    0.251
                            22 C    0.241    23 C    0.213
Note: The following floating-point exceptions are signalling: IEEE_UNDERFLOW_FLAG IEEE_DENORMAL
normal termination of xtb
    20   6 C    3.920 --    21 C    1.443    19 C    1.185    22 C    1.179
    21   6 C    2.403 --    20 C    1.443    19 C    0.251    22 C    0.245
                            18 C    0.192    23 C    0.184
    22   6 C    3.654 --    23 C    1.623    20 C    1.179    21 C    0.245
                            19 C    0.241    18 C    0.197
    23   6 C    3.530 --    22 C    1.623    17 C    1.339    19 C    0.213
                            21 C    0.184
    24   6 C    3.940 --    25 O    1.484    14 C    1.122     3 C    1.118
    25   8 O    2.018 --    24 C    1.484    13 C    0.162     4 C    0.132
 ---------------------------------------------------------------------------

Topologies differ in total number of bonds
Writing topology from bond orders to xtbtopo.mol

molecular dipole:
                 x           y           z       tot (Debye)
 q only:        0.040      -1.772      -0.320
   full:        0.092      -2.026      -0.802       5.543
molecular quadrupole (traceless):
                xx          xy          yy          xz          yz          zz
 q only:        3.080     -30.250     -18.412       0.241      15.206      15.331
  q+dip:        7.689     -28.320     -19.975      -0.243      12.776      12.287
   full:       11.532     -31.324     -19.429       0.381      12.047       7.897


           -------------------------------------------------
          | TOTAL ENERGY              -60.582491461262 Eh   |
          | GRADIENT NORM               0.411168436689 Eh/α |
          | HOMO-LUMO GAP               0.019929256050 eV   |
           -------------------------------------------------

------------------------------------------------------------------------
 * finished run on 2026/07/23 at 16:38:29.914     
------------------------------------------------------------------------
 total:
 * wall-time:     0 d,  0 h,  0 min,  0.570 sec
 *  cpu-time:     0 d,  0 h,  0 min,  0.505 sec
 * ratio c/w:     0.885 speedup
 SCF:
 * wall-time:     0 d,  0 h,  0 min,  0.548 sec
 *  cpu-time:     0 d,  0 h,  0 min,  0.483 sec
 * ratio c/w:     0.882 speedup

