      -----------------------------------------------------------      
     |                   =====================                   |     
     |                           x T B                           |     
     |                   =====================                   |     
     |                         S. Grimme                         |     
     |          Mulliken Center for Theoretical Chemistry        |     
     |                    University of Bonn                     |     
      -----------------------------------------------------------      

   * xtb version 6.6.1 (unknown) compiled by 'builduser@buildhost' on 2023-08-07

   xtb is free software: you can redistribute it and/or modify it under
   the terms of the GNU Lesser General Public License as published by
   the Free Software Foundation, either version 3 of the License, or
   (at your option) any later version.
   
   xtb is distributed in the hope that it will be useful,
   but WITHOUT ANY WARRANTY; without even the implied warranty of
   MERCHANTABILITY or FITNESS FOR A PARTICULAR PURPOSE.  See the
   GNU Lesser General Public License for more details.
   
   Cite this work as:
   * C. Bannwarth, E. Caldeweyher, S. Ehlert, A. Hansen, P. Pracht,
     J. Seibert, S. Spicher, S. Grimme, WIREs Comput. Mol. Sci., 2020, 11,
     e01493. DOI: 10.1002/wcms.1493
   
   for GFN2-xTB:
   * C. Bannwarth, S. Ehlert and S. Grimme., J. Chem. Theory Comput., 2019,
     15, 1652-1671. DOI: 10.1021/acs.jctc.8b01176
   for GFN1-xTB:
   * S. Grimme, C. Bannwarth, P. Shushkov, J. Chem. Theory Comput., 2017,
     13, 1989-2009. DOI: 10.1021/acs.jctc.7b00118
   for GFN0-xTB:
   * P. Pracht, E. Caldeweyher, S. Ehlert, S. Grimme, ChemRxiv, 2019, preprint.
     DOI: 10.26434/chemrxiv.8326202.v1
   for GFN-FF:
   * S. Spicher and S. Grimme, Angew. Chem. Int. Ed., 2020, 59, 15665-15673.
     DOI: 10.1002/anie.202004239
   
   for ALPB and GBSA implicit solvation:
   * S. Ehlert, M. Stahn, S. Spicher, S. Grimme, J. Chem. Theory Comput.,
     2021, 17, 4250-4261. DOI: 10.1021/acs.jctc.1c00471
   
   for DFT-D4:
   * E. Caldeweyher, C. Bannwarth and S. Grimme, J. Chem. Phys., 2017,
     147, 034112. DOI: 10.1063/1.4993215
   * E. Caldeweyher, S. Ehlert, A. Hansen, H. Neugebauer, S. Spicher,
     C. Bannwarth and S. Grimme, J. Chem. Phys., 2019, 150, 154122.
     DOI: 10.1063/1.5090222
   * E. Caldeweyher, J.-M. Mewes, S. Ehlert and S. Grimme, Phys. Chem. Chem. Phys.
     2020, 22, 8499-8512. DOI: 10.1039/D0CP00502A
   
   for sTDA-xTB:
   * S. Grimme and C. Bannwarth, J. Chem. Phys., 2016, 145, 054103.
     DOI: 10.1063/1.4959605
   
   in the mass-spec context:
   * V. Asgeirsson, C. Bauer and S. Grimme, Chem. Sci., 2017, 8, 4879.
     DOI: 10.1039/c7sc00601b
   * J. Koopman and S. Grimme, ACS Omega 2019, 4, 12, 15120-15133.
     DOI: 10.1021/acsomega.9b02011
   
   for metadynamics refer to:
   * S. Grimme, J. Chem. Theory Comput., 2019, 155, 2847-2862
     DOI: 10.1021/acs.jctc.9b00143
   
   for SPH calculations refer to:
   * S. Spicher and S. Grimme, J. Chem. Theory Comput., 2021, 17, 1701-1714
     DOI: 10.1021/acs.jctc.0c01306
   
   with help from (in alphabetical order)
   P. Atkinson, C. Bannwarth, F. Bohle, G. Brandenburg, E. Caldeweyher
   M. Checinski, S. Dohm, S. Ehlert, S. Ehrlich, I. Gerasimov, C. Hölzer
   A. Katbashev, J. Koopman, C. Lavigne, S. Lehtola, F. März, M. Müller,
   F. Musil, H. Neugebauer, J. Pisarek, C. Plett, P. Pracht, F. Pultar,
   J. Seibert, P. Shushkov, S. Spicher, M. Stahn, M. Steiner, T. Strunk,
   J. Stückrath, T. Rose, and J. Unsleber
   
 * started run on 2026/07/23 at 16:39:29.900     

           -------------------------------------------------
          |                Calculation Setup                |
           -------------------------------------------------

          program call               : xtb /home/selva/covalent_quantum_benchmark/data/quantum/erbB_xyz/EGFR__CHEMBL93537__state03.xyz --gfn2 --chrg 0 --uhf 0 --iterations 300
          coordinate file            : /home/selva/covalent_quantum_benchmark/data/quantum/erbB_xyz/EGFR__CHEMBL93537__state03.xyz
          omp threads                :                    24

   ID    Z sym.   atoms
    1    8 O      1
    2    6 C      2-5, 7, 8, 10, 11, 13-16, 18, 20, 22-26, 28-30
    3    7 N      6, 12, 17, 19, 21
    4   16 S      9
    5   35 Br     27

           -------------------------------------------------
          |                 G F N 2 - x T B                 |
           -------------------------------------------------

        Reference                      10.1021/acs.jctc.8b01176
      * Hamiltonian:
        H0-scaling (s, p, d)           1.850000    2.230000    2.230000
        zeta-weighting                 0.500000
      * Dispersion:
        s8                             2.700000
        a1                             0.520000
        a2                             5.000000
        s9                             5.000000
      * Repulsion:
        kExp                           1.500000    1.000000
        rExp                           1.000000
      * Coulomb:
        alpha                          2.000000
        third order                    shell-resolved
        anisotropic                    true
        a3                             3.000000
        a5                             4.000000
        cn-shift                       1.200000
        cn-exp                         4.000000
        max-rad                        5.000000


          ...................................................
          :                      SETUP                      :
          :.................................................:
          :  # basis functions                 132          :
          :  # atomic orbitals                 130          :
          :  # shells                           62          :
          :  # electrons                       132          :
          :  max. iterations                   300          :
          :  Hamiltonian                  GFN2-xTB          :
          :  restarted?                      false          :
          :  GBSA solvation                  false          :
          :  PC potential                    false          :
          :  electronic temp.          300.0000000     K    :
          :  accuracy                    1.0000000          :
          :  -> integral cutoff          0.2500000E+02      :
          :  -> integral neglect         0.1000000E-07      :
          :  -> SCF convergence          0.1000000E-05 Eh   :
          :  -> wf. convergence          0.1000000E-03 e    :
          :  Broyden damping             0.4000000          :
          ...................................................

 iter      E             dE          RMSdq      gap      omega  full diag
   1    -71.9774529 -0.719775E+02  0.835E+00    0.28       0.0  T
   2    -65.0653833  0.691207E+01  0.100E+01    0.07       1.0  T
   3    -58.9023437  0.616304E+01  0.104E+01    0.41       1.0  T
   4    -54.8121264  0.409022E+01  0.114E+01    0.07       1.0  T
   5    -60.1844679 -0.537234E+01  0.972E+00    0.01       1.0  T
   6    -66.7080871 -0.652362E+01  0.730E+00    0.35       1.0  T
   7    -71.6803147 -0.497223E+01  0.442E+00    0.04       1.0  T
   8    -71.7089210 -0.286063E-01  0.344E+00    0.27       1.0  T
   9    -71.6205873  0.883338E-01  0.361E+00    0.13       1.0  T
  10    -72.2249470 -0.604360E+00  0.261E+00    0.22       1.0  T
  11    -72.2128581  0.120888E-01  0.217E+00    0.04       1.0  T
  12    -72.3462350 -0.133377E+00  0.187E+00    0.18       1.0  T
  13    -72.3306479  0.155870E-01  0.162E+00    0.13       1.0  T
  14    -72.4475502 -0.116902E+00  0.128E+00    0.16       1.0  T
  15    -72.4864119 -0.388618E-01  0.968E-01    0.04       1.0  T
  16    -72.4958378 -0.942588E-02  0.760E-01    0.08       1.0  T
  17    -72.4573076  0.385302E-01  0.122E+00    0.03       1.0  T
  18    -72.4207405  0.365671E-01  0.143E+00    0.04       1.0  T
  19    -72.4019744  0.187661E-01  0.150E+00    0.05       1.0  T
  20    -72.4429025 -0.409281E-01  0.117E+00    0.03       1.0  T
  21    -72.4994732 -0.565707E-01  0.453E-01    0.03       1.0  T
  22    -72.5043411 -0.486787E-02  0.304E-01    0.06       1.0  T
  23    -72.5074377 -0.309664E-02  0.146E-01    0.04       1.0  T
  24    -72.5087713 -0.133362E-02  0.104E-01    0.05       1.0  T
  25    -72.5088373 -0.659718E-04  0.118E-01    0.04       1.0  T
  26    -72.5083442  0.493094E-03  0.147E-01    0.04       1.0  T
  27    -72.5090072 -0.663038E-03  0.984E-02    0.05       1.0  T
  28    -72.5088240  0.183256E-03  0.124E-01    0.05       1.0  T
  29    -72.5087736  0.503516E-04  0.133E-01    0.05       1.0  T
  30    -72.5092710 -0.497376E-03  0.693E-02    0.05       1.0  T
  31    -72.5094548 -0.183813E-03  0.322E-02    0.05       1.0  T
  32    -72.5094824 -0.275706E-04  0.195E-02    0.05       1.0  T
  33    -72.5094348  0.475473E-04  0.391E-02    0.05       1.0  T
  34    -72.5094585 -0.236746E-04  0.289E-02    0.05       1.0  T
  35    -72.5094858 -0.273100E-04  0.120E-02    0.05       1.5  T
  36    -72.5094875 -0.167519E-05  0.115E-02    0.05       1.6  T
  37    -72.5094928 -0.524736E-05  0.422E-03    0.05       4.3  T
  38    -72.5094928 -0.164356E-07  0.409E-03    0.05       4.5  T
  39    -72.5094934 -0.633355E-06  0.953E-04    0.05      19.1  T
  40    -72.5094934  0.181735E-07  0.962E-04    0.05      19.0  T

   *** convergence criteria satisfied after 40 iterations ***

         #    Occupation            Energy/Eh            Energy/eV
      -------------------------------------------------------------
         1        2.0000           -0.8649262             -23.5358
       ...           ...                  ...                  ...
        60        2.0000           -0.4331274             -11.7860
        61        2.0000           -0.4311717             -11.7328
        62        2.0000           -0.4285619             -11.6618
        63        1.9997           -0.4236472             -11.5280
        64        1.9952           -0.4211171             -11.4592
        65        1.9145           -0.4183337             -11.3834
        66        1.4612           -0.4163281             -11.3289 (HOMO)
        67        0.6294           -0.4146410             -11.2830 (LUMO)
        68        0.0000           -0.4024877             -10.9522
        69                         -0.3983533             -10.8397
        70                         -0.3927288             -10.6867
        71                         -0.3887113             -10.5774
       ...                                ...                  ...
       130                          0.5780347              15.7291
      -------------------------------------------------------------
                  HL-Gap            0.0016871 Eh            0.0459 eV
             Fermi-level           -0.4153803 Eh          -11.3031 eV

 SCC (total)                   0 d,  0 h,  0 min,  0.530 sec
 SCC setup                      ...        0 min,  0.000 sec (  0.056%)
 Dispersion                     ...        0 min,  0.001 sec (  0.176%)
 classical contributions        ...        0 min,  0.001 sec (  0.274%)
 integral evaluation            ...        0 min,  0.003 sec (  0.591%)
 iterations                     ...        0 min,  0.495 sec ( 93.343%)
 molecular gradient             ...        0 min,  0.028 sec (  5.217%)
 printout                       ...        0 min,  0.002 sec (  0.336%)

         :::::::::::::::::::::::::::::::::::::::::::::::::::::
         ::                     SUMMARY                     ::
         :::::::::::::::::::::::::::::::::::::::::::::::::::::
         :: total energy             -71.734369228623 Eh    ::
         :: gradient norm              0.474998079674 Eh/a0 ::
         :: HOMO-LUMO gap              0.045908765022 eV    ::
         ::.................................................::
         :: SCC energy               -72.509493383543 Eh    ::
         :: -> isotropic ES            0.036619280931 Eh    ::
         :: -> anisotropic ES          0.009552962537 Eh    ::
         :: -> anisotropic XC          0.038016027940 Eh    ::
         :: -> dispersion             -0.043735763648 Eh    ::
         :: repulsion energy           0.774955266014 Eh    ::
         :: add. restraining           0.000000000000 Eh    ::
         :: total charge               0.000000000008 e     ::
         :::::::::::::::::::::::::::::::::::::::::::::::::::::

           -------------------------------------------------
          |                Property Printout                |
           -------------------------------------------------

    * Orbital Energies and Occupations

         #    Occupation            Energy/Eh            Energy/eV
      -------------------------------------------------------------
         1        2.0000           -0.8649262             -23.5358
       ...           ...                  ...                  ...
        54        2.0000           -0.4519523             -12.2982
        55        2.0000           -0.4434417             -12.0667
        56        2.0000           -0.4419047             -12.0248
        57        2.0000           -0.4391346             -11.9495
        58        2.0000           -0.4360730             -11.8662
        59        2.0000           -0.4349731             -11.8362
        60        2.0000           -0.4331274             -11.7860
        61        2.0000           -0.4311717             -11.7328
        62        2.0000           -0.4285619             -11.6618
        63        1.9997           -0.4236472             -11.5280
        64        1.9952           -0.4211171             -11.4592
        65        1.9145           -0.4183337             -11.3834
        66        1.4612           -0.4163281             -11.3289 (HOMO)
        67        0.6294           -0.4146410             -11.2830 (LUMO)
        68        0.0000           -0.4024877             -10.9522
        69                         -0.3983533             -10.8397
        70                         -0.3927288             -10.6867
        71                         -0.3887113             -10.5774
        72                         -0.3629526              -9.8764
        73                         -0.3585899              -9.7577
        74                         -0.3562509              -9.6941
        75                         -0.3489709              -9.4960
        76                         -0.3322236              -9.0403
        77                         -0.3176182              -8.6428
       ...                                ...                  ...
       130                          0.5780347              15.7291
      -------------------------------------------------------------
                  HL-Gap            0.0016871 Eh            0.0459 eV
             Fermi-level           -0.4153803 Eh          -11.3031 eV

     #   Z          covCN         q      C6AA      α(0)
     1   8 O        0.862    -0.369    21.064     6.153
     2   6 C        2.794     0.291    22.063     7.694
     3   6 C        1.968     0.018    30.601     8.933
     4   6 C        1.966     0.006    30.925     8.980
     5   6 C        1.904     0.001    31.091     9.005
     6   7 N        2.721     0.080    19.860     6.619
     7   6 C        1.924    -0.036    32.062     9.144
     8   6 C        1.944    -0.086    33.448     9.340
     9  16 S        1.990     0.249   131.320    19.287
    10   6 C        1.944    -0.080    33.275     9.316
    11   6 C        1.924    -0.029    31.868     9.117
    12   7 N        1.832    -0.133    24.657     7.358
    13   6 C        2.936     0.130    25.159     8.226
    14   6 C        1.993    -0.035    31.979     9.132
    15   6 C        1.988    -0.022    31.628     9.082
    16   6 C        2.923     0.130    25.146     8.223
    17   7 N        1.831    -0.172    25.529     7.487
    18   6 C        1.908     0.169    27.048     8.399
    19   7 N        1.831    -0.192    25.986     7.554
    20   6 C        2.908     0.201    23.739     7.989
    21   7 N        1.839    -0.155    25.142     7.431
    22   6 C        2.934     0.132    25.112     8.218
    23   6 C        1.992     0.007    30.863     8.972
    24   6 C        1.986    -0.022    31.630     9.082
    25   6 C        2.061     0.009    30.740     8.956
    26   6 C        2.906     0.113    25.506     8.281
    27  35 Br       1.068    -0.065   186.803    22.037
    28   6 C        2.065    -0.080    33.132     9.298
    29   6 C        2.977     0.003    27.963     8.674
    30   6 C        1.991    -0.062    32.719     9.237

 Mol. C6AA /au·bohr⁶  :      30019.923552
 Mol. C8AA /au·bohr⁸  :     930829.109829
 Mol. α(0) /au        :        277.228116


Wiberg/Mayer (AO) data.
largest (>0.10) Wiberg bond orders for each atom

 ---------------------------------------------------------------------------
     #   Z sym  total        # sym  WBO       # sym  WBO       # sym  WBO
 ---------------------------------------------------------------------------
     1   8 O    1.797 --     2 C    1.389    12 N    0.197
     2   6 C    3.938 --    12 N    1.486     1 O    1.389     3 C    0.971
     3   6 C    3.656 --     4 C    2.189     2 C    0.971     5 C    0.203
     4   6 C    3.805 --     3 C    2.189     5 C    1.404
     5   6 C    3.132 --     4 C    1.404     6 N    1.045     3 C    0.203
                            11 C    0.110
     6   7 N    3.579 --     7 C    1.174    11 C    1.172     5 C    1.045
     7   6 C    3.222 --     8 C    1.514     6 N    1.174    11 C    0.139
                            10 C    0.132     9 S    0.130
     8   6 C    3.166 --     7 C    1.514     9 S    1.286    11 C    0.151
                            10 C    0.127
     9  16 S    2.942 --     8 C    1.286    10 C    1.279     7 C    0.130
                            11 C    0.127
    10   6 C    3.194 --    11 C    1.507     9 S    1.279     7 C    0.132
                             8 C    0.127
    11   6 C    3.275 --    10 C    1.507     6 N    1.172     8 C    0.151
                             7 C    0.139     9 S    0.127     5 C    0.110
    12   7 N    3.167 --     2 C    1.486    13 C    1.171     1 O    0.197
    13   6 C    3.908 --    30 C    1.302    14 C    1.240    12 N    1.171
    14   6 C    3.707 --    15 C    1.747    13 C    1.240    30 C    0.225
                            18 C    0.119
    15   6 C    3.454 --    14 C    1.747    16 C    1.299    30 C    0.170
    16   6 C    3.883 --    15 C    1.299    29 C    1.173    17 N    1.160
    17   7 N    3.105 --    18 C    1.584    16 C    1.160
    18   6 C    3.847 --    19 N    1.728    17 N    1.584    21 N    0.132
                            14 C    0.119
    19   7 N    3.167 --    18 C    1.728    20 C    1.089
    20   6 C    3.951 --    21 N    1.594    19 N    1.089    29 C    1.055
    21   7 N    3.231 --    20 C    1.594    22 C    1.088    18 C    0.132
    22   6 C    3.953 --    28 C    1.357    23 C    1.323    21 N    1.088
                            25 C    0.101
    23   6 C    3.745 --    24 C    1.621    22 C    1.323    25 C    0.391
                            28 C    0.156    26 C    0.101
    24   6 C    3.746 --    25 C    1.632    23 C    1.621    28 C    0.393
    25   6 C    3.745 --    24 C    1.632    26 C    1.365    23 C    0.391
                            28 C    0.154    22 C    0.101
    26   6 C    3.926 --    28 C    1.416    25 C    1.365    27 Br   0.993
                            23 C    0.101
    27  35 Br   1.196 --    26 C    0.993
    28   6 C    3.596 --    26 C    1.416    22 C    1.357    24 C    0.393
                            23 C    0.156    25 C    0.154
    29   6 C    3.938 --    30 C    1.440    16 C    1.173    20 C    1.055
    30   6 C    3.448 --    29 C    1.440    13 C    1.302    14 C    0.225
                            15 C    0.170
 ---------------------------------------------------------------------------

Topologies differ in total number of bonds
Writing topology from bond orders to xtbtopo.mol

molecular dipole:
                 x           y           z       tot (Debye)
 q only:       -0.190      -1.549       1.295
   full:       -0.039      -1.981       1.928       7.026
molecular quadrupole (traceless):
                xx          xy          yy          xz          yz          zz
 q only:        2.753     -17.532       9.857      15.535      -2.721     -12.610
  q+dip:        1.633     -10.428       8.085      12.387      -0.348      -9.718
Note: The following floating-point exceptions are signalling: IEEE_UNDERFLOW_FLAG IEEE_DENORMAL
normal termination of xtb
   full:       -0.611     -10.336      10.090      11.651       0.322      -9.479


           -------------------------------------------------
          | TOTAL ENERGY              -71.734369228623 Eh   |
          | GRADIENT NORM               0.474998079674 Eh/α |
          | HOMO-LUMO GAP               0.045908765022 eV   |
           -------------------------------------------------

------------------------------------------------------------------------
 * finished run on 2026/07/23 at 16:39:30.455     
------------------------------------------------------------------------
 total:
 * wall-time:     0 d,  0 h,  0 min,  0.555 sec
 *  cpu-time:     0 d,  0 h,  0 min,  0.502 sec
 * ratio c/w:     0.905 speedup
 SCF:
 * wall-time:     0 d,  0 h,  0 min,  0.531 sec
 *  cpu-time:     0 d,  0 h,  0 min,  0.478 sec
 * ratio c/w:     0.901 speedup

