      -----------------------------------------------------------      
     |                   =====================                   |     
     |                           x T B                           |     
     |                   =====================                   |     
     |                         S. Grimme                         |     
     |          Mulliken Center for Theoretical Chemistry        |     
     |                    University of Bonn                     |     
      -----------------------------------------------------------      

   * xtb version 6.6.1 (unknown) compiled by 'builduser@buildhost' on 2023-08-07

   xtb is free software: you can redistribute it and/or modify it under
   the terms of the GNU Lesser General Public License as published by
   the Free Software Foundation, either version 3 of the License, or
   (at your option) any later version.
   
   xtb is distributed in the hope that it will be useful,
   but WITHOUT ANY WARRANTY; without even the implied warranty of
   MERCHANTABILITY or FITNESS FOR A PARTICULAR PURPOSE.  See the
   GNU Lesser General Public License for more details.
   
   Cite this work as:
   * C. Bannwarth, E. Caldeweyher, S. Ehlert, A. Hansen, P. Pracht,
     J. Seibert, S. Spicher, S. Grimme, WIREs Comput. Mol. Sci., 2020, 11,
     e01493. DOI: 10.1002/wcms.1493
   
   for GFN2-xTB:
   * C. Bannwarth, S. Ehlert and S. Grimme., J. Chem. Theory Comput., 2019,
     15, 1652-1671. DOI: 10.1021/acs.jctc.8b01176
   for GFN1-xTB:
   * S. Grimme, C. Bannwarth, P. Shushkov, J. Chem. Theory Comput., 2017,
     13, 1989-2009. DOI: 10.1021/acs.jctc.7b00118
   for GFN0-xTB:
   * P. Pracht, E. Caldeweyher, S. Ehlert, S. Grimme, ChemRxiv, 2019, preprint.
     DOI: 10.26434/chemrxiv.8326202.v1
   for GFN-FF:
   * S. Spicher and S. Grimme, Angew. Chem. Int. Ed., 2020, 59, 15665-15673.
     DOI: 10.1002/anie.202004239
   
   for ALPB and GBSA implicit solvation:
   * S. Ehlert, M. Stahn, S. Spicher, S. Grimme, J. Chem. Theory Comput.,
     2021, 17, 4250-4261. DOI: 10.1021/acs.jctc.1c00471
   
   for DFT-D4:
   * E. Caldeweyher, C. Bannwarth and S. Grimme, J. Chem. Phys., 2017,
     147, 034112. DOI: 10.1063/1.4993215
   * E. Caldeweyher, S. Ehlert, A. Hansen, H. Neugebauer, S. Spicher,
     C. Bannwarth and S. Grimme, J. Chem. Phys., 2019, 150, 154122.
     DOI: 10.1063/1.5090222
   * E. Caldeweyher, J.-M. Mewes, S. Ehlert and S. Grimme, Phys. Chem. Chem. Phys.
     2020, 22, 8499-8512. DOI: 10.1039/D0CP00502A
   
   for sTDA-xTB:
   * S. Grimme and C. Bannwarth, J. Chem. Phys., 2016, 145, 054103.
     DOI: 10.1063/1.4959605
   
   in the mass-spec context:
   * V. Asgeirsson, C. Bauer and S. Grimme, Chem. Sci., 2017, 8, 4879.
     DOI: 10.1039/c7sc00601b
   * J. Koopman and S. Grimme, ACS Omega 2019, 4, 12, 15120-15133.
     DOI: 10.1021/acsomega.9b02011
   
   for metadynamics refer to:
   * S. Grimme, J. Chem. Theory Comput., 2019, 155, 2847-2862
     DOI: 10.1021/acs.jctc.9b00143
   
   for SPH calculations refer to:
   * S. Spicher and S. Grimme, J. Chem. Theory Comput., 2021, 17, 1701-1714
     DOI: 10.1021/acs.jctc.0c01306
   
   with help from (in alphabetical order)
   P. Atkinson, C. Bannwarth, F. Bohle, G. Brandenburg, E. Caldeweyher
   M. Checinski, S. Dohm, S. Ehlert, S. Ehrlich, I. Gerasimov, C. Hölzer
   A. Katbashev, J. Koopman, C. Lavigne, S. Lehtola, F. März, M. Müller,
   F. Musil, H. Neugebauer, J. Pisarek, C. Plett, P. Pracht, F. Pultar,
   J. Seibert, P. Shushkov, S. Spicher, M. Stahn, M. Steiner, T. Strunk,
   J. Stückrath, T. Rose, and J. Unsleber
   
 * started run on 2026/07/23 at 16:37:45.976     

           -------------------------------------------------
          |                Calculation Setup                |
           -------------------------------------------------

          program call               : xtb /home/selva/covalent_quantum_benchmark/data/quantum/erbB_xyz/EGFR__CHEMBL27688__state01.xyz --gfn2 --chrg 0 --uhf 0 --iterations 300
          coordinate file            : /home/selva/covalent_quantum_benchmark/data/quantum/erbB_xyz/EGFR__CHEMBL27688__state01.xyz
          omp threads                :                    24

   ID    Z sym.   atoms
    1    6 C      1-3, 6-9, 11-17, 19, 21-23, 25-27, 29, 30, 32, 33
    2    8 O      4, 24, 31
    3    7 N      5, 10, 18, 20, 28

           -------------------------------------------------
          |                 G F N 2 - x T B                 |
           -------------------------------------------------

        Reference                      10.1021/acs.jctc.8b01176
      * Hamiltonian:
        H0-scaling (s, p, d)           1.850000    2.230000    2.230000
        zeta-weighting                 0.500000
      * Dispersion:
        s8                             2.700000
        a1                             0.520000
        a2                             5.000000
        s9                             5.000000
      * Repulsion:
        kExp                           1.500000    1.000000
        rExp                           1.000000
      * Coulomb:
        alpha                          2.000000
        third order                    shell-resolved
        anisotropic                    true
        a3                             3.000000
        a5                             4.000000
        cn-shift                       1.200000
        cn-exp                         4.000000
        max-rad                        5.000000


          ...................................................
          :                      SETUP                      :
          :.................................................:
          :  # basis functions                 132          :
          :  # atomic orbitals                 132          :
          :  # shells                           66          :
          :  # electrons                       143          :
          :  max. iterations                   300          :
          :  Hamiltonian                  GFN2-xTB          :
          :  restarted?                      false          :
          :  GBSA solvation                  false          :
          :  PC potential                    false          :
          :  electronic temp.          300.0000000     K    :
          :  accuracy                    1.0000000          :
          :  -> integral cutoff          0.2500000E+02      :
          :  -> integral neglect         0.1000000E-07      :
          :  -> SCF convergence          0.1000000E-05 Eh   :
          :  -> wf. convergence          0.1000000E-03 e    :
          :  Broyden damping             0.4000000          :
          ...................................................

 iter      E             dE          RMSdq      gap      omega  full diag
   1    -78.0895652 -0.780896E+02  0.881E+00    0.12       0.0  T
   2    -52.3830633  0.257065E+02  0.140E+01    0.09       1.0  T
   3    -49.7138971  0.266917E+01  0.144E+01    0.05       1.0  T
   4    -69.6040142 -0.198901E+02  0.986E+00    0.19       1.0  T
   5    -76.0625579 -0.645854E+01  0.645E+00    0.20       1.0  T
   6    -72.4237891  0.363877E+01  0.829E+00    0.18       1.0  T
   7    -77.4021683 -0.497838E+01  0.567E+00    0.08       1.0  T
   8    -78.5836558 -0.118149E+01  0.389E+00    0.13       1.0  T
   9    -77.8511729  0.732483E+00  0.417E+00    0.07       1.0  T
  10    -77.6379168  0.213256E+00  0.414E+00    0.02       1.0  T
  11    -78.7810569 -0.114314E+01  0.306E+00    0.17       1.0  T
  12    -76.4581477  0.232291E+01  0.560E+00    0.11       1.0  T
  13    -79.0057495 -0.254760E+01  0.260E+00    0.04       1.0  T
  14    -79.0164775 -0.107280E-01  0.252E+00    0.01       1.0  T
  15    -79.0339457 -0.174682E-01  0.243E+00    0.04       1.0  T
  16    -79.0405105 -0.656480E-02  0.239E+00    0.02       1.0  T
  17    -79.1303903 -0.898798E-01  0.184E+00    0.03       1.0  T
  18    -79.2399502 -0.109560E+00  0.110E+00    0.02       1.0  T
  19    -79.1827851  0.571651E-01  0.133E+00    0.04       1.0  T
  20    -79.1876589 -0.487376E-02  0.124E+00    0.04       1.0  T
  21    -79.2424172 -0.547583E-01  0.945E-01    0.02       1.0  T
  22    -79.2842146 -0.417974E-01  0.575E-01    0.01       1.0  T
  23    -79.2905127 -0.629807E-02  0.486E-01    0.01       1.0  T
  24    -79.2756731  0.148396E-01  0.641E-01    0.02       1.0  T
  25    -79.2719744  0.369875E-02  0.642E-01    0.03       1.0  T
  26    -79.2832939 -0.113196E-01  0.498E-01    0.02       1.0  T
  27    -79.2827115  0.582444E-03  0.502E-01    0.03       1.0  T
  28    -79.2995831 -0.168716E-01  0.219E-01    0.02       1.0  T
  29    -79.2883358  0.112473E-01  0.420E-01    0.02       1.0  T
  30    -79.2950676 -0.673176E-02  0.311E-01    0.02       1.0  T
  31    -79.2981062 -0.303861E-02  0.246E-01    0.02       1.0  T
  32    -79.3020580 -0.395181E-02  0.120E-01    0.01       1.0  T
  33    -79.3019630  0.950140E-04  0.122E-01    0.01       1.0  T
  34    -79.3029912 -0.102825E-02  0.387E-02    0.01       1.0  T
  35    -79.3029622  0.289958E-04  0.391E-02    0.01       1.0  T
  36    -79.3029691 -0.690826E-05  0.350E-02    0.01       1.0  T
  37    -79.3030516 -0.824737E-04  0.171E-02    0.01       1.0  T
  38    -79.3030507  0.884927E-06  0.177E-02    0.01       1.0  T
  39    -79.3030387  0.120258E-04  0.214E-02    0.01       1.0  T
  40    -79.3030674 -0.287179E-04  0.935E-03    0.01       1.9  T
  41    -79.3030702 -0.276655E-05  0.623E-03    0.01       2.8  T
  42    -79.3030686  0.160743E-05  0.736E-03    0.01       2.4  T
  43    -79.3030698 -0.119722E-05  0.579E-03    0.01       3.0  T
  44    -79.3030712 -0.140622E-05  0.420E-03    0.01       4.1  T
  45    -79.3030718 -0.668454E-06  0.288E-03    0.01       6.0  T
  46    -79.3030720 -0.197364E-06  0.228E-03    0.01       7.7  T
  47    -79.3030722 -0.161318E-06  0.181E-03    0.01       9.6  T
  48    -79.3030724 -0.194939E-06  0.103E-03    0.01      16.9  T
  49    -79.3030725 -0.832043E-07  0.437E-04    0.01      39.8  T
  50    -79.3030725 -0.155921E-07  0.146E-04    0.01     119.0  T

   *** convergence criteria satisfied after 50 iterations ***

         #    Occupation            Energy/Eh            Energy/eV
      -------------------------------------------------------------
         1        2.0000           -0.7836118             -21.3232
       ...           ...                  ...                  ...
        66        2.0000           -0.4331805             -11.7874
        67        2.0000           -0.4294781             -11.6867
        68        2.0000           -0.4261920             -11.5973
        69        1.9977           -0.4217491             -11.4764
        70        1.8643           -0.4177706             -11.3681
        71        1.4089           -0.4160358             -11.3209
        72        0.7646           -0.4146443             -11.2830 (HOMO)
        73        0.6077           -0.4142860             -11.2733 (LUMO)
        74        0.1859           -0.4128431             -11.2340
        75        0.1465           -0.4125907             -11.2272
        76        0.0245           -0.4108128             -11.1788
        77        0.0000           -0.4042036             -10.9989
       ...           ...                  ...                  ...
       132                          0.6126516              16.6711
      -------------------------------------------------------------
                  HL-Gap            0.0003583 Eh            0.0097 eV
             Fermi-level           -0.4151408 Eh          -11.2966 eV

 SCC (total)                   0 d,  0 h,  0 min,  0.666 sec
 SCC setup                      ...        0 min,  0.000 sec (  0.075%)
 Dispersion                     ...        0 min,  0.001 sec (  0.209%)
 classical contributions        ...        0 min,  0.001 sec (  0.090%)
 integral evaluation            ...        0 min,  0.005 sec (  0.807%)
 iterations                     ...        0 min,  0.626 sec ( 93.960%)
 molecular gradient             ...        0 min,  0.026 sec (  3.894%)
 printout                       ...        0 min,  0.006 sec (  0.956%)

         :::::::::::::::::::::::::::::::::::::::::::::::::::::
         ::                     SUMMARY                     ::
         :::::::::::::::::::::::::::::::::::::::::::::::::::::
         :: total energy             -78.509789925739 Eh    ::
         :: gradient norm              0.517375332412 Eh/a0 ::
         :: HOMO-LUMO gap              0.009749088276 eV    ::
         ::.................................................::
         :: SCC energy               -79.303072496060 Eh    ::
         :: -> isotropic ES            0.027746498605 Eh    ::
         :: -> anisotropic ES          0.007089527141 Eh    ::
         :: -> anisotropic XC          0.042251965964 Eh    ::
         :: -> dispersion             -0.048607030838 Eh    ::
         :: repulsion energy           0.791524908733 Eh    ::
         :: add. restraining           0.000000000000 Eh    ::
         :: total charge              -0.000000000024 e     ::
         :::::::::::::::::::::::::::::::::::::::::::::::::::::

           -------------------------------------------------
          |                Property Printout                |
           -------------------------------------------------

    * Orbital Energies and Occupations

         #    Occupation            Energy/Eh            Energy/eV
      -------------------------------------------------------------
         1        2.0000           -0.7836118             -21.3232
       ...           ...                  ...                  ...
        60        2.0000           -0.4559752             -12.4077
        61        2.0000           -0.4537363             -12.3468
        62        2.0000           -0.4492321             -12.2242
        63        2.0000           -0.4430531             -12.0561
        64        2.0000           -0.4392986             -11.9539
        65        2.0000           -0.4345570             -11.8249
        66        2.0000           -0.4331805             -11.7874
        67        2.0000           -0.4294781             -11.6867
        68        2.0000           -0.4261920             -11.5973
        69        1.9977           -0.4217491             -11.4764
        70        1.8643           -0.4177706             -11.3681
        71        1.4089           -0.4160358             -11.3209
        72        0.7646           -0.4146443             -11.2830 (HOMO)
        73        0.6077           -0.4142860             -11.2733 (LUMO)
        74        0.1859           -0.4128431             -11.2340
        75        0.1465           -0.4125907             -11.2272
        76        0.0245           -0.4108128             -11.1788
        77        0.0000           -0.4042036             -10.9989
        78        0.0000           -0.4018433             -10.9347
        79                         -0.3824633             -10.4074
        80                         -0.3680275             -10.0145
        81                         -0.3661793              -9.9642
        82                         -0.3552345              -9.6664
        83                         -0.3400911              -9.2543
       ...                                ...                  ...
       132                          0.6126516              16.6711
      -------------------------------------------------------------
                  HL-Gap            0.0003583 Eh            0.0097 eV
             Fermi-level           -0.4151408 Eh          -11.2966 eV

     #   Z          covCN         q      C6AA      α(0)
     1   6 C        0.984    -0.063    37.909    10.343
     2   6 C        1.966     0.007    30.897     8.976
     3   6 C        2.749     0.332    21.353     7.567
     4   8 O        0.858    -0.340    20.516     6.073
     5   7 N        1.833    -0.237    27.044     7.706
     6   6 C        2.897     0.116    25.444     8.271
     7   6 C        1.985    -0.069    32.912     9.265
     8   6 C        2.966     0.006    27.888     8.662
     9   6 C        2.838     0.204    23.665     7.972
    10   7 N        1.846    -0.154    25.115     7.427
    11   6 C        2.913     0.137    25.006     8.200
    12   6 C        1.993     0.034    30.165     8.870
    13   6 C        1.985     0.001    31.023     8.995
    14   6 C        1.991     0.042    29.976     8.842
    15   6 C        2.959     0.110    25.581     8.296
    16   6 C        0.983    -0.068    38.050    10.362
    17   6 C        1.995    -0.064    32.772     9.245
    18   7 N        1.848    -0.154    25.117     7.428
    19   6 C        1.890     0.178    26.857     8.370
    20   7 N        1.832    -0.148    24.983     7.407
    21   6 C        2.953     0.112    25.524     8.286
    22   6 C        1.990    -0.086    33.395     9.333
    23   6 C        2.862     0.162    24.501     8.114
    24   8 O        1.701    -0.101    15.856     5.376
    25   6 C        1.843     0.078    29.187     8.727
    26   6 C        1.950    -0.013    31.430     9.054
    27   6 C        1.900     0.018    30.659     8.942
    28   7 N        2.719     0.076    19.925     6.630
    29   6 C        1.900    -0.033    32.003     9.136
    30   6 C        1.841     0.039    30.157     8.871
    31   8 O        1.695    -0.118    16.104     5.418
    32   6 C        1.841     0.056    29.734     8.809
    33   6 C        1.899    -0.061    32.756     9.243

 Mol. C6AA /au·bohr⁶  :      29766.951446
 Mol. C8AA /au·bohr⁸  :     810227.196812
 Mol. α(0) /au        :        274.215028


Wiberg/Mayer (AO) data.
largest (>0.10) Wiberg bond orders for each atom

 ---------------------------------------------------------------------------
     #   Z sym  total        # sym  WBO       # sym  WBO       # sym  WBO
 ---------------------------------------------------------------------------
     1   6 C    2.946 --     2 C    2.559     4 O    0.174
     2   6 C    3.616 --     1 C    2.559     3 C    0.931
     3   6 C    3.912 --     4 O    1.639     5 N    1.216     2 C    0.931
     4   8 O    2.068 --     3 C    1.639     1 C    0.174     5 N    0.121
     5   7 N    2.978 --     6 C    1.257     3 C    1.216     4 O    0.121
     6   6 C    3.952 --     7 C    1.353     5 N    1.257    23 C    1.096
     7   6 C    3.778 --     8 C    1.504     6 C    1.353    22 C    0.461
     8   6 C    3.941 --     7 C    1.504    21 C    1.147     9 C    0.980
     9   6 C    3.943 --    10 N    1.570    18 N    1.200     8 C    0.980
    10   7 N    3.251 --     9 C    1.570    11 C    1.121    18 N    0.114
    11   6 C    3.956 --    17 C    1.336    12 C    1.315    10 N    1.121
    12   6 C    3.712 --    13 C    1.593    11 C    1.315    14 C    0.355
                            17 C    0.163    16 C    0.137
    13   6 C    3.816 --    14 C    1.680    12 C    1.593    17 C    0.382
    14   6 C    3.643 --    13 C    1.680    15 C    1.214    12 C    0.355
                            17 C    0.168
    15   6 C    3.964 --    16 C    1.380    17 C    1.259    14 C    1.214
    16   6 C    1.895 --    15 C    1.380    17 C    0.142    12 C    0.137
    17   6 C    3.547 --    11 C    1.336    15 C    1.259    13 C    0.382
                            14 C    0.168    12 C    0.163    16 C    0.142
    18   7 N    3.260 --    19 C    1.679     9 C    1.200    10 N    0.114
    19   6 C    3.747 --    20 N    1.708    18 N    1.679
    20   7 N    3.129 --    19 C    1.708    21 C    1.073
    21   6 C    3.895 --    22 C    1.409     8 C    1.147    20 N    1.073
    22   6 C    3.706 --    23 C    1.463    21 C    1.409     7 C    0.461
    23   6 C    3.895 --    22 C    1.463     6 C    1.096    24 O    1.058
    24   8 O    2.485 --    25 C    1.202    23 C    1.058
    25   6 C    3.043 --    26 C    1.376    24 O    1.202    27 C    0.126
    26   6 C    3.558 --    27 C    1.806    25 C    1.376
    27   6 C    3.617 --    26 C    1.806    28 N    1.138    32 C    0.185
                            25 C    0.126
    28   7 N    3.531 --    27 C    1.138    29 C    1.079    33 C    1.060
    29   6 C    2.987 --    30 C    1.366    28 N    1.079    33 C    0.189
    30   6 C    2.883 --    29 C    1.366    31 O    1.194
    31   8 O    2.502 --    30 C    1.194    32 C    1.122
    32   6 C    3.071 --    33 C    1.505    31 O    1.122    27 C    0.185
    33   6 C    3.045 --    32 C    1.505    28 N    1.060    29 C    0.189
 ---------------------------------------------------------------------------
Note: The following floating-point exceptions are signalling: IEEE_UNDERFLOW_FLAG IEEE_DENORMAL
normal termination of xtb

Topologies differ in total number of bonds
Writing topology from bond orders to xtbtopo.mol

molecular dipole:
                 x           y           z       tot (Debye)
 q only:       -1.133       0.602       0.537
   full:       -1.579      -0.116       1.048       4.826
molecular quadrupole (traceless):
                xx          xy          yy          xz          yz          zz
 q only:        0.276      -0.543      -2.035      -1.412     -11.645       1.759
  q+dip:        7.504       1.139      -1.169       0.662      -7.064      -6.335
   full:        5.364       2.118      -1.303       1.485      -4.352      -4.061


           -------------------------------------------------
          | TOTAL ENERGY              -78.509789925739 Eh   |
          | GRADIENT NORM               0.517375332412 Eh/α |
          | HOMO-LUMO GAP               0.009749088276 eV   |
           -------------------------------------------------

------------------------------------------------------------------------
 * finished run on 2026/07/23 at 16:37:46.665     
------------------------------------------------------------------------
 total:
 * wall-time:     0 d,  0 h,  0 min,  0.689 sec
 *  cpu-time:     0 d,  0 h,  0 min,  0.676 sec
 * ratio c/w:     0.982 speedup
 SCF:
 * wall-time:     0 d,  0 h,  0 min,  0.667 sec
 *  cpu-time:     0 d,  0 h,  0 min,  0.647 sec
 * ratio c/w:     0.970 speedup

