      -----------------------------------------------------------      
     |                   =====================                   |     
     |                           x T B                           |     
     |                   =====================                   |     
     |                         S. Grimme                         |     
     |          Mulliken Center for Theoretical Chemistry        |     
     |                    University of Bonn                     |     
      -----------------------------------------------------------      

   * xtb version 6.6.1 (unknown) compiled by 'builduser@buildhost' on 2023-08-07

   xtb is free software: you can redistribute it and/or modify it under
   the terms of the GNU Lesser General Public License as published by
   the Free Software Foundation, either version 3 of the License, or
   (at your option) any later version.
   
   xtb is distributed in the hope that it will be useful,
   but WITHOUT ANY WARRANTY; without even the implied warranty of
   MERCHANTABILITY or FITNESS FOR A PARTICULAR PURPOSE.  See the
   GNU Lesser General Public License for more details.
   
   Cite this work as:
   * C. Bannwarth, E. Caldeweyher, S. Ehlert, A. Hansen, P. Pracht,
     J. Seibert, S. Spicher, S. Grimme, WIREs Comput. Mol. Sci., 2020, 11,
     e01493. DOI: 10.1002/wcms.1493
   
   for GFN2-xTB:
   * C. Bannwarth, S. Ehlert and S. Grimme., J. Chem. Theory Comput., 2019,
     15, 1652-1671. DOI: 10.1021/acs.jctc.8b01176
   for GFN1-xTB:
   * S. Grimme, C. Bannwarth, P. Shushkov, J. Chem. Theory Comput., 2017,
     13, 1989-2009. DOI: 10.1021/acs.jctc.7b00118
   for GFN0-xTB:
   * P. Pracht, E. Caldeweyher, S. Ehlert, S. Grimme, ChemRxiv, 2019, preprint.
     DOI: 10.26434/chemrxiv.8326202.v1
   for GFN-FF:
   * S. Spicher and S. Grimme, Angew. Chem. Int. Ed., 2020, 59, 15665-15673.
     DOI: 10.1002/anie.202004239
   
   for ALPB and GBSA implicit solvation:
   * S. Ehlert, M. Stahn, S. Spicher, S. Grimme, J. Chem. Theory Comput.,
     2021, 17, 4250-4261. DOI: 10.1021/acs.jctc.1c00471
   
   for DFT-D4:
   * E. Caldeweyher, C. Bannwarth and S. Grimme, J. Chem. Phys., 2017,
     147, 034112. DOI: 10.1063/1.4993215
   * E. Caldeweyher, S. Ehlert, A. Hansen, H. Neugebauer, S. Spicher,
     C. Bannwarth and S. Grimme, J. Chem. Phys., 2019, 150, 154122.
     DOI: 10.1063/1.5090222
   * E. Caldeweyher, J.-M. Mewes, S. Ehlert and S. Grimme, Phys. Chem. Chem. Phys.
     2020, 22, 8499-8512. DOI: 10.1039/D0CP00502A
   
   for sTDA-xTB:
   * S. Grimme and C. Bannwarth, J. Chem. Phys., 2016, 145, 054103.
     DOI: 10.1063/1.4959605
   
   in the mass-spec context:
   * V. Asgeirsson, C. Bauer and S. Grimme, Chem. Sci., 2017, 8, 4879.
     DOI: 10.1039/c7sc00601b
   * J. Koopman and S. Grimme, ACS Omega 2019, 4, 12, 15120-15133.
     DOI: 10.1021/acsomega.9b02011
   
   for metadynamics refer to:
   * S. Grimme, J. Chem. Theory Comput., 2019, 155, 2847-2862
     DOI: 10.1021/acs.jctc.9b00143
   
   for SPH calculations refer to:
   * S. Spicher and S. Grimme, J. Chem. Theory Comput., 2021, 17, 1701-1714
     DOI: 10.1021/acs.jctc.0c01306
   
   with help from (in alphabetical order)
   P. Atkinson, C. Bannwarth, F. Bohle, G. Brandenburg, E. Caldeweyher
   M. Checinski, S. Dohm, S. Ehlert, S. Ehrlich, I. Gerasimov, C. Hölzer
   A. Katbashev, J. Koopman, C. Lavigne, S. Lehtola, F. März, M. Müller,
   F. Musil, H. Neugebauer, J. Pisarek, C. Plett, P. Pracht, F. Pultar,
   J. Seibert, P. Shushkov, S. Spicher, M. Stahn, M. Steiner, T. Strunk,
   J. Stückrath, T. Rose, and J. Unsleber
   
 * started run on 2026/07/23 at 16:40:00.683     

           -------------------------------------------------
          |                Calculation Setup                |
           -------------------------------------------------

          program call               : xtb /home/selva/covalent_quantum_benchmark/data/quantum/erbB_xyz/ERBB2__CHEMBL1630108__state03.xyz --gfn2 --chrg 0 --uhf 0 --iterations 300
          coordinate file            : /home/selva/covalent_quantum_benchmark/data/quantum/erbB_xyz/ERBB2__CHEMBL1630108__state03.xyz
          omp threads                :                    24

   ID    Z sym.   atoms
    1    8 O      1, 4, 24
    2    7 N      2, 15, 17, 19
    3    6 C      3, 5-14, 16, 18, 20-23, 25-30, 32, 33, 35-37
    4    9 F      31
    5   17 Cl     34
    6   16 S      38

           -------------------------------------------------
          |                 G F N 2 - x T B                 |
           -------------------------------------------------

        Reference                      10.1021/acs.jctc.8b01176
      * Hamiltonian:
        H0-scaling (s, p, d)           1.850000    2.230000    2.230000
        zeta-weighting                 0.500000
      * Dispersion:
        s8                             2.700000
        a1                             0.520000
        a2                             5.000000
        s9                             5.000000
      * Repulsion:
        kExp                           1.500000    1.000000
        rExp                           1.000000
      * Coulomb:
        alpha                          2.000000
        third order                    shell-resolved
        anisotropic                    true
        a3                             3.000000
        a5                             4.000000
        cn-shift                       1.200000
        cn-exp                         4.000000
        max-rad                        5.000000


          ...................................................
          :                      SETUP                      :
          :.................................................:
          :  # basis functions                 164          :
          :  # atomic orbitals                 162          :
          :  # shells                           78          :
          :  # electrons                       170          :
          :  max. iterations                   300          :
          :  Hamiltonian                  GFN2-xTB          :
          :  restarted?                      false          :
          :  GBSA solvation                  false          :
          :  PC potential                    false          :
          :  electronic temp.          300.0000000     K    :
          :  accuracy                    1.0000000          :
          :  -> integral cutoff          0.2500000E+02      :
          :  -> integral neglect         0.1000000E-07      :
          :  -> SCF convergence          0.1000000E-05 Eh   :
          :  -> wf. convergence          0.1000000E-03 e    :
          :  Broyden damping             0.4000000          :
          ...................................................

 iter      E             dE          RMSdq      gap      omega  full diag
   1    -94.4976165 -0.944976E+02  0.762E+00    0.08       0.0  T
   2    -81.2942077  0.132034E+02  0.116E+01    0.42       1.0  T
   3    -82.7345460 -0.144034E+01  0.978E+00    0.02       1.0  T
   4    -80.4344153  0.230013E+01  0.949E+00    0.25       1.0  T
   5    -88.9824813 -0.854807E+01  0.789E+00    0.06       1.0  T
   6    -94.1563489 -0.517387E+01  0.459E+00    0.09       1.0  T
   7    -95.1191943 -0.962845E+00  0.406E+00    0.27       1.0  T
   8    -95.1281912 -0.899690E-02  0.336E+00    0.05       1.0  T
   9    -94.2155524  0.912639E+00  0.361E+00    0.03       1.0  T
  10    -94.8477130 -0.632161E+00  0.339E+00    0.12       1.0  T
  11    -95.1886114 -0.340898E+00  0.317E+00    0.20       1.0  T
  12    -95.2078360 -0.192245E-01  0.313E+00    0.19       1.0  T
  13    -95.0971167  0.110719E+00  0.326E+00    0.26       1.0  T
  14    -95.2252742 -0.128157E+00  0.295E+00    0.18       1.0  T
  15    -95.6098171 -0.384543E+00  0.221E+00    0.09       1.0  T
  16    -95.5945297  0.152874E-01  0.220E+00    0.14       1.0  T
  17    -95.6982008 -0.103671E+00  0.175E+00    0.10       1.0  T
  18    -95.7889053 -0.907044E-01  0.140E+00    0.05       1.0  T
  19    -95.8233176 -0.344123E-01  0.120E+00    0.04       1.0  T
  20    -95.7722757  0.510419E-01  0.130E+00    0.04       1.0  T
  21    -95.8202155 -0.479398E-01  0.107E+00    0.05       1.0  T
  22    -95.8350109 -0.147954E-01  0.742E-01    0.03       1.0  T
  23    -95.8680141 -0.330032E-01  0.418E-01    0.01       1.0  T
  24    -95.8616480  0.636615E-02  0.508E-01    0.02       1.0  T
  25    -95.8346593  0.269886E-01  0.658E-01    0.04       1.0  T
  26    -95.8728430 -0.381837E-01  0.247E-01    0.01       1.0  T
  27    -95.8735180 -0.675047E-03  0.253E-01    0.01       1.0  T
  28    -95.8736192 -0.101160E-03  0.228E-01    0.01       1.0  T
  29    -95.8742932 -0.673990E-03  0.195E-01    0.01       1.0  T
  30    -95.8758536 -0.156037E-02  0.135E-01    0.01       1.0  T
  31    -95.8744301  0.142344E-02  0.178E-01    0.01       1.0  T
  32    -95.8761634 -0.173323E-02  0.111E-01    0.01       1.0  T
  33    -95.8771600 -0.996683E-03  0.313E-02    0.00       1.0  T
  34    -95.8771307  0.293344E-04  0.366E-02    0.00       1.0  T
  35    -95.8771384 -0.770358E-05  0.358E-02    0.00       1.0  T
  36    -95.8772368 -0.983772E-04  0.112E-02    0.00       1.5  T
  37    -95.8772455 -0.876801E-05  0.528E-03    0.00       3.1  T
  38    -95.8772427  0.284737E-05  0.705E-03    0.00       2.3  T
  39    -95.8772460 -0.333317E-05  0.300E-03    0.00       5.4  T
  40    -95.8772459  0.139919E-06  0.326E-03    0.00       5.0  T
  41    -95.8772462 -0.281790E-06  0.266E-03    0.00       6.1  T
  42    -95.8772463 -0.121476E-06  0.226E-03    0.00       7.2  T
  43    -95.8772466 -0.345841E-06  0.105E-03    0.00      15.4  T
  44    -95.8772467 -0.307821E-07  0.765E-04    0.00      21.2  T
  45    -95.8772467 -0.330257E-07  0.304E-04    0.00      53.3  T

   *** convergence criteria satisfied after 45 iterations ***

         #    Occupation            Energy/Eh            Energy/eV
      -------------------------------------------------------------
         1        2.0000           -1.0864240             -29.5631
       ...           ...                  ...                  ...
        79        1.9999           -0.4240297             -11.5384
        80        1.9999           -0.4238609             -11.5338
        81        1.9983           -0.4212776             -11.4635
        82        1.9920           -0.4197910             -11.4231
        83        1.9323           -0.4177309             -11.3670
        84        1.7879           -0.4165725             -11.3355
        85        1.1797           -0.4148925             -11.2898 (HOMO)
        86        1.1098           -0.4147569             -11.2861 (LUMO)
        87        0.0002           -0.4059000             -11.0451
        88        0.0000           -0.4032622             -10.9733
        89                         -0.3916892             -10.6584
        90                         -0.3892087             -10.5909
       ...                                ...                  ...
       162                          0.5760735              15.6758
      -------------------------------------------------------------
                  HL-Gap            0.0001356 Eh            0.0037 eV
             Fermi-level           -0.4145474 Eh          -11.2804 eV

 SCC (total)                   0 d,  0 h,  0 min,  0.748 sec
 SCC setup                      ...        0 min,  0.000 sec (  0.062%)
 Dispersion                     ...        0 min,  0.002 sec (  0.211%)
 classical contributions        ...        0 min,  0.001 sec (  0.105%)
 integral evaluation            ...        0 min,  0.008 sec (  1.076%)
 iterations                     ...        0 min,  0.694 sec ( 92.747%)
 molecular gradient             ...        0 min,  0.040 sec (  5.329%)
 printout                       ...        0 min,  0.003 sec (  0.456%)

         :::::::::::::::::::::::::::::::::::::::::::::::::::::
         ::                     SUMMARY                     ::
         :::::::::::::::::::::::::::::::::::::::::::::::::::::
         :: total energy             -94.834124062685 Eh    ::
         :: gradient norm              0.485062246193 Eh/a0 ::
         :: HOMO-LUMO gap              0.003689163846 eV    ::
         ::.................................................::
         :: SCC energy               -95.877246707509 Eh    ::
         :: -> isotropic ES            0.065622306944 Eh    ::
         :: -> anisotropic ES          0.006858130555 Eh    ::
         :: -> anisotropic XC          0.040618263779 Eh    ::
         :: -> dispersion             -0.056301865128 Eh    ::
         :: repulsion energy           1.042984967160 Eh    ::
         :: add. restraining           0.000000000000 Eh    ::
         :: total charge               0.000000000030 e     ::
         :::::::::::::::::::::::::::::::::::::::::::::::::::::

           -------------------------------------------------
          |                Property Printout                |
           -------------------------------------------------

    * Orbital Energies and Occupations

         #    Occupation            Energy/Eh            Energy/eV
      -------------------------------------------------------------
         1        2.0000           -1.0864240             -29.5631
       ...           ...                  ...                  ...
        73        2.0000           -0.4509228             -12.2702
        74        2.0000           -0.4419106             -12.0250
        75        2.0000           -0.4378496             -11.9145
        76        2.0000           -0.4344216             -11.8212
        77        2.0000           -0.4308172             -11.7231
        78        2.0000           -0.4291101             -11.6767
        79        1.9999           -0.4240297             -11.5384
        80        1.9999           -0.4238609             -11.5338
        81        1.9983           -0.4212776             -11.4635
        82        1.9920           -0.4197910             -11.4231
        83        1.9323           -0.4177309             -11.3670
        84        1.7879           -0.4165725             -11.3355
        85        1.1797           -0.4148925             -11.2898 (HOMO)
        86        1.1098           -0.4147569             -11.2861 (LUMO)
        87        0.0002           -0.4059000             -11.0451
        88        0.0000           -0.4032622             -10.9733
        89                         -0.3916892             -10.6584
        90                         -0.3892087             -10.5909
        91                         -0.3645853              -9.9209
        92                         -0.3547084              -9.6521
        93                         -0.3527546              -9.5989
        94                         -0.3507530              -9.5445
        95                         -0.3478846              -9.4664
        96                         -0.3473820              -9.4527
       ...                                ...                  ...
       162                          0.5760735              15.6758
      -------------------------------------------------------------
                  HL-Gap            0.0001356 Eh            0.0037 eV
             Fermi-level           -0.4145474 Eh          -11.2804 eV

     #   Z          covCN         q      C6AA      α(0)
     1   8 O        0.928    -0.140    17.096     5.545
     2   7 N        1.827     0.098    20.177     6.656
     3   6 C        2.735     0.217    23.408     7.921
     4   8 O        0.850    -0.343    20.569     6.080
     5   6 C        1.967     0.005    30.939     8.983
     6   6 C        1.991     0.003    30.980     8.989
     7   6 C        2.976     0.063    26.592     8.459
     8   6 C        2.197    -0.021    31.030     9.013
     9   6 C        2.185    -0.026    31.217     9.038
    10   6 C        2.982     0.054    26.784     8.489
    11   6 C        2.990     0.051    26.838     8.498
    12   6 C        1.990    -0.038    32.070     9.145
    13   6 C        1.987    -0.018    31.524     9.067
    14   6 C        2.929     0.126    25.243     8.240
    15   7 N        1.830    -0.182    25.754     7.520
    16   6 C        1.919     0.172    26.980     8.388
    17   7 N        1.850    -0.153    25.110     7.427
    18   6 C        2.897     0.196    23.827     8.003
    19   7 N        1.855    -0.134    24.681     7.363
    20   6 C        2.916     0.132    25.118     8.218
    21   6 C        1.991    -0.054    32.495     9.206
    22   6 C        1.986    -0.037    32.028     9.139
    23   6 C        2.877     0.149    24.767     8.158
    24   8 O        1.703    -0.128    16.246     5.442
    25   6 C        1.846     0.003    31.072     9.005
    26   6 C        2.960     0.070    26.433     8.433
    27   6 C        1.989     0.020    30.521     8.922
    28   6 C        1.986    -0.022    31.629     9.082
    29   6 C        1.988    -0.005    31.183     9.018
    30   6 C        2.773     0.204    23.673     7.969
    31   9 F        0.787    -0.163    10.861     3.893
    32   6 C        1.990    -0.079    33.211     9.307
    33   6 C        2.879     0.088    26.030     8.364
    34  17 Cl       0.959    -0.079   101.621    15.422
    35   6 C        2.034    -0.073    32.996     9.277
    36   6 C        2.967    -0.003    28.088     8.693
    37   6 C        1.993    -0.070    32.959     9.271
    38  16 S        2.395     0.117   136.378    19.655

 Mol. C6AA /au·bohr⁶  :      42943.841261
 Mol. C8AA /au·bohr⁸  :    1245225.431728
 Mol. α(0) /au        :        329.300979


Wiberg/Mayer (AO) data.
largest (>0.10) Wiberg bond orders for each atom

 ---------------------------------------------------------------------------
     #   Z sym  total        # sym  WBO       # sym  WBO       # sym  WBO
 ---------------------------------------------------------------------------
     1   8 O    2.136 --     2 N    1.889
     2   7 N    3.004 --     1 O    1.889     3 C    0.969
     3   6 C    3.870 --     4 O    1.634     5 C    1.120     2 N    0.969
     4   8 O    1.944 --     3 C    1.634     6 C    0.116
     5   6 C    3.832 --     6 C    2.374     3 C    1.120
     6   6 C    3.856 --     5 C    2.374     7 C    1.204     4 O    0.116
     7   6 C    3.928 --     8 C    1.437     6 C    1.204    38 S    1.078
     8   6 C    3.765 --     9 C    2.013     7 C    1.437    38 S    0.121
     9   6 C    3.775 --     8 C    2.013    10 C    1.473    38 S    0.115
    10   6 C    3.884 --     9 C    1.473    38 S    1.135    11 C    1.069
    11   6 C    3.925 --    37 C    1.360    12 C    1.295    10 C    1.069
    12   6 C    3.676 --    13 C    1.739    11 C    1.295    37 C    0.167
                            36 C    0.100
    13   6 C    3.494 --    12 C    1.739    14 C    1.342    37 C    0.182
    14   6 C    3.909 --    13 C    1.342    36 C    1.187    15 N    1.112
    15   7 N    3.118 --    16 C    1.619    14 C    1.112    17 N    0.107
    16   6 C    3.850 --    17 N    1.758    15 N    1.619
    17   7 N    3.231 --    16 C    1.758    18 C    1.108    15 N    0.107
    18   6 C    3.945 --    19 N    1.613    17 N    1.108    36 C    1.012
    19   7 N    3.201 --    18 C    1.613    20 C    1.124
    20   6 C    3.918 --    35 C    1.326    21 C    1.270    19 N    1.124
    21   6 C    3.642 --    22 C    1.721    20 C    1.270    35 C    0.327
    22   6 C    3.437 --    21 C    1.721    23 C    1.339    35 C    0.140
    23   6 C    3.859 --    22 C    1.339    33 C    1.233    24 O    1.063
    24   8 O    2.514 --    25 C    1.296    23 C    1.063
    25   6 C    2.830 --    24 O    1.296    26 C    1.064    29 C    0.110
    26   6 C    3.952 --    32 C    1.366    27 C    1.339    25 C    1.064
                            29 C    0.112
    27   6 C    3.768 --    28 C    1.662    26 C    1.339    29 C    0.345
                            32 C    0.164    30 C    0.102
    28   6 C    3.777 --    27 C    1.662    29 C    1.611    32 C    0.412
    29   6 C    3.759 --    28 C    1.611    30 C    1.353    27 C    0.345
                            32 C    0.157    26 C    0.112    25 C    0.110
    30   6 C    3.880 --    32 C    1.383    29 C    1.353    31 F    0.995
                            27 C    0.102
    31   9 F    1.164 --    30 C    0.995
    32   6 C    3.614 --    30 C    1.383    26 C    1.366    28 C    0.412
                            27 C    0.164    29 C    0.157
    33   6 C    3.887 --    35 C    1.450    23 C    1.233    34 Cl   1.003
Note: The following floating-point exceptions are signalling: IEEE_UNDERFLOW_FLAG IEEE_DENORMAL
normal termination of xtb
    34  17 Cl   1.184 --    33 C    1.003
    35   6 C    3.397 --    33 C    1.450    20 C    1.326    21 C    0.327
                            22 C    0.140
    36   6 C    3.932 --    37 C    1.446    14 C    1.187    18 C    1.012
                            12 C    0.100
    37   6 C    3.518 --    36 C    1.446    11 C    1.360    13 C    0.182
                            12 C    0.167
    38  16 S    2.599 --    10 C    1.135     7 C    1.078     8 C    0.121
                             9 C    0.115
 ---------------------------------------------------------------------------

Topologies differ in total number of bonds
Writing topology from bond orders to xtbtopo.mol

molecular dipole:
                 x           y           z       tot (Debye)
 q only:       -0.819      -0.176       1.614
   full:       -0.698       0.238       1.282       3.758
molecular quadrupole (traceless):
                xx          xy          yy          xz          yz          zz
 q only:      -11.670      27.524       3.187      30.640     -10.959       8.484
  q+dip:      -16.279      24.163       4.781      31.137     -15.154      11.497
   full:      -11.117      26.790       2.906      33.987     -12.810       8.211


           -------------------------------------------------
          | TOTAL ENERGY              -94.834124062685 Eh   |
          | GRADIENT NORM               0.485062246193 Eh/α |
          | HOMO-LUMO GAP               0.003689163846 eV   |
           -------------------------------------------------

------------------------------------------------------------------------
 * finished run on 2026/07/23 at 16:40:01.459     
------------------------------------------------------------------------
 total:
 * wall-time:     0 d,  0 h,  0 min,  0.776 sec
 *  cpu-time:     0 d,  0 h,  0 min,  0.757 sec
 * ratio c/w:     0.976 speedup
 SCF:
 * wall-time:     0 d,  0 h,  0 min,  0.749 sec
 *  cpu-time:     0 d,  0 h,  0 min,  0.731 sec
 * ratio c/w:     0.976 speedup

