      -----------------------------------------------------------      
     |                   =====================                   |     
     |                           x T B                           |     
     |                   =====================                   |     
     |                         S. Grimme                         |     
     |          Mulliken Center for Theoretical Chemistry        |     
     |                    University of Bonn                     |     
      -----------------------------------------------------------      

   * xtb version 6.6.1 (unknown) compiled by 'builduser@buildhost' on 2023-08-07

   xtb is free software: you can redistribute it and/or modify it under
   the terms of the GNU Lesser General Public License as published by
   the Free Software Foundation, either version 3 of the License, or
   (at your option) any later version.
   
   xtb is distributed in the hope that it will be useful,
   but WITHOUT ANY WARRANTY; without even the implied warranty of
   MERCHANTABILITY or FITNESS FOR A PARTICULAR PURPOSE.  See the
   GNU Lesser General Public License for more details.
   
   Cite this work as:
   * C. Bannwarth, E. Caldeweyher, S. Ehlert, A. Hansen, P. Pracht,
     J. Seibert, S. Spicher, S. Grimme, WIREs Comput. Mol. Sci., 2020, 11,
     e01493. DOI: 10.1002/wcms.1493
   
   for GFN2-xTB:
   * C. Bannwarth, S. Ehlert and S. Grimme., J. Chem. Theory Comput., 2019,
     15, 1652-1671. DOI: 10.1021/acs.jctc.8b01176
   for GFN1-xTB:
   * S. Grimme, C. Bannwarth, P. Shushkov, J. Chem. Theory Comput., 2017,
     13, 1989-2009. DOI: 10.1021/acs.jctc.7b00118
   for GFN0-xTB:
   * P. Pracht, E. Caldeweyher, S. Ehlert, S. Grimme, ChemRxiv, 2019, preprint.
     DOI: 10.26434/chemrxiv.8326202.v1
   for GFN-FF:
   * S. Spicher and S. Grimme, Angew. Chem. Int. Ed., 2020, 59, 15665-15673.
     DOI: 10.1002/anie.202004239
   
   for ALPB and GBSA implicit solvation:
   * S. Ehlert, M. Stahn, S. Spicher, S. Grimme, J. Chem. Theory Comput.,
     2021, 17, 4250-4261. DOI: 10.1021/acs.jctc.1c00471
   
   for DFT-D4:
   * E. Caldeweyher, C. Bannwarth and S. Grimme, J. Chem. Phys., 2017,
     147, 034112. DOI: 10.1063/1.4993215
   * E. Caldeweyher, S. Ehlert, A. Hansen, H. Neugebauer, S. Spicher,
     C. Bannwarth and S. Grimme, J. Chem. Phys., 2019, 150, 154122.
     DOI: 10.1063/1.5090222
   * E. Caldeweyher, J.-M. Mewes, S. Ehlert and S. Grimme, Phys. Chem. Chem. Phys.
     2020, 22, 8499-8512. DOI: 10.1039/D0CP00502A
   
   for sTDA-xTB:
   * S. Grimme and C. Bannwarth, J. Chem. Phys., 2016, 145, 054103.
     DOI: 10.1063/1.4959605
   
   in the mass-spec context:
   * V. Asgeirsson, C. Bauer and S. Grimme, Chem. Sci., 2017, 8, 4879.
     DOI: 10.1039/c7sc00601b
   * J. Koopman and S. Grimme, ACS Omega 2019, 4, 12, 15120-15133.
     DOI: 10.1021/acsomega.9b02011
   
   for metadynamics refer to:
   * S. Grimme, J. Chem. Theory Comput., 2019, 155, 2847-2862
     DOI: 10.1021/acs.jctc.9b00143
   
   for SPH calculations refer to:
   * S. Spicher and S. Grimme, J. Chem. Theory Comput., 2021, 17, 1701-1714
     DOI: 10.1021/acs.jctc.0c01306
   
   with help from (in alphabetical order)
   P. Atkinson, C. Bannwarth, F. Bohle, G. Brandenburg, E. Caldeweyher
   M. Checinski, S. Dohm, S. Ehlert, S. Ehrlich, I. Gerasimov, C. Hölzer
   A. Katbashev, J. Koopman, C. Lavigne, S. Lehtola, F. März, M. Müller,
   F. Musil, H. Neugebauer, J. Pisarek, C. Plett, P. Pracht, F. Pultar,
   J. Seibert, P. Shushkov, S. Spicher, M. Stahn, M. Steiner, T. Strunk,
   J. Stückrath, T. Rose, and J. Unsleber
   
 * started run on 2026/07/23 at 16:41:05.245     

           -------------------------------------------------
          |                Calculation Setup                |
           -------------------------------------------------

          program call               : xtb /home/selva/covalent_quantum_benchmark/data/quantum/erbB_xyz/ERBB2__CHEMBL179659__state01.xyz --gfn2 --chrg 0 --uhf 0 --iterations 300
          coordinate file            : /home/selva/covalent_quantum_benchmark/data/quantum/erbB_xyz/ERBB2__CHEMBL179659__state01.xyz
          omp threads                :                    24

   ID    Z sym.   atoms
    1    6 C      1, 2, 4-6, 8-10, 12, 14-17, 19-27, 29-32, 34, 36-38, 40, 41
    2    8 O      3, 18, 35
    3    7 N      7, 11, 13, 33, 39
    4   17 Cl     28

           -------------------------------------------------
          |                 G F N 2 - x T B                 |
           -------------------------------------------------

        Reference                      10.1021/acs.jctc.8b01176
      * Hamiltonian:
        H0-scaling (s, p, d)           1.850000    2.230000    2.230000
        zeta-weighting                 0.500000
      * Dispersion:
        s8                             2.700000
        a1                             0.520000
        a2                             5.000000
        s9                             5.000000
      * Repulsion:
        kExp                           1.500000    1.000000
        rExp                           1.000000
      * Coulomb:
        alpha                          2.000000
        third order                    shell-resolved
        anisotropic                    true
        a3                             3.000000
        a5                             4.000000
        cn-shift                       1.200000
        cn-exp                         4.000000
        max-rad                        5.000000


          ...................................................
          :                      SETUP                      :
          :.................................................:
          :  # basis functions                 170          :
          :  # atomic orbitals                 169          :
          :  # shells                           83          :
          :  # electrons                       178          :
          :  max. iterations                   300          :
          :  Hamiltonian                  GFN2-xTB          :
          :  restarted?                      false          :
          :  GBSA solvation                  false          :
          :  PC potential                    false          :
          :  electronic temp.          300.0000000     K    :
          :  accuracy                    1.0000000          :
          :  -> integral cutoff          0.2500000E+02      :
          :  -> integral neglect         0.1000000E-07      :
          :  -> SCF convergence          0.1000000E-05 Eh   :
          :  -> wf. convergence          0.1000000E-03 e    :
          :  Broyden damping             0.4000000          :
          ...................................................

 iter      E             dE          RMSdq      gap      omega  full diag
   1    -97.3844132 -0.973844E+02  0.953E+00    0.09       0.0  T
   2    -64.4511946  0.329332E+02  0.145E+01    0.08       1.0  T
   3    -52.7784392  0.116728E+02  0.144E+01    0.09       1.0  T
   4    -76.5690867 -0.237906E+02  0.108E+01    0.04       1.0  T
   5    -91.1863563 -0.146173E+02  0.834E+00    0.14       1.0  T
   6    -93.9675424 -0.278119E+01  0.715E+00    0.12       1.0  T
   7    -95.6876636 -0.172012E+01  0.606E+00    0.16       1.0  T
   8    -97.3155186 -0.162786E+01  0.487E+00    0.33       1.0  T
   9    -97.2996460  0.158727E-01  0.448E+00    0.04       1.0  T
  10    -97.1303181  0.169328E+00  0.417E+00    0.02       1.0  T
  11    -97.8955236 -0.765205E+00  0.367E+00    0.07       1.0  T
  12    -98.1521504 -0.256627E+00  0.306E+00    0.22       1.0  T
  13    -98.4270307 -0.274880E+00  0.262E+00    0.12       1.0  T
  14    -98.4167693  0.102614E-01  0.256E+00    0.12       1.0  T
  15    -98.4887486 -0.719793E-01  0.241E+00    0.11       1.0  T
  16    -98.4860944  0.265427E-02  0.238E+00    0.11       1.0  T
  17    -96.3622674  0.212383E+01  0.535E+00    0.12       1.0  T
  18    -97.5897518 -0.122748E+01  0.388E+00    0.01       1.0  T
  19    -97.5045833  0.851685E-01  0.397E+00    0.02       1.0  T
  20    -98.1012590 -0.596676E+00  0.309E+00    0.01       1.0  T
  21    -98.2776356 -0.176377E+00  0.276E+00    0.01       1.0  T
  22    -97.2534622  0.102417E+01  0.413E+00    0.05       1.0  T
  23    -98.1288132 -0.875351E+00  0.269E+00    0.03       1.0  T
  24    -97.1877414  0.941072E+00  0.408E+00    0.04       1.0  T
  25    -98.0115440 -0.823803E+00  0.291E+00    0.02       1.0  T
  26    -98.4465100 -0.434966E+00  0.200E+00    0.00       1.0  T
  27    -98.1322581  0.314252E+00  0.262E+00    0.00       1.0  T
  28    -98.3749190 -0.242661E+00  0.215E+00    0.00       1.0  T
  29    -98.4275656 -0.526466E-01  0.201E+00    0.01       1.0  T
  30    -98.5853654 -0.157800E+00  0.157E+00    0.01       1.0  T
  31    -98.4926007  0.927647E-01  0.184E+00    0.00       1.0  T
  32    -98.5933775 -0.100777E+00  0.159E+00    0.01       1.0  T
  33    -98.6669282 -0.735507E-01  0.131E+00    0.02       1.0  T
  34    -98.8221422 -0.155214E+00  0.494E-01    0.05       1.0  T
  35    -98.8106345  0.115077E-01  0.577E-01    0.04       1.0  T
  36    -98.8130774 -0.244294E-02  0.539E-01    0.05       1.0  T
  37    -98.8221086 -0.903115E-02  0.375E-01    0.06       1.0  T
  38    -98.8173490  0.475956E-02  0.403E-01    0.06       1.0  T
  39    -98.8136065  0.374246E-02  0.435E-01    0.07       1.0  T
  40    -98.8242203 -0.106137E-01  0.280E-01    0.06       1.0  T
  41    -98.8256181 -0.139780E-02  0.212E-01    0.06       1.0  T
  42    -98.8263070 -0.688882E-03  0.191E-01    0.06       1.0  T
  43    -98.8223951  0.391182E-02  0.266E-01    0.06       1.0  T
  44    -98.8259824 -0.358726E-02  0.183E-01    0.06       1.0  T
  45    -98.8262039 -0.221504E-03  0.175E-01    0.06       1.0  T
  46    -98.8276477 -0.144375E-02  0.116E-01    0.06       1.0  T
  47    -98.8285616 -0.913922E-03  0.734E-02    0.06       1.0  T
  48    -98.8288352 -0.273625E-03  0.489E-02    0.06       1.0  T
  49    -98.8286771  0.158096E-03  0.593E-02    0.06       1.0  T
  50    -98.8287997 -0.122613E-03  0.431E-02    0.06       1.0  T
  51    -98.8289466 -0.146912E-03  0.193E-02    0.05       1.0  T
  52    -98.8289578 -0.111181E-04  0.141E-02    0.05       1.1  T
  53    -98.8289611 -0.333283E-05  0.839E-03    0.05       1.9  T
  54    -98.8289647 -0.358835E-05  0.499E-03    0.05       3.1  T
  55    -98.8289647 -0.341227E-07  0.505E-03    0.05       3.1  T
  56    -98.8289645  0.226558E-06  0.481E-03    0.05       3.2  T
  57    -98.8289649 -0.396537E-06  0.420E-03    0.05       3.7  T
  58    -98.8289658 -0.881659E-06  0.263E-03    0.05       5.9  T
  59    -98.8289661 -0.332733E-06  0.176E-03    0.05       8.9  T
  60    -98.8289661 -0.851708E-08  0.127E-03    0.05      12.3  T
  61    -98.8289662 -0.107907E-06  0.581E-04    0.05      26.9  T
  62    -98.8289662 -0.644937E-08  0.609E-04    0.05      25.6  T

   *** convergence criteria satisfied after 62 iterations ***

         #    Occupation            Energy/Eh            Energy/eV
      -------------------------------------------------------------
         1        2.0000           -1.0900509             -29.6618
       ...           ...                  ...                  ...
        83        2.0000           -0.4320088             -11.7556
        84        2.0000           -0.4302333             -11.7072
        85        1.9996           -0.4253836             -11.5753
        86        1.9954           -0.4230203             -11.5110
        87        1.8469           -0.4196203             -11.4184
        88        1.7044           -0.4189191             -11.3994
        89        1.4790           -0.4182459             -11.3811 (HOMO)
        90        0.5179           -0.4162556             -11.3269 (LUMO)
        91        0.2580           -0.4154402             -11.3047
        92        0.1958           -0.4151448             -11.2967
        93        0.0026           -0.4109427             -11.1823
        94        0.0003           -0.4088779             -11.1261
       ...           ...                  ...                  ...
       169                          1.0505841              28.5878
      -------------------------------------------------------------
                  HL-Gap            0.0019903 Eh            0.0542 eV
             Fermi-level           -0.4172546 Eh          -11.3541 eV

 SCC (total)                   0 d,  0 h,  0 min,  0.937 sec
 SCC setup                      ...        0 min,  0.000 sec (  0.043%)
 Dispersion                     ...        0 min,  0.002 sec (  0.190%)
 classical contributions        ...        0 min,  0.001 sec (  0.078%)
 integral evaluation            ...        0 min,  0.012 sec (  1.276%)
 iterations                     ...        0 min,  0.892 sec ( 95.166%)
 molecular gradient             ...        0 min,  0.028 sec (  2.962%)
 printout                       ...        0 min,  0.003 sec (  0.278%)

         :::::::::::::::::::::::::::::::::::::::::::::::::::::
         ::                     SUMMARY                     ::
         :::::::::::::::::::::::::::::::::::::::::::::::::::::
         :: total energy             -97.715810665547 Eh    ::
         :: gradient norm              0.550385545014 Eh/a0 ::
         :: HOMO-LUMO gap              0.054157665736 eV    ::
         ::.................................................::
         :: SCC energy               -98.828966221197 Eh    ::
         :: -> isotropic ES            0.008867664312 Eh    ::
         :: -> anisotropic ES          0.002786209328 Eh    ::
         :: -> anisotropic XC          0.061914522643 Eh    ::
         :: -> dispersion             -0.063517737939 Eh    ::
         :: repulsion energy           1.112183729119 Eh    ::
         :: add. restraining           0.000000000000 Eh    ::
         :: total charge              -0.000000000001 e     ::
         :::::::::::::::::::::::::::::::::::::::::::::::::::::

           -------------------------------------------------
          |                Property Printout                |
           -------------------------------------------------

    * Orbital Energies and Occupations

         #    Occupation            Energy/Eh            Energy/eV
      -------------------------------------------------------------
         1        2.0000           -1.0900509             -29.6618
       ...           ...                  ...                  ...
        77        2.0000           -0.4518559             -12.2956
        78        2.0000           -0.4482524             -12.1976
        79        2.0000           -0.4421570             -12.0317
        80        2.0000           -0.4408486             -11.9961
        81        2.0000           -0.4383431             -11.9279
        82        2.0000           -0.4340035             -11.8098
        83        2.0000           -0.4320088             -11.7556
        84        2.0000           -0.4302333             -11.7072
        85        1.9996           -0.4253836             -11.5753
        86        1.9954           -0.4230203             -11.5110
        87        1.8469           -0.4196203             -11.4184
        88        1.7044           -0.4189191             -11.3994
        89        1.4790           -0.4182459             -11.3811 (HOMO)
        90        0.5179           -0.4162556             -11.3269 (LUMO)
        91        0.2580           -0.4154402             -11.3047
        92        0.1958           -0.4151448             -11.2967
        93        0.0026           -0.4109427             -11.1823
        94        0.0003           -0.4088779             -11.1261
        95        0.0000           -0.4034015             -10.9771
        96                         -0.3998985             -10.8818
        97                         -0.3990252             -10.8580
        98                         -0.3896635             -10.6033
        99                         -0.3809632             -10.3665
       100                         -0.3700419             -10.0694
       ...                                ...                  ...
       169                          1.0505841              28.5878
      -------------------------------------------------------------
                  HL-Gap            0.0019903 Eh            0.0542 eV
             Fermi-level           -0.4172546 Eh          -11.3541 eV

     #   Z          covCN         q      C6AA      α(0)
     1   6 C        0.976    -0.094    38.854    10.467
     2   6 C        1.854     0.087    28.965     8.694
     3   8 O        1.703    -0.111    15.999     5.400
     4   6 C        2.871     0.162    24.492     8.112
     5   6 C        1.989    -0.068    32.886     9.261
     6   6 C        2.915     0.115    25.459     8.274
     7   7 N        1.831    -0.127    24.527     7.339
     8   6 C        1.934     0.088    28.892     8.680
     9   6 C        2.951     0.024    27.471     8.597
    10   6 C        1.907     0.125    28.035     8.551
    11   7 N        0.911    -0.178    24.861     7.211
    12   6 C        2.901     0.135    25.057     8.207
    13   7 N        1.835    -0.112    24.203     7.291
    14   6 C        2.913     0.131    25.133     8.221
    15   6 C        1.991    -0.045    32.260     9.173
    16   6 C        1.986    -0.076    33.111     9.293
    17   6 C        2.878     0.167    24.407     8.099
    18   8 O        1.702    -0.143    16.460     5.478
    19   6 C        1.846     0.044    30.023     8.851
    20   6 C        2.957     0.081    26.201     8.396
    21   6 C        1.990     0.040    30.029     8.850
    22   6 C        1.984    -0.006    31.202     9.021
    23   6 C        1.990     0.031    30.262     8.884
    24   6 C        2.958     0.107    25.631     8.304
    25   6 C        0.983    -0.074    38.246    10.388
    26   6 C        1.992    -0.037    32.030     9.140
    27   6 C        2.879     0.087    26.055     8.368
    28  17 Cl       0.958    -0.066   101.222    15.392
    29   6 C        2.032    -0.078    33.134     9.297
    30   6 C        2.964     0.013    27.720     8.636
    31   6 C        1.998    -0.070    32.940     9.269
    32   6 C        2.927     0.125    25.249     8.240
    33   7 N        1.832    -0.188    25.889     7.540
    34   6 C        2.791     0.299    21.931     7.671
    35   8 O        0.859    -0.433    22.360     6.340
    36   6 C        1.969     0.015    30.672     8.944
    37   6 C        1.971     0.015    30.688     8.946
    38   6 C        1.906    -0.003    31.178     9.018
    39   7 N        2.721     0.192    18.054     6.311
    40   6 C        0.930    -0.085    38.213    10.356
    41   6 C        0.930    -0.091    38.428    10.385

 Mol. C6AA /au·bohr⁶  :      48877.048970
 Mol. C8AA /au·bohr⁸  :    1374106.852940
 Mol. α(0) /au        :        352.893525


Wiberg/Mayer (AO) data.
largest (>0.10) Wiberg bond orders for each atom

 ---------------------------------------------------------------------------
     #   Z sym  total        # sym  WBO       # sym  WBO       # sym  WBO
 ---------------------------------------------------------------------------
     1   6 C    2.314 --     2 C    2.064
     2   6 C    3.355 --     1 C    2.064     3 O    1.133
     3   8 O    2.411 --     2 C    1.133     4 C    1.064
     4   6 C    3.902 --     5 C    1.460    32 C    1.131     3 O    1.064
     5   6 C    3.635 --     4 C    1.460     6 C    1.387    31 C    0.424
     6   6 C    3.893 --     5 C    1.387     7 N    1.169    30 C    1.112
     7   7 N    3.188 --     8 C    1.671     6 C    1.169
     8   6 C    3.740 --     7 N    1.671     9 C    1.574    13 N    0.106
     9   6 C    3.874 --     8 C    1.574    10 C    1.100    12 C    0.996
    10   6 C    3.945 --    11 N    2.792     9 C    1.100
    11   7 N    2.980 --    10 C    2.792
    12   6 C    3.944 --    13 N    1.652    30 C    1.032     9 C    0.996
    13   7 N    3.236 --    12 C    1.652    14 C    1.121     8 C    0.106
    14   6 C    3.906 --    29 C    1.322    15 C    1.255    13 N    1.121
    15   6 C    3.752 --    16 C    1.770    14 C    1.255    29 C    0.252
    16   6 C    3.525 --    15 C    1.770    17 C    1.317    29 C    0.205
    17   6 C    3.842 --    16 C    1.317    27 C    1.203    18 O    1.041
    18   8 O    2.406 --    19 C    1.131    17 C    1.041
    19   6 C    2.936 --    18 O    1.131    20 C    1.114    29 C    0.124
                            23 C    0.105
    20   6 C    3.946 --    26 C    1.341    21 C    1.309    19 C    1.114
    21   6 C    3.685 --    22 C    1.635    20 C    1.309    23 C    0.280
Note: The following floating-point exceptions are signalling: IEEE_UNDERFLOW_FLAG IEEE_DENORMAL
normal termination of xtb
                            26 C    0.139    25 C    0.107
    22   6 C    3.827 --    23 C    1.652    21 C    1.635    26 C    0.378
    23   6 C    3.599 --    22 C    1.652    24 C    1.229    21 C    0.280
                            26 C    0.150    19 C    0.105
    24   6 C    3.963 --    25 C    1.343    26 C    1.269    23 C    1.229
    25   6 C    1.824 --    24 C    1.343    26 C    0.120    21 C    0.107
    26   6 C    3.508 --    20 C    1.341    24 C    1.269    22 C    0.378
                            23 C    0.150    21 C    0.139    25 C    0.120
    27   6 C    3.875 --    29 C    1.472    17 C    1.203    28 Cl   1.008
    28  17 Cl   1.182 --    27 C    1.008
    29   6 C    3.548 --    27 C    1.472    14 C    1.322    15 C    0.252
                            16 C    0.205    19 C    0.124
    30   6 C    3.928 --    31 C    1.517     6 C    1.112    12 C    1.032
    31   6 C    3.720 --    30 C    1.517    32 C    1.357     5 C    0.424
    32   6 C    3.923 --    31 C    1.357    33 N    1.193     4 C    1.131
    33   7 N    3.167 --    34 C    1.446    32 C    1.193    35 O    0.189
    34   6 C    3.935 --    33 N    1.446    35 O    1.382    36 C    1.007
    35   8 O    1.902 --    34 C    1.382    33 N    0.189
    36   6 C    3.774 --    37 C    2.226    34 C    1.007    40 C    0.151
                            41 C    0.148
    37   6 C    3.833 --    36 C    2.226    38 C    1.387
    38   6 C    3.417 --    37 C    1.387    39 N    0.963    40 C    0.458
                            41 C    0.401
    39   7 N    3.701 --    41 C    1.361    40 C    1.342    38 C    0.963
    40   6 C    2.509 --    39 N    1.342    41 C    0.514    38 C    0.458
                            36 C    0.151
    41   6 C    2.487 --    39 N    1.361    40 C    0.514    38 C    0.401
                            36 C    0.148
 ---------------------------------------------------------------------------

Topologies differ in total number of bonds
Writing topology from bond orders to xtbtopo.mol

molecular dipole:
                 x           y           z       tot (Debye)
 q only:        1.066       0.075       0.827
   full:        0.965       0.093       1.344       4.213
molecular quadrupole (traceless):
                xx          xy          yy          xz          yz          zz
 q only:      -26.511       3.064       5.966       5.621      -0.403      20.545
  q+dip:      -33.189      -8.208      13.008       4.909       1.579      20.181
   full:      -38.551      -7.228      16.492       5.590       2.733      22.059


           -------------------------------------------------
          | TOTAL ENERGY              -97.715810665547 Eh   |
          | GRADIENT NORM               0.550385545014 Eh/α |
          | HOMO-LUMO GAP               0.054157665736 eV   |
           -------------------------------------------------

------------------------------------------------------------------------
 * finished run on 2026/07/23 at 16:41:06.200     
------------------------------------------------------------------------
 total:
 * wall-time:     0 d,  0 h,  0 min,  0.955 sec
 *  cpu-time:     0 d,  0 h,  0 min,  0.940 sec
 * ratio c/w:     0.984 speedup
 SCF:
 * wall-time:     0 d,  0 h,  0 min,  0.938 sec
 *  cpu-time:     0 d,  0 h,  0 min,  0.922 sec
 * ratio c/w:     0.983 speedup

