      -----------------------------------------------------------      
     |                   =====================                   |     
     |                           x T B                           |     
     |                   =====================                   |     
     |                         S. Grimme                         |     
     |          Mulliken Center for Theoretical Chemistry        |     
     |                    University of Bonn                     |     
      -----------------------------------------------------------      

   * xtb version 6.6.1 (unknown) compiled by 'builduser@buildhost' on 2023-08-07

   xtb is free software: you can redistribute it and/or modify it under
   the terms of the GNU Lesser General Public License as published by
   the Free Software Foundation, either version 3 of the License, or
   (at your option) any later version.
   
   xtb is distributed in the hope that it will be useful,
   but WITHOUT ANY WARRANTY; without even the implied warranty of
   MERCHANTABILITY or FITNESS FOR A PARTICULAR PURPOSE.  See the
   GNU Lesser General Public License for more details.
   
   Cite this work as:
   * C. Bannwarth, E. Caldeweyher, S. Ehlert, A. Hansen, P. Pracht,
     J. Seibert, S. Spicher, S. Grimme, WIREs Comput. Mol. Sci., 2020, 11,
     e01493. DOI: 10.1002/wcms.1493
   
   for GFN2-xTB:
   * C. Bannwarth, S. Ehlert and S. Grimme., J. Chem. Theory Comput., 2019,
     15, 1652-1671. DOI: 10.1021/acs.jctc.8b01176
   for GFN1-xTB:
   * S. Grimme, C. Bannwarth, P. Shushkov, J. Chem. Theory Comput., 2017,
     13, 1989-2009. DOI: 10.1021/acs.jctc.7b00118
   for GFN0-xTB:
   * P. Pracht, E. Caldeweyher, S. Ehlert, S. Grimme, ChemRxiv, 2019, preprint.
     DOI: 10.26434/chemrxiv.8326202.v1
   for GFN-FF:
   * S. Spicher and S. Grimme, Angew. Chem. Int. Ed., 2020, 59, 15665-15673.
     DOI: 10.1002/anie.202004239
   
   for ALPB and GBSA implicit solvation:
   * S. Ehlert, M. Stahn, S. Spicher, S. Grimme, J. Chem. Theory Comput.,
     2021, 17, 4250-4261. DOI: 10.1021/acs.jctc.1c00471
   
   for DFT-D4:
   * E. Caldeweyher, C. Bannwarth and S. Grimme, J. Chem. Phys., 2017,
     147, 034112. DOI: 10.1063/1.4993215
   * E. Caldeweyher, S. Ehlert, A. Hansen, H. Neugebauer, S. Spicher,
     C. Bannwarth and S. Grimme, J. Chem. Phys., 2019, 150, 154122.
     DOI: 10.1063/1.5090222
   * E. Caldeweyher, J.-M. Mewes, S. Ehlert and S. Grimme, Phys. Chem. Chem. Phys.
     2020, 22, 8499-8512. DOI: 10.1039/D0CP00502A
   
   for sTDA-xTB:
   * S. Grimme and C. Bannwarth, J. Chem. Phys., 2016, 145, 054103.
     DOI: 10.1063/1.4959605
   
   in the mass-spec context:
   * V. Asgeirsson, C. Bauer and S. Grimme, Chem. Sci., 2017, 8, 4879.
     DOI: 10.1039/c7sc00601b
   * J. Koopman and S. Grimme, ACS Omega 2019, 4, 12, 15120-15133.
     DOI: 10.1021/acsomega.9b02011
   
   for metadynamics refer to:
   * S. Grimme, J. Chem. Theory Comput., 2019, 155, 2847-2862
     DOI: 10.1021/acs.jctc.9b00143
   
   for SPH calculations refer to:
   * S. Spicher and S. Grimme, J. Chem. Theory Comput., 2021, 17, 1701-1714
     DOI: 10.1021/acs.jctc.0c01306
   
   with help from (in alphabetical order)
   P. Atkinson, C. Bannwarth, F. Bohle, G. Brandenburg, E. Caldeweyher
   M. Checinski, S. Dohm, S. Ehlert, S. Ehrlich, I. Gerasimov, C. Hölzer
   A. Katbashev, J. Koopman, C. Lavigne, S. Lehtola, F. März, M. Müller,
   F. Musil, H. Neugebauer, J. Pisarek, C. Plett, P. Pracht, F. Pultar,
   J. Seibert, P. Shushkov, S. Spicher, M. Stahn, M. Steiner, T. Strunk,
   J. Stückrath, T. Rose, and J. Unsleber
   
 * started run on 2026/07/23 at 16:41:24.665     

           -------------------------------------------------
          |                Calculation Setup                |
           -------------------------------------------------

          program call               : xtb /home/selva/covalent_quantum_benchmark/data/quantum/erbB_xyz/ERBB2__CHEMBL201511__state02.xyz --gfn2 --chrg 0 --uhf 0 --iterations 300
          coordinate file            : /home/selva/covalent_quantum_benchmark/data/quantum/erbB_xyz/ERBB2__CHEMBL201511__state02.xyz
          omp threads                :                    24

   ID    Z sym.   atoms
    1    6 C      1, 3-9, 11-17, 20, 22, 23, 25, 26, 28
    2    8 O      2, 18, 21, 24, 27
    3    7 N      10, 19

           -------------------------------------------------
          |                 G F N 2 - x T B                 |
           -------------------------------------------------

        Reference                      10.1021/acs.jctc.8b01176
      * Hamiltonian:
        H0-scaling (s, p, d)           1.850000    2.230000    2.230000
        zeta-weighting                 0.500000
      * Dispersion:
        s8                             2.700000
        a1                             0.520000
        a2                             5.000000
        s9                             5.000000
      * Repulsion:
        kExp                           1.500000    1.000000
        rExp                           1.000000
      * Coulomb:
        alpha                          2.000000
        third order                    shell-resolved
        anisotropic                    true
        a3                             3.000000
        a5                             4.000000
        cn-shift                       1.200000
        cn-exp                         4.000000
        max-rad                        5.000000


          ...................................................
          :                      SETUP                      :
          :.................................................:
          :  # basis functions                 112          :
          :  # atomic orbitals                 112          :
          :  # shells                           56          :
          :  # electrons                       124          :
          :  max. iterations                   300          :
          :  Hamiltonian                  GFN2-xTB          :
          :  restarted?                      false          :
          :  GBSA solvation                  false          :
          :  PC potential                    false          :
          :  electronic temp.          300.0000000     K    :
          :  accuracy                    1.0000000          :
          :  -> integral cutoff          0.2500000E+02      :
          :  -> integral neglect         0.1000000E-07      :
          :  -> SCF convergence          0.1000000E-05 Eh   :
          :  -> wf. convergence          0.1000000E-03 e    :
          :  Broyden damping             0.4000000          :
          ...................................................

 iter      E             dE          RMSdq      gap      omega  full diag
   1    -68.9528587 -0.689529E+02  0.917E+00    0.32       0.0  T
   2    -46.5689107  0.223839E+02  0.153E+01    0.41       1.0  T
   3    -60.3310342 -0.137621E+02  0.978E+00    0.53       1.0  T
   4    -59.7626202  0.568414E+00  0.108E+01    0.22       1.0  T
   5    -68.5531368 -0.879052E+01  0.652E+00    0.22       1.0  T
   6    -69.1569039 -0.603767E+00  0.506E+00    0.22       1.0  T
   7    -69.9496779 -0.792774E+00  0.433E+00    0.15       1.0  T
   8    -69.9589223 -0.924440E-02  0.464E+00    0.07       1.0  T
   9    -70.3306786 -0.371756E+00  0.333E+00    0.05       1.0  T
  10    -67.8018211  0.252886E+01  0.695E+00    0.08       1.0  T
  11    -69.5151853 -0.171336E+01  0.562E+00    0.18       1.0  T
  12    -69.5095065  0.567883E-02  0.519E+00    0.09       1.0  T
  13    -68.6463108  0.863196E+00  0.612E+00    0.02       1.0  T
  14    -68.2898199  0.356491E+00  0.632E+00    0.10       1.0  T
  15    -68.0692077  0.220612E+00  0.637E+00    0.10       1.0  T
  16    -68.0456669  0.235408E-01  0.649E+00    0.03       1.0  T
  17    -68.5230301 -0.477363E+00  0.606E+00    0.14       1.0  T
  18    -69.1850335 -0.662003E+00  0.540E+00    0.04       1.0  T
  19    -69.6820406 -0.497007E+00  0.477E+00    0.10       1.0  T
  20    -69.1519011  0.530140E+00  0.519E+00    0.03       1.0  T
  21    -69.6265008 -0.474600E+00  0.451E+00    0.03       1.0  T
  22    -69.5910463  0.354546E-01  0.457E+00    0.04       1.0  T
  23    -69.5332093  0.578370E-01  0.470E+00    0.04       1.0  T
  24    -69.2715577  0.261652E+00  0.504E+00    0.06       1.0  T
  25    -69.4773494 -0.205792E+00  0.474E+00    0.05       1.0  T
  26    -69.4925397 -0.151902E-01  0.461E+00    0.03       1.0  T
  27    -70.1463218 -0.653782E+00  0.318E+00    0.04       1.0  T
  28    -70.0173028  0.129019E+00  0.345E+00    0.03       1.0  T
  29    -70.2776386 -0.260336E+00  0.266E+00    0.04       1.0  T
  30    -70.3404652 -0.628266E-01  0.239E+00    0.04       1.0  T
  31    -70.5092364 -0.168771E+00  0.157E+00    0.02       1.0  T
  32    -70.5229964 -0.137600E-01  0.147E+00    0.02       1.0  T
  33    -70.4727775  0.502189E-01  0.178E+00    0.03       1.0  T
  34    -70.5642640 -0.914865E-01  0.108E+00    0.03       1.0  T
  35    -70.5281461  0.361179E-01  0.148E+00    0.02       1.0  T
  36    -70.5782042 -0.500581E-01  0.110E+00    0.00       1.0  T
  37    -70.5611909  0.170133E-01  0.124E+00    0.00       1.0  T
  38    -70.5458897  0.153012E-01  0.135E+00    0.01       1.0  T
  39    -70.5690362 -0.231465E-01  0.115E+00    0.01       1.0  T
  40    -70.5702873 -0.125106E-02  0.114E+00    0.01       1.0  T
  41    -70.5780104 -0.772312E-02  0.105E+00    0.01       1.0  T
  42    -70.6001251 -0.221147E-01  0.680E-01    0.03       1.0  T
  43    -70.6081336 -0.800857E-02  0.464E-01    0.03       1.0  T
  44    -70.6096935 -0.155989E-02  0.391E-01    0.03       1.0  T
  45    -70.6113634 -0.166992E-02  0.252E-01    0.04       1.0  T
  46    -70.6112869  0.765703E-04  0.238E-01    0.04       1.0  T
  47    -70.6110195  0.267310E-03  0.275E-01    0.03       1.0  T
  48    -70.6116883 -0.668747E-03  0.230E-01    0.03       1.0  T
  49    -70.6120666 -0.378260E-03  0.182E-01    0.03       1.0  T
  50    -70.6122963 -0.229778E-03  0.148E-01    0.03       1.0  T
  51    -70.6122978 -0.147193E-05  0.138E-01    0.03       1.0  T
  52    -70.6119536  0.344207E-03  0.163E-01    0.03       1.0  T
  53    -70.6115650  0.388617E-03  0.174E-01    0.03       1.0  T
  54    -70.6118711 -0.306086E-03  0.139E-01    0.03       1.0  T
  55    -70.6122561 -0.385056E-03  0.839E-02    0.03       1.0  T
  56    -70.6123679 -0.111778E-03  0.560E-02    0.03       1.0  T
  57    -70.6124199 -0.520270E-04  0.384E-02    0.03       1.0  T
  58    -70.6124473 -0.274206E-04  0.238E-02    0.03       1.0  T
  59    -70.6124635 -0.161694E-04  0.128E-02    0.03       1.5  T
  60    -70.6124677 -0.416152E-05  0.781E-03    0.03       2.4  T
  61    -70.6124687 -0.106101E-05  0.641E-03    0.03       2.9  T
  62    -70.6124696 -0.824663E-06  0.384E-03    0.03       4.9  T
  63    -70.6124696 -0.365518E-07  0.325E-03    0.03       5.8  T
  64    -70.6124698 -0.199713E-06  0.201E-03    0.03       9.4  T
  65    -70.6124698 -0.324317E-08  0.194E-03    0.03       9.8  T
  66    -70.6124698  0.172983E-07  0.192E-03    0.03       9.9  T
  67    -70.6124699 -0.810997E-07  0.142E-03    0.03      13.3  T
  68    -70.6124699 -0.284713E-07  0.112E-03    0.03      16.9  T
  69    -70.6124699 -0.293405E-07  0.801E-04    0.03      23.6  T
  70    -70.6124699  0.484138E-08  0.730E-04    0.03      25.9  T

   *** convergence criteria satisfied after 70 iterations ***

         #    Occupation            Energy/Eh            Energy/eV
      -------------------------------------------------------------
         1        2.0000           -0.8285652             -22.5464
       ...           ...                  ...                  ...
        56        2.0000           -0.4617367             -12.5645
        57        2.0000           -0.4467939             -12.1579
        58        2.0000           -0.4400394             -11.9741
        59        2.0000           -0.4349753             -11.8363
        60        1.9996           -0.4307504             -11.7213
        61        1.9472           -0.4261231             -11.5954
        62        1.2230           -0.4231271             -11.5139 (HOMO)
        63        0.5935           -0.4218764             -11.4798 (LUMO)
        64        0.2332           -0.4207723             -11.4498
        65        0.0021           -0.4161892             -11.3251
        66        0.0013           -0.4157566             -11.3133
        67                         -0.4067002             -11.0669
       ...                                ...                  ...
       112                          0.6977317              18.9862
      -------------------------------------------------------------
                  HL-Gap            0.0012507 Eh            0.0340 eV
             Fermi-level           -0.4226961 Eh          -11.5021 eV

 SCC (total)                   0 d,  0 h,  0 min,  0.685 sec
 SCC setup                      ...        0 min,  0.000 sec (  0.072%)
 Dispersion                     ...        0 min,  0.001 sec (  0.202%)
 classical contributions        ...        0 min,  0.001 sec (  0.145%)
 integral evaluation            ...        0 min,  0.011 sec (  1.667%)
 iterations                     ...        0 min,  0.644 sec ( 93.977%)
 molecular gradient             ...        0 min,  0.026 sec (  3.770%)
 printout                       ...        0 min,  0.001 sec (  0.160%)

         :::::::::::::::::::::::::::::::::::::::::::::::::::::
         ::                     SUMMARY                     ::
         :::::::::::::::::::::::::::::::::::::::::::::::::::::
         :: total energy             -69.857306263114 Eh    ::
         :: gradient norm              0.396331672379 Eh/a0 ::
         :: HOMO-LUMO gap              0.034033565862 eV    ::
         ::.................................................::
         :: SCC energy               -70.612469918682 Eh    ::
         :: -> isotropic ES            0.033699629086 Eh    ::
         :: -> anisotropic ES          0.013781970321 Eh    ::
         :: -> anisotropic XC          0.016692201026 Eh    ::
         :: -> dispersion             -0.043704630828 Eh    ::
         :: repulsion energy           0.754539615598 Eh    ::
         :: add. restraining           0.000000000000 Eh    ::
         :: total charge              -0.000000000001 e     ::
         :::::::::::::::::::::::::::::::::::::::::::::::::::::

           -------------------------------------------------
          |                Property Printout                |
           -------------------------------------------------

    * Orbital Energies and Occupations

         #    Occupation            Energy/Eh            Energy/eV
      -------------------------------------------------------------
         1        2.0000           -0.8285652             -22.5464
       ...           ...                  ...                  ...
        50        2.0000           -0.4889754             -13.3057
        51        2.0000           -0.4841327             -13.1739
        52        2.0000           -0.4803824             -13.0719
        53        2.0000           -0.4753284             -12.9343
        54        2.0000           -0.4723633             -12.8537
        55        2.0000           -0.4631569             -12.6031
        56        2.0000           -0.4617367             -12.5645
        57        2.0000           -0.4467939             -12.1579
        58        2.0000           -0.4400394             -11.9741
        59        2.0000           -0.4349753             -11.8363
        60        1.9996           -0.4307504             -11.7213
        61        1.9472           -0.4261231             -11.5954
        62        1.2230           -0.4231271             -11.5139 (HOMO)
        63        0.5935           -0.4218764             -11.4798 (LUMO)
        64        0.2332           -0.4207723             -11.4498
        65        0.0021           -0.4161892             -11.3251
        66        0.0013           -0.4157566             -11.3133
        67                         -0.4067002             -11.0669
        68                         -0.4045622             -11.0087
        69                         -0.3975483             -10.8178
        70                         -0.3927205             -10.6865
        71                         -0.3647471              -9.9253
        72                         -0.3554768              -9.6730
        73                         -0.3225900              -8.7781
       ...                                ...                  ...
       112                          0.6977317              18.9862
      -------------------------------------------------------------
                  HL-Gap            0.0012507 Eh            0.0340 eV
             Fermi-level           -0.4226961 Eh          -11.5021 eV

     #   Z          covCN         q      C6AA      α(0)
     1   6 C        0.901    -0.021    35.986    10.034
     2   8 O        1.702    -0.060    15.285     5.279
     3   6 C        2.890     0.140    24.942     8.188
     4   6 C        1.992    -0.078    33.165     9.300
     5   6 C        2.964     0.065    26.534     8.449
     6   6 C        3.058     0.012    27.682     8.628
     7   6 C        3.043     0.025    27.394     8.584
     8   6 C        2.974     0.030    27.321     8.574
     9   6 C        2.145     0.045    29.600     8.795
    10   7 N        1.843    -0.123    24.448     7.328
    11   6 C        3.137     0.104    25.483     8.262
    12   6 C        1.985    -0.045    32.249     9.171
    13   6 C        1.991     0.040    30.027     8.849
    14   6 C        1.992     0.045    29.896     8.830
    15   6 C        1.982    -0.031    31.872     9.117
    16   6 C        3.048     0.031    27.255     8.562
    17   6 C        2.948     0.306    21.816     7.661
    18   8 O        0.857    -0.305    19.872     5.977
    19   7 N        1.886    -0.231    26.895     7.688
    20   6 C        2.937     0.303    21.877     7.671
    21   8 O        0.857    -0.328    20.291     6.039
    22   6 C        1.992    -0.052    32.446     9.199
    23   6 C        2.854     0.143    24.886     8.176
    24   8 O        1.703    -0.046    15.084     5.244
    25   6 C        0.868    -0.003    35.229     9.911
    26   6 C        2.901     0.123    25.309     8.249
    27   8 O        1.702    -0.069    15.406     5.299
    28   6 C        0.909    -0.023    36.129    10.058

 Mol. C6AA /au·bohr⁶  :      20482.334704
 Mol. C8AA /au·bohr⁸  :     554530.895891
 Mol. α(0) /au        :        227.122667


Wiberg/Mayer (AO) data.
largest (>0.10) Wiberg bond orders for each atom

 ---------------------------------------------------------------------------
     #   Z sym  total        # sym  WBO       # sym  WBO       # sym  WBO
 ---------------------------------------------------------------------------
     1   6 C    2.051 --     2 O    1.529     4 C    0.137    28 C    0.136
                            22 C    0.105
     2   8 O    2.580 --     1 C    1.529     3 C    0.964
     3   6 C    3.902 --     4 C    1.384    26 C    1.310     2 O    0.964
     4   6 C    3.589 --     3 C    1.384     5 C    1.336    22 C    0.352
                             1 C    0.137
     5   6 C    3.970 --    22 C    1.371     4 C    1.336     6 C    1.057
     6   6 C    3.895 --     7 C    1.648     5 C    1.057    20 C    0.907
     7   6 C    3.951 --     6 C    1.648     8 C    1.148    17 C    0.850
     8   6 C    3.713 --     7 C    1.148     9 C    1.053    16 C    1.048
                            19 N    0.133
     9   6 C    3.372 --    10 N    1.863     8 C    1.053
    10   7 N    3.152 --     9 C    1.863    11 C    1.050
    11   6 C    3.894 --    12 C    1.395    16 C    1.166    10 N    1.050
                            14 C    0.110
    12   6 C    3.722 --    13 C    1.634    11 C    1.395    15 C    0.415
                            14 C    0.129
    13   6 C    3.827 --    14 C    1.836    12 C    1.634    15 C    0.119
                            16 C    0.111
    14   6 C    3.857 --    13 C    1.836    15 C    1.644    12 C    0.129
                            11 C    0.110
    15   6 C    3.760 --    14 C    1.644    16 C    1.410    12 C    0.415
                            13 C    0.119
    16   6 C    3.924 --    15 C    1.410    11 C    1.166     8 C    1.048
                            13 C    0.111
    17   6 C    3.945 --    18 O    1.708    19 N    1.263     7 C    0.850
Note: The following floating-point exceptions are signalling: IEEE_UNDERFLOW_FLAG IEEE_DENORMAL
normal termination of xtb
    18   8 O    2.154 --    17 C    1.708    19 N    0.166
    19   7 N    3.112 --    17 C    1.263    20 C    1.222    18 O    0.166
                            21 O    0.139     8 C    0.133
    20   6 C    3.950 --    21 O    1.711    19 N    1.222     6 C    0.907
    21   8 O    2.102 --    20 C    1.711    19 N    0.139
    22   6 C    3.679 --     5 C    1.371    23 C    1.358     4 C    0.352
                            25 C    0.223     1 C    0.105
    23   6 C    3.892 --    22 C    1.358    26 C    1.261    24 O    1.031
    24   8 O    2.626 --    25 C    1.508    23 C    1.031
    25   6 C    2.096 --    24 O    1.508    22 C    0.223    28 C    0.137
    26   6 C    3.886 --     3 C    1.310    23 C    1.261    27 O    0.967
    27   8 O    2.558 --    28 C    1.479    26 C    0.967
    28   6 C    1.989 --    27 O    1.479    25 C    0.137     1 C    0.136
 ---------------------------------------------------------------------------

Topologies differ in total number of bonds
Writing topology from bond orders to xtbtopo.mol

molecular dipole:
                 x           y           z       tot (Debye)
 q only:       -1.368      -0.847       1.136
   full:       -1.437      -1.114       1.679       6.291
molecular quadrupole (traceless):
                xx          xy          yy          xz          yz          zz
 q only:       -2.354     -12.864      -9.337       9.415       6.874      11.691
  q+dip:       -1.721     -13.585     -12.446      17.585       9.269      14.166
   full:       -1.869     -16.749     -11.258      18.211      10.150      13.128


           -------------------------------------------------
          | TOTAL ENERGY              -69.857306263114 Eh   |
          | GRADIENT NORM               0.396331672379 Eh/α |
          | HOMO-LUMO GAP               0.034033565862 eV   |
           -------------------------------------------------

------------------------------------------------------------------------
 * finished run on 2026/07/23 at 16:41:25.373     
------------------------------------------------------------------------
 total:
 * wall-time:     0 d,  0 h,  0 min,  0.708 sec
 *  cpu-time:     0 d,  0 h,  0 min,  0.625 sec
 * ratio c/w:     0.883 speedup
 SCF:
 * wall-time:     0 d,  0 h,  0 min,  0.685 sec
 *  cpu-time:     0 d,  0 h,  0 min,  0.601 sec
 * ratio c/w:     0.877 speedup

