      -----------------------------------------------------------      
     |                   =====================                   |     
     |                           x T B                           |     
     |                   =====================                   |     
     |                         S. Grimme                         |     
     |          Mulliken Center for Theoretical Chemistry        |     
     |                    University of Bonn                     |     
      -----------------------------------------------------------      

   * xtb version 6.6.1 (unknown) compiled by 'builduser@buildhost' on 2023-08-07

   xtb is free software: you can redistribute it and/or modify it under
   the terms of the GNU Lesser General Public License as published by
   the Free Software Foundation, either version 3 of the License, or
   (at your option) any later version.
   
   xtb is distributed in the hope that it will be useful,
   but WITHOUT ANY WARRANTY; without even the implied warranty of
   MERCHANTABILITY or FITNESS FOR A PARTICULAR PURPOSE.  See the
   GNU Lesser General Public License for more details.
   
   Cite this work as:
   * C. Bannwarth, E. Caldeweyher, S. Ehlert, A. Hansen, P. Pracht,
     J. Seibert, S. Spicher, S. Grimme, WIREs Comput. Mol. Sci., 2020, 11,
     e01493. DOI: 10.1002/wcms.1493
   
   for GFN2-xTB:
   * C. Bannwarth, S. Ehlert and S. Grimme., J. Chem. Theory Comput., 2019,
     15, 1652-1671. DOI: 10.1021/acs.jctc.8b01176
   for GFN1-xTB:
   * S. Grimme, C. Bannwarth, P. Shushkov, J. Chem. Theory Comput., 2017,
     13, 1989-2009. DOI: 10.1021/acs.jctc.7b00118
   for GFN0-xTB:
   * P. Pracht, E. Caldeweyher, S. Ehlert, S. Grimme, ChemRxiv, 2019, preprint.
     DOI: 10.26434/chemrxiv.8326202.v1
   for GFN-FF:
   * S. Spicher and S. Grimme, Angew. Chem. Int. Ed., 2020, 59, 15665-15673.
     DOI: 10.1002/anie.202004239
   
   for ALPB and GBSA implicit solvation:
   * S. Ehlert, M. Stahn, S. Spicher, S. Grimme, J. Chem. Theory Comput.,
     2021, 17, 4250-4261. DOI: 10.1021/acs.jctc.1c00471
   
   for DFT-D4:
   * E. Caldeweyher, C. Bannwarth and S. Grimme, J. Chem. Phys., 2017,
     147, 034112. DOI: 10.1063/1.4993215
   * E. Caldeweyher, S. Ehlert, A. Hansen, H. Neugebauer, S. Spicher,
     C. Bannwarth and S. Grimme, J. Chem. Phys., 2019, 150, 154122.
     DOI: 10.1063/1.5090222
   * E. Caldeweyher, J.-M. Mewes, S. Ehlert and S. Grimme, Phys. Chem. Chem. Phys.
     2020, 22, 8499-8512. DOI: 10.1039/D0CP00502A
   
   for sTDA-xTB:
   * S. Grimme and C. Bannwarth, J. Chem. Phys., 2016, 145, 054103.
     DOI: 10.1063/1.4959605
   
   in the mass-spec context:
   * V. Asgeirsson, C. Bauer and S. Grimme, Chem. Sci., 2017, 8, 4879.
     DOI: 10.1039/c7sc00601b
   * J. Koopman and S. Grimme, ACS Omega 2019, 4, 12, 15120-15133.
     DOI: 10.1021/acsomega.9b02011
   
   for metadynamics refer to:
   * S. Grimme, J. Chem. Theory Comput., 2019, 155, 2847-2862
     DOI: 10.1021/acs.jctc.9b00143
   
   for SPH calculations refer to:
   * S. Spicher and S. Grimme, J. Chem. Theory Comput., 2021, 17, 1701-1714
     DOI: 10.1021/acs.jctc.0c01306
   
   with help from (in alphabetical order)
   P. Atkinson, C. Bannwarth, F. Bohle, G. Brandenburg, E. Caldeweyher
   M. Checinski, S. Dohm, S. Ehlert, S. Ehrlich, I. Gerasimov, C. Hölzer
   A. Katbashev, J. Koopman, C. Lavigne, S. Lehtola, F. März, M. Müller,
   F. Musil, H. Neugebauer, J. Pisarek, C. Plett, P. Pracht, F. Pultar,
   J. Seibert, P. Shushkov, S. Spicher, M. Stahn, M. Steiner, T. Strunk,
   J. Stückrath, T. Rose, and J. Unsleber
   
 * started run on 2026/07/23 at 16:40:56.902     

           -------------------------------------------------
          |                Calculation Setup                |
           -------------------------------------------------

          program call               : xtb /home/selva/covalent_quantum_benchmark/data/quantum/erbB_xyz/ERBB2__CHEMBL179527__state00.xyz --gfn2 --chrg 0 --uhf 0 --iterations 300
          coordinate file            : /home/selva/covalent_quantum_benchmark/data/quantum/erbB_xyz/ERBB2__CHEMBL179527__state00.xyz
          omp threads                :                    24

   ID    Z sym.   atoms
    1    6 C      1, 2, 4-6, 8-10, 12, 14-17, 19-25, 27, 28, 30-33, 35,
                  37-39, 41, 42
    2    8 O      3, 18, 36
    3    7 N      7, 11, 13, 26, 34, 40
    4   17 Cl     29

           -------------------------------------------------
          |                 G F N 2 - x T B                 |
           -------------------------------------------------

        Reference                      10.1021/acs.jctc.8b01176
      * Hamiltonian:
        H0-scaling (s, p, d)           1.850000    2.230000    2.230000
        zeta-weighting                 0.500000
      * Dispersion:
        s8                             2.700000
        a1                             0.520000
        a2                             5.000000
        s9                             5.000000
      * Repulsion:
        kExp                           1.500000    1.000000
        rExp                           1.000000
      * Coulomb:
        alpha                          2.000000
        third order                    shell-resolved
        anisotropic                    true
        a3                             3.000000
        a5                             4.000000
        cn-shift                       1.200000
        cn-exp                         4.000000
        max-rad                        5.000000


          ...................................................
          :                      SETUP                      :
          :.................................................:
          :  # basis functions                 174          :
          :  # atomic orbitals                 173          :
          :  # shells                           85          :
          :  # electrons                       183          :
          :  max. iterations                   300          :
          :  Hamiltonian                  GFN2-xTB          :
          :  restarted?                      false          :
          :  GBSA solvation                  false          :
          :  PC potential                    false          :
          :  electronic temp.          300.0000000     K    :
          :  accuracy                    1.0000000          :
          :  -> integral cutoff          0.2500000E+02      :
          :  -> integral neglect         0.1000000E-07      :
          :  -> SCF convergence          0.1000000E-05 Eh   :
          :  -> wf. convergence          0.1000000E-03 e    :
          :  Broyden damping             0.4000000          :
          ...................................................

 iter      E             dE          RMSdq      gap      omega  full diag
   1   -100.9705859 -0.100971E+03  0.889E+00    0.33       0.0  T
   2    -85.8563342  0.151143E+02  0.111E+01    0.07       1.0  T
   3    -62.7644686  0.230919E+02  0.125E+01    0.07       1.0  T
   4    -70.0554290 -0.729096E+01  0.121E+01    0.08       1.0  T
   5    -97.3892368 -0.273338E+02  0.794E+00    0.01       1.0  T
   6    -94.8480464  0.254119E+01  0.668E+00    0.02       1.0  T
   7    -96.2165826 -0.136854E+01  0.745E+00    0.42       1.0  T
   8   -100.6258438 -0.440926E+01  0.525E+00    0.29       1.0  T
   9    -99.6858320  0.940012E+00  0.504E+00    0.37       1.0  T
  10   -100.0994304 -0.413598E+00  0.444E+00    0.05       1.0  T
  11   -101.3013757 -0.120195E+01  0.325E+00    0.04       1.0  T
  12   -101.3546451 -0.532694E-01  0.331E+00    0.02       1.0  T
  13   -101.3528388  0.180631E-02  0.277E+00    0.02       1.0  T
  14   -101.5939868 -0.241148E+00  0.267E+00    0.21       1.0  T
  15   -101.6673575 -0.733707E-01  0.248E+00    0.15       1.0  T
  16   -101.6712317 -0.387413E-02  0.239E+00    0.16       1.0  T
  17   -101.6472323  0.239994E-01  0.243E+00    0.14       1.0  T
  18   -101.1367162  0.510516E+00  0.285E+00    0.11       1.0  T
  19   -100.8430271  0.293689E+00  0.327E+00    0.08       1.0  T
  20   -101.0818878 -0.238861E+00  0.296E+00    0.10       1.0  T
  21   -101.0477385  0.341493E-01  0.312E+00    0.11       1.0  T
  22   -100.8499560  0.197783E+00  0.351E+00    0.09       1.0  T
  23   -100.8219794  0.279766E-01  0.356E+00    0.09       1.0  T
  24   -100.9014984 -0.795191E-01  0.349E+00    0.06       1.0  T
  25   -101.8110693 -0.909571E+00  0.172E+00    0.03       1.0  T
  26   -101.3634461  0.447623E+00  0.269E+00    0.02       1.0  T
  27   -101.1320284  0.231418E+00  0.311E+00    0.07       1.0  T
  28   -101.8745901 -0.742562E+00  0.140E+00    0.02       1.0  T
  29   -101.0737502  0.800840E+00  0.314E+00    0.03       1.0  T
  30   -101.5020451 -0.428295E+00  0.236E+00    0.03       1.0  T
  31   -101.6629708 -0.160926E+00  0.193E+00    0.01       1.0  T
  32   -101.8925126 -0.229542E+00  0.115E+00    0.07       1.0  T
  33   -101.8968216 -0.430901E-02  0.110E+00    0.08       1.0  T
  34   -101.8937150  0.310661E-02  0.115E+00    0.07       1.0  T
  35   -101.9652999 -0.715849E-01  0.792E-01    0.07       1.0  T
  36   -101.9254694  0.398305E-01  0.984E-01    0.02       1.0  T
  37   -101.9410821 -0.156126E-01  0.887E-01    0.04       1.0  T
  38   -101.9553902 -0.143082E-01  0.794E-01    0.05       1.0  T
  39   -101.9825121 -0.271218E-01  0.583E-01    0.05       1.0  T
  40   -101.9450954  0.374167E-01  0.827E-01    0.02       1.0  T
  41   -102.0026274 -0.575320E-01  0.323E-01    0.04       1.0  T
  42   -102.0067825 -0.415510E-02  0.227E-01    0.05       1.0  T
  43   -102.0019716  0.481085E-02  0.305E-01    0.04       1.0  T
  44   -102.0047534 -0.278177E-02  0.241E-01    0.04       1.0  T
  45   -102.0014275  0.332593E-02  0.288E-01    0.04       1.0  T
  46   -102.0090042 -0.757672E-02  0.123E-01    0.05       1.0  T
  47   -102.0071696  0.183455E-02  0.175E-01    0.04       1.0  T
  48   -102.0099161 -0.274644E-02  0.671E-02    0.05       1.0  T
  49   -102.0100297 -0.113660E-03  0.539E-02    0.05       1.0  T
  50   -102.0102112 -0.181503E-03  0.306E-02    0.05       1.0  T
  51   -102.0101287  0.825328E-04  0.377E-02    0.05       1.0  T
  52   -102.0101598 -0.311412E-04  0.327E-02    0.05       1.0  T
  53   -102.0102400 -0.801308E-04  0.168E-02    0.05       1.0  T
  54   -102.0102466 -0.665393E-05  0.136E-02    0.05       1.1  T
  55   -102.0102500 -0.340131E-05  0.120E-02    0.05       1.3  T
  56   -102.0102569 -0.687705E-05  0.725E-03    0.05       2.1  T
  57   -102.0102581 -0.115244E-05  0.623E-03    0.05       2.5  T
  58   -102.0102591 -0.107204E-05  0.497E-03    0.05       3.1  T
  59   -102.0102601 -0.980048E-06  0.379E-03    0.05       4.1  T
  60   -102.0102609 -0.804131E-06  0.240E-03    0.05       6.4  T
  61   -102.0102612 -0.241707E-06  0.175E-03    0.05       8.8  T
  62   -102.0102612 -0.646021E-07  0.145E-03    0.05      10.6  T
  63   -102.0102613 -0.584756E-07  0.105E-03    0.05      14.7  T
  64   -102.0102613 -0.608294E-07  0.631E-04    0.05      24.4  T
  65   -102.0102614 -0.201364E-07  0.351E-04    0.05      44.0  T

   *** convergence criteria satisfied after 65 iterations ***

         #    Occupation            Energy/Eh            Energy/eV
      -------------------------------------------------------------
         1        2.0000           -1.0994204             -29.9168
       ...           ...                  ...                  ...
        86        1.9994           -0.4330068             -11.7827
        87        1.9886           -0.4302072             -11.7065
        88        1.9630           -0.4290745             -11.6757
        89        1.9173           -0.4282784             -11.6540
        90        1.7951           -0.4273313             -11.6283
        91        1.5116           -0.4262851             -11.5998
        92        1.2929           -0.4257361             -11.5849 (HOMO)
        93        0.4873           -0.4238984             -11.5349 (LUMO)
        94        0.0450           -0.4213045             -11.4643
        95        0.0000           -0.4105654             -11.1721
        96                         -0.3985656             -10.8455
        97                         -0.3972683             -10.8102
       ...                                ...                  ...
       173                          1.0413697              28.3371
      -------------------------------------------------------------
                  HL-Gap            0.0018377 Eh            0.0500 eV
             Fermi-level           -0.4250933 Eh          -11.5674 eV

 SCC (total)                   0 d,  0 h,  0 min,  1.097 sec
 SCC setup                      ...        0 min,  0.000 sec (  0.034%)
 Dispersion                     ...        0 min,  0.003 sec (  0.261%)
 classical contributions        ...        0 min,  0.001 sec (  0.053%)
 integral evaluation            ...        0 min,  0.010 sec (  0.911%)
 iterations                     ...        0 min,  1.020 sec ( 92.981%)
 molecular gradient             ...        0 min,  0.045 sec (  4.146%)
 printout                       ...        0 min,  0.018 sec (  1.610%)

         :::::::::::::::::::::::::::::::::::::::::::::::::::::
         ::                     SUMMARY                     ::
         :::::::::::::::::::::::::::::::::::::::::::::::::::::
         :: total energy            -100.794073137769 Eh    ::
         :: gradient norm              0.528560098507 Eh/a0 ::
         :: HOMO-LUMO gap              0.050005456223 eV    ::
         ::.................................................::
         :: SCC energy              -102.010261367143 Eh    ::
         :: -> isotropic ES            0.020855515291 Eh    ::
         :: -> anisotropic ES          0.005735960236 Eh    ::
         :: -> anisotropic XC          0.077371352615 Eh    ::
         :: -> dispersion             -0.063984441521 Eh    ::
         :: repulsion energy           1.214933433731 Eh    ::
         :: add. restraining           0.000000000000 Eh    ::
         :: total charge               0.000000000156 e     ::
         :::::::::::::::::::::::::::::::::::::::::::::::::::::

           -------------------------------------------------
          |                Property Printout                |
           -------------------------------------------------

    * Orbital Energies and Occupations

         #    Occupation            Energy/Eh            Energy/eV
      -------------------------------------------------------------
         1        2.0000           -1.0994204             -29.9168
       ...           ...                  ...                  ...
        80        2.0000           -0.4549155             -12.3789
        81        2.0000           -0.4520310             -12.3004
        82        2.0000           -0.4435021             -12.0683
        83        2.0000           -0.4394211             -11.9573
        84        2.0000           -0.4384131             -11.9298
        85        1.9999           -0.4343563             -11.8194
        86        1.9994           -0.4330068             -11.7827
        87        1.9886           -0.4302072             -11.7065
        88        1.9630           -0.4290745             -11.6757
        89        1.9173           -0.4282784             -11.6540
        90        1.7951           -0.4273313             -11.6283
        91        1.5116           -0.4262851             -11.5998
        92        1.2929           -0.4257361             -11.5849 (HOMO)
        93        0.4873           -0.4238984             -11.5349 (LUMO)
        94        0.0450           -0.4213045             -11.4643
        95        0.0000           -0.4105654             -11.1721
        96                         -0.3985656             -10.8455
        97                         -0.3972683             -10.8102
        98                         -0.3905461             -10.6273
        99                         -0.3904063             -10.6235
       100                         -0.3900278             -10.6132
       101                         -0.3751780             -10.2091
       102                         -0.3650915              -9.9346
       103                         -0.3616868              -9.8420
       ...                                ...                  ...
       173                          1.0413697              28.3371
      -------------------------------------------------------------
                  HL-Gap            0.0018377 Eh            0.0500 eV
             Fermi-level           -0.4250933 Eh          -11.5674 eV

     #   Z          covCN         q      C6AA      α(0)
     1   6 C        0.976    -0.096    38.924    10.476
     2   6 C        1.837     0.103    28.588     8.638
     3   8 O        1.703    -0.092    15.730     5.355
     4   6 C        2.856     0.165    24.446     8.104
     5   6 C        2.002    -0.087    33.417     9.336
     6   6 C        2.950     0.123    25.305     8.251
     7   7 N        1.845    -0.111    24.188     7.289
     8   6 C        1.969     0.067    29.366     8.751
     9   6 C        2.958     0.037    27.164     8.549
    10   6 C        1.907     0.125    28.049     8.553
    11   7 N        0.911    -0.173    24.742     7.194
    12   6 C        2.912     0.131    25.126     8.220
    13   7 N        1.827    -0.148    24.986     7.407
    14   6 C        2.893     0.138    24.994     8.197
    15   6 C        1.992    -0.017    31.510     9.065
    16   6 C        1.985    -0.037    32.034     9.140
    17   6 C        2.902     0.168    24.378     8.096
    18   8 O        1.701    -0.163    16.765     5.528
    19   6 C        1.865     0.050    29.874     8.828
    20   6 C        2.958     0.068    26.468     8.438
    21   6 C        1.989     0.019    30.558     8.927
    22   6 C        1.984    -0.022    31.642     9.084
    23   6 C        1.994     0.010    30.798     8.962
    24   6 C        2.963     0.065    26.541     8.450
    25   6 C        1.906     0.138    27.743     8.506
    26   7 N        0.911    -0.170    24.685     7.186
    27   6 C        1.996    -0.051    32.404     9.193
    28   6 C        2.876     0.087    26.051     8.367
    29  17 Cl       0.959    -0.088   101.909    15.444
    30   6 C        2.030    -0.102    33.811     9.391
    31   6 C        2.977     0.022    27.505     8.603
    32   6 C        1.990    -0.053    32.462     9.201
    33   6 C        2.895     0.116    25.453     8.272
    34   7 N        1.836    -0.225    26.770     7.667
    35   6 C        2.753     0.323    21.515     7.595
    36   8 O        0.857    -0.357    20.832     6.119
    37   6 C        1.971    -0.004    31.179     9.017
    38   6 C        1.965     0.041    30.013     8.847
    39   6 C        1.912    -0.028    31.856     9.115
    40   7 N        2.720     0.178    18.281     6.350
    41   6 C        0.940    -0.060    37.497    10.264
    42   6 C        0.937    -0.089    38.413    10.387

 Mol. C6AA /au·bohr⁶  :      50718.954683
 Mol. C8AA /au·bohr⁸  :    1418764.561374
 Mol. α(0) /au        :        358.364769


Wiberg/Mayer (AO) data.
largest (>0.10) Wiberg bond orders for each atom

 ---------------------------------------------------------------------------
     #   Z sym  total        # sym  WBO       # sym  WBO       # sym  WBO
 ---------------------------------------------------------------------------
     1   6 C    2.483 --     2 C    2.173     3 O    0.116
     2   6 C    3.492 --     1 C    2.173     3 O    1.129
     3   8 O    2.479 --     2 C    1.129     4 C    1.109     1 C    0.116
     4   6 C    3.897 --     5 C    1.460     3 O    1.109    33 C    1.058
     5   6 C    3.659 --     4 C    1.460     6 C    1.393    32 C    0.472
     6   6 C    3.922 --     5 C    1.393     7 N    1.242    31 C    1.063
     7   7 N    3.281 --     8 C    1.666     6 C    1.242
     8   6 C    3.610 --     7 N    1.666     9 C    1.387    13 N    0.234
     9   6 C    3.937 --     8 C    1.387    12 C    1.227    10 C    1.080
    10   6 C    3.945 --    11 N    2.816     9 C    1.080
    11   7 N    2.999 --    10 C    2.816
    12   6 C    3.950 --    13 N    1.268     9 C    1.227    31 C    1.174
    13   7 N    3.156 --    12 C    1.268    14 C    1.227     8 C    0.234
    14   6 C    3.913 --    30 C    1.264    15 C    1.242    13 N    1.227
    15   6 C    3.600 --    16 C    1.735    14 C    1.242    30 C    0.297
    16   6 C    3.432 --    15 C    1.735    17 C    1.347    30 C    0.159
Note: The following floating-point exceptions are signalling: IEEE_UNDERFLOW_FLAG IEEE_DENORMAL
normal termination of xtb
    17   6 C    3.811 --    16 C    1.347    28 C    1.239    18 O    0.989
    18   8 O    2.371 --    19 C    1.167    17 C    0.989
    19   6 C    2.741 --    18 O    1.167    20 C    1.028    23 C    0.105
    20   6 C    3.952 --    27 C    1.376    21 C    1.359    19 C    1.028
                            23 C    0.121
    21   6 C    3.756 --    22 C    1.643    20 C    1.359    23 C    0.337
                            27 C    0.163    24 C    0.106
    22   6 C    3.749 --    21 C    1.643    23 C    1.618    27 C    0.370
    23   6 C    3.774 --    22 C    1.618    24 C    1.334    21 C    0.337
                            27 C    0.152    20 C    0.121    19 C    0.105
    24   6 C    3.964 --    27 C    1.374    23 C    1.334    25 C    1.059
                            21 C    0.106
    25   6 C    3.947 --    26 N    2.818    24 C    1.059
    26   7 N    3.001 --    25 C    2.818
    27   6 C    3.627 --    20 C    1.376    24 C    1.374    22 C    0.370
                            21 C    0.163    23 C    0.152
    28   6 C    3.890 --    30 C    1.460    17 C    1.239    29 Cl   0.998
    29  17 Cl   1.177 --    28 C    0.998
    30   6 C    3.429 --    28 C    1.460    14 C    1.264    15 C    0.297
                            16 C    0.159
    31   6 C    3.944 --    32 C    1.448    12 C    1.174     6 C    1.063
    32   6 C    3.683 --    31 C    1.448    33 C    1.378     5 C    0.472
    33   6 C    3.936 --    32 C    1.378    34 N    1.293     4 C    1.058
    34   7 N    3.004 --    33 C    1.293    35 C    1.194    36 O    0.109
    35   6 C    3.922 --    36 O    1.651    34 N    1.194    37 C    0.989
    36   8 O    2.008 --    35 C    1.651    34 N    0.109
    37   6 C    3.723 --    38 C    2.375    35 C    0.989
    38   6 C    3.835 --    37 C    2.375    39 C    1.240
    39   6 C    3.031 --    38 C    1.240    40 N    1.060    42 C    0.484
                            41 C    0.100
    40   7 N    3.680 --    42 C    1.294    41 C    1.277    39 C    1.060
    41   6 C    1.913 --    40 N    1.277    42 C    0.473    39 C    0.100
    42   6 C    2.372 --    40 N    1.294    39 C    0.484    41 C    0.473
 ---------------------------------------------------------------------------

Topologies differ in total number of bonds
Writing topology from bond orders to xtbtopo.mol

molecular dipole:
                 x           y           z       tot (Debye)
 q only:       -0.011       0.759       0.075
   full:       -0.070       0.945      -0.260       2.499
molecular quadrupole (traceless):
                xx          xy          yy          xz          yz          zz
 q only:       -5.505     -10.010       3.475       5.227     -11.617       2.031
  q+dip:       -3.475      -5.345      10.398       9.786      -6.606      -6.924
   full:       -4.419      -3.584      12.918      10.978      -7.141      -8.498


           -------------------------------------------------
          | TOTAL ENERGY             -100.794073137769 Eh   |
          | GRADIENT NORM               0.528560098507 Eh/α |
          | HOMO-LUMO GAP               0.050005456223 eV   |
           -------------------------------------------------

------------------------------------------------------------------------
 * finished run on 2026/07/23 at 16:40:58.021     
------------------------------------------------------------------------
 total:
 * wall-time:     0 d,  0 h,  0 min,  1.119 sec
 *  cpu-time:     0 d,  0 h,  0 min,  1.119 sec
 * ratio c/w:     1.000 speedup
 SCF:
 * wall-time:     0 d,  0 h,  0 min,  1.097 sec
 *  cpu-time:     0 d,  0 h,  0 min,  1.088 sec
 * ratio c/w:     0.992 speedup

