      -----------------------------------------------------------      
     |                   =====================                   |     
     |                           x T B                           |     
     |                   =====================                   |     
     |                         S. Grimme                         |     
     |          Mulliken Center for Theoretical Chemistry        |     
     |                    University of Bonn                     |     
      -----------------------------------------------------------      

   * xtb version 6.6.1 (unknown) compiled by 'builduser@buildhost' on 2023-08-07

   xtb is free software: you can redistribute it and/or modify it under
   the terms of the GNU Lesser General Public License as published by
   the Free Software Foundation, either version 3 of the License, or
   (at your option) any later version.
   
   xtb is distributed in the hope that it will be useful,
   but WITHOUT ANY WARRANTY; without even the implied warranty of
   MERCHANTABILITY or FITNESS FOR A PARTICULAR PURPOSE.  See the
   GNU Lesser General Public License for more details.
   
   Cite this work as:
   * C. Bannwarth, E. Caldeweyher, S. Ehlert, A. Hansen, P. Pracht,
     J. Seibert, S. Spicher, S. Grimme, WIREs Comput. Mol. Sci., 2020, 11,
     e01493. DOI: 10.1002/wcms.1493
   
   for GFN2-xTB:
   * C. Bannwarth, S. Ehlert and S. Grimme., J. Chem. Theory Comput., 2019,
     15, 1652-1671. DOI: 10.1021/acs.jctc.8b01176
   for GFN1-xTB:
   * S. Grimme, C. Bannwarth, P. Shushkov, J. Chem. Theory Comput., 2017,
     13, 1989-2009. DOI: 10.1021/acs.jctc.7b00118
   for GFN0-xTB:
   * P. Pracht, E. Caldeweyher, S. Ehlert, S. Grimme, ChemRxiv, 2019, preprint.
     DOI: 10.26434/chemrxiv.8326202.v1
   for GFN-FF:
   * S. Spicher and S. Grimme, Angew. Chem. Int. Ed., 2020, 59, 15665-15673.
     DOI: 10.1002/anie.202004239
   
   for ALPB and GBSA implicit solvation:
   * S. Ehlert, M. Stahn, S. Spicher, S. Grimme, J. Chem. Theory Comput.,
     2021, 17, 4250-4261. DOI: 10.1021/acs.jctc.1c00471
   
   for DFT-D4:
   * E. Caldeweyher, C. Bannwarth and S. Grimme, J. Chem. Phys., 2017,
     147, 034112. DOI: 10.1063/1.4993215
   * E. Caldeweyher, S. Ehlert, A. Hansen, H. Neugebauer, S. Spicher,
     C. Bannwarth and S. Grimme, J. Chem. Phys., 2019, 150, 154122.
     DOI: 10.1063/1.5090222
   * E. Caldeweyher, J.-M. Mewes, S. Ehlert and S. Grimme, Phys. Chem. Chem. Phys.
     2020, 22, 8499-8512. DOI: 10.1039/D0CP00502A
   
   for sTDA-xTB:
   * S. Grimme and C. Bannwarth, J. Chem. Phys., 2016, 145, 054103.
     DOI: 10.1063/1.4959605
   
   in the mass-spec context:
   * V. Asgeirsson, C. Bauer and S. Grimme, Chem. Sci., 2017, 8, 4879.
     DOI: 10.1039/c7sc00601b
   * J. Koopman and S. Grimme, ACS Omega 2019, 4, 12, 15120-15133.
     DOI: 10.1021/acsomega.9b02011
   
   for metadynamics refer to:
   * S. Grimme, J. Chem. Theory Comput., 2019, 155, 2847-2862
     DOI: 10.1021/acs.jctc.9b00143
   
   for SPH calculations refer to:
   * S. Spicher and S. Grimme, J. Chem. Theory Comput., 2021, 17, 1701-1714
     DOI: 10.1021/acs.jctc.0c01306
   
   with help from (in alphabetical order)
   P. Atkinson, C. Bannwarth, F. Bohle, G. Brandenburg, E. Caldeweyher
   M. Checinski, S. Dohm, S. Ehlert, S. Ehrlich, I. Gerasimov, C. Hölzer
   A. Katbashev, J. Koopman, C. Lavigne, S. Lehtola, F. März, M. Müller,
   F. Musil, H. Neugebauer, J. Pisarek, C. Plett, P. Pracht, F. Pultar,
   J. Seibert, P. Shushkov, S. Spicher, M. Stahn, M. Steiner, T. Strunk,
   J. Stückrath, T. Rose, and J. Unsleber
   
 * started run on 2026/07/23 at 16:39:18.157     

           -------------------------------------------------
          |                Calculation Setup                |
           -------------------------------------------------

          program call               : xtb /home/selva/covalent_quantum_benchmark/data/quantum/erbB_xyz/EGFR__CHEMBL85021__state00.xyz --gfn2 --chrg 0 --uhf 0 --iterations 300
          coordinate file            : /home/selva/covalent_quantum_benchmark/data/quantum/erbB_xyz/EGFR__CHEMBL85021__state00.xyz
          omp threads                :                    24

   ID    Z sym.   atoms
    1    6 C      1-9, 12-23
    2    8 O      10, 24
    3    7 N      11

           -------------------------------------------------
          |                 G F N 2 - x T B                 |
           -------------------------------------------------

        Reference                      10.1021/acs.jctc.8b01176
      * Hamiltonian:
        H0-scaling (s, p, d)           1.850000    2.230000    2.230000
        zeta-weighting                 0.500000
      * Dispersion:
        s8                             2.700000
        a1                             0.520000
        a2                             5.000000
        s9                             5.000000
      * Repulsion:
        kExp                           1.500000    1.000000
        rExp                           1.000000
      * Coulomb:
        alpha                          2.000000
        third order                    shell-resolved
        anisotropic                    true
        a3                             3.000000
        a5                             4.000000
        cn-shift                       1.200000
        cn-exp                         4.000000
        max-rad                        5.000000


          ...................................................
          :                      SETUP                      :
          :.................................................:
          :  # basis functions                  96          :
          :  # atomic orbitals                  96          :
          :  # shells                           48          :
          :  # electrons                       101          :
          :  max. iterations                   300          :
          :  Hamiltonian                  GFN2-xTB          :
          :  restarted?                      false          :
          :  GBSA solvation                  false          :
          :  PC potential                    false          :
          :  electronic temp.          300.0000000     K    :
          :  accuracy                    1.0000000          :
          :  -> integral cutoff          0.2500000E+02      :
          :  -> integral neglect         0.1000000E-07      :
          :  -> SCF convergence          0.1000000E-05 Eh   :
          :  -> wf. convergence          0.1000000E-03 e    :
          :  Broyden damping             0.4000000          :
          ...................................................

 iter      E             dE          RMSdq      gap      omega  full diag
   1    -54.5110534 -0.545111E+02  0.105E+01    0.07       0.0  T
   2    -40.0319050  0.144791E+02  0.150E+01    0.21       1.0  T
   3    -24.6962045  0.153357E+02  0.158E+01    0.15       1.0  T
   4    -42.2272786 -0.175311E+02  0.116E+01    0.10       1.0  T
   5    -49.3560954 -0.712882E+01  0.993E+00    0.23       1.0  T
   6    -53.1772805 -0.382119E+01  0.632E+00    0.09       1.0  T
   7    -54.3533203 -0.117604E+01  0.615E+00    0.10       1.0  T
   8    -54.4748189 -0.121499E+00  0.517E+00    0.23       1.0  T
   9    -54.6241134 -0.149295E+00  0.454E+00    0.09       1.0  T
  10    -54.6836795 -0.595661E-01  0.427E+00    0.07       1.0  T
  11    -54.7891700 -0.105490E+00  0.376E+00    0.04       1.0  T
  12    -54.7896522 -0.482155E-03  0.362E+00    0.06       1.0  T
  13    -54.9531799 -0.163528E+00  0.292E+00    0.10       1.0  T
  14    -54.9532448 -0.648880E-04  0.291E+00    0.08       1.0  T
  15    -54.9920389 -0.387941E-01  0.250E+00    0.11       1.0  T
  16    -55.0809227 -0.888838E-01  0.188E+00    0.05       1.0  T
  17    -55.0970905 -0.161678E-01  0.175E+00    0.03       1.0  T
  18    -55.0547131  0.423774E-01  0.193E+00    0.08       1.0  T
  19    -55.1132484 -0.585353E-01  0.149E+00    0.04       1.0  T
  20    -55.1090520  0.419641E-02  0.149E+00    0.05       1.0  T
  21    -55.1372984 -0.282464E-01  0.122E+00    0.04       1.0  T
  22    -55.1186155  0.186829E-01  0.130E+00    0.04       1.0  T
  23    -55.1525932 -0.339777E-01  0.104E+00    0.04       1.0  T
  24    -52.8118206  0.234077E+01  0.561E+00    0.05       1.0  T
  25    -53.0326951 -0.220875E+00  0.537E+00    0.05       1.0  T
  26    -52.7758305  0.256865E+00  0.578E+00    0.05       1.0  T
  27    -52.7405900  0.352406E-01  0.577E+00    0.05       1.0  T
  28    -52.9058726 -0.165283E+00  0.555E+00    0.05       1.0  T
  29    -54.7136166 -0.180774E+01  0.266E+00    0.02       1.0  T
  30    -55.1207915 -0.407175E+00  0.150E+00    0.04       1.0  T
  31    -55.1650123 -0.442208E-01  0.116E+00    0.04       1.0  T
  32    -55.1335127  0.314996E-01  0.127E+00    0.05       1.0  T
  33    -55.1488889 -0.153761E-01  0.125E+00    0.04       1.0  T
  34    -55.1480162  0.872684E-03  0.118E+00    0.04       1.0  T
  35    -55.1628544 -0.148382E-01  0.995E-01    0.04       1.0  T
  36    -55.1563211  0.653327E-02  0.108E+00    0.04       1.0  T
  37    -55.1627858 -0.646470E-02  0.103E+00    0.04       1.0  T
  38    -55.1625303  0.255493E-03  0.105E+00    0.04       1.0  T
  39    -55.1683287 -0.579836E-02  0.981E-01    0.04       1.0  T
  40    -55.1859160 -0.175873E-01  0.713E-01    0.03       1.0  T
  41    -55.1964003 -0.104844E-01  0.487E-01    0.02       1.0  T
  42    -55.1990961 -0.269575E-02  0.364E-01    0.02       1.0  T
  43    -55.2041594 -0.506330E-02  0.148E-01    0.01       1.0  T
  44    -55.2043889 -0.229513E-03  0.116E-01    0.01       1.0  T
  45    -55.2046087 -0.219751E-03  0.120E-01    0.01       1.0  T
  46    -55.2041406  0.468035E-03  0.148E-01    0.01       1.0  T
  47    -55.2042550 -0.114382E-03  0.131E-01    0.01       1.0  T
  48    -55.2048045 -0.549452E-03  0.426E-02    0.00       1.0  T
  49    -55.2047174  0.870390E-04  0.673E-02    0.00       1.0  T
  50    -55.2048416 -0.124174E-03  0.377E-02    0.00       1.0  T
  51    -55.2048854 -0.437695E-04  0.138E-02    0.00       1.5  T
  52    -55.2048943 -0.891126E-05  0.845E-03    0.00       2.4  T
  53    -55.2048927  0.157692E-05  0.929E-03    0.00       2.2  T
  54    -55.2048922  0.530686E-06  0.742E-03    0.00       2.7  T
  55    -55.2048937 -0.153678E-05  0.513E-03    0.00       4.0  T
  56    -55.2048947 -0.104091E-05  0.325E-03    0.00       6.3  T
  57    -55.2048952 -0.430279E-06  0.230E-03    0.00       8.9  T
  58    -55.2048953 -0.118632E-06  0.192E-03    0.00      10.6  T
  59    -55.2048953 -0.428420E-07  0.167E-03    0.00      12.2  T
  60    -55.2048954 -0.841894E-07  0.142E-03    0.00      14.3  T
  61    -55.2048954  0.249377E-07  0.137E-03    0.00      14.9  T
  62    -55.2048955 -0.970162E-07  0.718E-04    0.00      28.4  T
  63    -55.2048955 -0.193892E-07  0.487E-04    0.00      41.9  T

   *** convergence criteria satisfied after 63 iterations ***

         #    Occupation            Energy/Eh            Energy/eV
      -------------------------------------------------------------
         1        2.0000           -0.7593894             -20.6640
       ...           ...                  ...                  ...
        45        2.0000           -0.4587786             -12.4840
        46        2.0000           -0.4541387             -12.3577
        47        2.0000           -0.4420990             -12.0301
        48        2.0000           -0.4356768             -11.8554
        49        1.8758           -0.4281555             -11.6507
        50        1.6912           -0.4271493             -11.6233
        51        0.6555           -0.4245534             -11.5527 (HOMO)
        52        0.5873           -0.4243827             -11.5480 (LUMO)
        53        0.1661           -0.4228283             -11.5057
        54        0.0242           -0.4208964             -11.4532
        55                         -0.4052198             -11.0266
        56                         -0.4031365             -10.9699
       ...                                ...                  ...
        96                          0.6680558              18.1787
      -------------------------------------------------------------
                  HL-Gap            0.0001706 Eh            0.0046 eV
             Fermi-level           -0.4253386 Eh          -11.5741 eV

 SCC (total)                   0 d,  0 h,  0 min,  0.437 sec
 SCC setup                      ...        0 min,  0.000 sec (  0.082%)
 Dispersion                     ...        0 min,  0.001 sec (  0.245%)
 classical contributions        ...        0 min,  0.001 sec (  0.187%)
 integral evaluation            ...        0 min,  0.007 sec (  1.510%)
 iterations                     ...        0 min,  0.413 sec ( 94.431%)
 molecular gradient             ...        0 min,  0.013 sec (  3.040%)
 printout                       ...        0 min,  0.002 sec (  0.496%)

         :::::::::::::::::::::::::::::::::::::::::::::::::::::
         ::                     SUMMARY                     ::
         :::::::::::::::::::::::::::::::::::::::::::::::::::::
         :: total energy             -54.559326839509 Eh    ::
         :: gradient norm              0.450862899812 Eh/a0 ::
         :: HOMO-LUMO gap              0.004643389662 eV    ::
         ::.................................................::
         :: SCC energy               -55.204895512424 Eh    ::
         :: -> isotropic ES            0.001528290927 Eh    ::
         :: -> anisotropic ES         -0.001903093522 Eh    ::
         :: -> anisotropic XC          0.030841008568 Eh    ::
         :: -> dispersion             -0.034061681777 Eh    ::
         :: repulsion energy           0.645629841468 Eh    ::
         :: add. restraining           0.000000000000 Eh    ::
         :: total charge              -0.000000000000 e     ::
         :::::::::::::::::::::::::::::::::::::::::::::::::::::

           -------------------------------------------------
          |                Property Printout                |
           -------------------------------------------------

    * Orbital Energies and Occupations

         #    Occupation            Energy/Eh            Energy/eV
      -------------------------------------------------------------
         1        2.0000           -0.7593894             -20.6640
       ...           ...                  ...                  ...
        39        2.0000           -0.4960241             -13.4975
        40        2.0000           -0.4934947             -13.4287
        41        2.0000           -0.4851190             -13.2008
        42        2.0000           -0.4730784             -12.8731
        43        2.0000           -0.4662252             -12.6866
        44        2.0000           -0.4623640             -12.5816
        45        2.0000           -0.4587786             -12.4840
        46        2.0000           -0.4541387             -12.3577
        47        2.0000           -0.4420990             -12.0301
        48        2.0000           -0.4356768             -11.8554
        49        1.8758           -0.4281555             -11.6507
        50        1.6912           -0.4271493             -11.6233
        51        0.6555           -0.4245534             -11.5527 (HOMO)
        52        0.5873           -0.4243827             -11.5480 (LUMO)
        53        0.1661           -0.4228283             -11.5057
        54        0.0242           -0.4208964             -11.4532
        55                         -0.4052198             -11.0266
        56                         -0.4031365             -10.9699
        57                         -0.4004969             -10.8981
        58                         -0.3873305             -10.5398
        59                         -0.3865308             -10.5180
        60                         -0.3574256              -9.7260
        61                         -0.3482986              -9.4777
        62                         -0.3384910              -9.2108
       ...                                ...                  ...
        96                          0.6680558              18.1787
      -------------------------------------------------------------
                  HL-Gap            0.0001706 Eh            0.0046 eV
             Fermi-level           -0.4253386 Eh          -11.5741 eV

     #   Z          covCN         q      C6AA      α(0)
     1   6 C        0.979    -0.046    37.332    10.262
     2   6 C        2.929     0.131    25.137     8.222
     3   6 C        0.979    -0.049    37.426    10.274
     4   6 C        2.957     0.048    26.913     8.509
     5   6 C        1.998    -0.046    32.269     9.174
     6   6 C        2.960     0.082    26.177     8.392
     7   6 C        1.975     0.023    30.465     8.914
     8   6 C        3.023     0.028    27.357     8.579
     9   6 C        2.817     0.310    21.750     7.641
    10   8 O        0.856    -0.301    19.797     5.965
    11   7 N        1.874    -0.196    26.080     7.570
    12   6 C        3.023     0.117    25.392     8.266
    13   6 C        1.982    -0.033    31.924     9.124
    14   6 C        1.994     0.039    30.043     8.852
    15   6 C        1.990     0.035    30.159     8.869
    16   6 C        1.984    -0.040    32.112     9.151
    17   6 C        3.019     0.026    27.398     8.586
    18   6 C        1.995    -0.034    31.953     9.129
    19   6 C        2.957     0.056    26.734     8.481
    20   6 C        2.928     0.140    24.955     8.192
    21   6 C        0.981    -0.046    37.344    10.264
    22   6 C        0.979    -0.064    37.876    10.336
    23   6 C        2.844     0.207    23.621     7.965
    24   8 O        0.854    -0.387    21.427     6.206

 Mol. C6AA /au·bohr⁶  :      16425.067749
 Mol. C8AA /au·bohr⁸  :     459467.906899
 Mol. α(0) /au        :        206.924552


Wiberg/Mayer (AO) data.
largest (>0.10) Wiberg bond orders for each atom

 ---------------------------------------------------------------------------
     #   Z sym  total        # sym  WBO       # sym  WBO       # sym  WBO
 ---------------------------------------------------------------------------
     1   6 C    2.182 --     2 C    1.478     3 C    0.525
     2   6 C    3.908 --     1 C    1.478     3 C    1.477     4 C    0.904
     3   6 C    2.148 --     2 C    1.477     1 C    0.525
     4   6 C    3.894 --     5 C    1.515    23 C    1.134     2 C    0.904
     5   6 C    3.657 --     4 C    1.515     6 C    1.254    18 C    0.464
                            24 O    0.150
     6   6 C    3.961 --    18 C    1.270     5 C    1.254     7 C    1.229
     7   6 C    3.784 --     8 C    1.892     6 C    1.229    11 N    0.176
                            10 O    0.154
     8   6 C    3.929 --     7 C    1.892    17 C    1.053     9 C    0.803
     9   6 C    3.915 --    10 O    1.727    11 N    1.254     8 C    0.803
    10   8 O    2.161 --     9 C    1.727     7 C    0.154    11 N    0.149
    11   7 N    2.993 --     9 C    1.254    12 C    1.202     7 C    0.176
                            10 O    0.149
    12   6 C    3.921 --    13 C    1.350    11 N    1.202    17 C    1.133
    13   6 C    3.633 --    14 C    1.684    12 C    1.350    16 C    0.361
                            15 C    0.130
    14   6 C    3.867 --    15 C    1.833    13 C    1.684    16 C    0.115
                            17 C    0.112
    15   6 C    3.797 --    14 C    1.833    16 C    1.627    13 C    0.130
    16   6 C    3.677 --    15 C    1.627    17 C    1.442    13 C    0.361
                            14 C    0.115
    17   6 C    3.898 --    16 C    1.442    12 C    1.133     8 C    1.053
                            14 C    0.112
    18   6 C    3.700 --    19 C    1.478     6 C    1.270     5 C    0.464
                            24 O    0.134
    19   6 C    3.907 --    18 C    1.478    23 C    1.134    20 C    0.914
                            21 C    0.132
    20   6 C    3.908 --    21 C    1.476    22 C    1.471    19 C    0.914
    21   6 C    2.328 --    20 C    1.476    22 C    0.534    19 C    0.132
    22   6 C    2.209 --    20 C    1.471    21 C    0.534
    23   6 C    3.944 --    24 O    1.479     4 C    1.134    19 C    1.134
    24   8 O    2.008 --    23 C    1.479     5 C    0.150    18 C    0.134
 ---------------------------------------------------------------------------

Topologies differ in total number of bonds
Writing topology from bond orders to xtbtopo.mol

molecular dipole:
                 x           y           z       tot (Debye)
Note: The following floating-point exceptions are signalling: IEEE_UNDERFLOW_FLAG IEEE_DENORMAL
normal termination of xtb
 q only:        0.747       0.431      -2.384
   full:        1.011       0.719      -2.643       7.421
molecular quadrupole (traceless):
                xx          xy          yy          xz          yz          zz
 q only:       -4.123      -3.037       1.136      -3.725      -6.954       2.987
  q+dip:       -9.146      -3.303      -5.176      -5.553      -9.728      14.322
   full:       -9.183      -5.657      -2.237      -5.356     -10.928      11.420


           -------------------------------------------------
          | TOTAL ENERGY              -54.559326839509 Eh   |
          | GRADIENT NORM               0.450862899812 Eh/α |
          | HOMO-LUMO GAP               0.004643389662 eV   |
           -------------------------------------------------

------------------------------------------------------------------------
 * finished run on 2026/07/23 at 16:39:18.619     
------------------------------------------------------------------------
 total:
 * wall-time:     0 d,  0 h,  0 min,  0.462 sec
 *  cpu-time:     0 d,  0 h,  0 min,  0.380 sec
 * ratio c/w:     0.823 speedup
 SCF:
 * wall-time:     0 d,  0 h,  0 min,  0.437 sec
 *  cpu-time:     0 d,  0 h,  0 min,  0.363 sec
 * ratio c/w:     0.829 speedup

