      -----------------------------------------------------------      
     |                   =====================                   |     
     |                           x T B                           |     
     |                   =====================                   |     
     |                         S. Grimme                         |     
     |          Mulliken Center for Theoretical Chemistry        |     
     |                    University of Bonn                     |     
      -----------------------------------------------------------      

   * xtb version 6.6.1 (unknown) compiled by 'builduser@buildhost' on 2023-08-07

   xtb is free software: you can redistribute it and/or modify it under
   the terms of the GNU Lesser General Public License as published by
   the Free Software Foundation, either version 3 of the License, or
   (at your option) any later version.
   
   xtb is distributed in the hope that it will be useful,
   but WITHOUT ANY WARRANTY; without even the implied warranty of
   MERCHANTABILITY or FITNESS FOR A PARTICULAR PURPOSE.  See the
   GNU Lesser General Public License for more details.
   
   Cite this work as:
   * C. Bannwarth, E. Caldeweyher, S. Ehlert, A. Hansen, P. Pracht,
     J. Seibert, S. Spicher, S. Grimme, WIREs Comput. Mol. Sci., 2020, 11,
     e01493. DOI: 10.1002/wcms.1493
   
   for GFN2-xTB:
   * C. Bannwarth, S. Ehlert and S. Grimme., J. Chem. Theory Comput., 2019,
     15, 1652-1671. DOI: 10.1021/acs.jctc.8b01176
   for GFN1-xTB:
   * S. Grimme, C. Bannwarth, P. Shushkov, J. Chem. Theory Comput., 2017,
     13, 1989-2009. DOI: 10.1021/acs.jctc.7b00118
   for GFN0-xTB:
   * P. Pracht, E. Caldeweyher, S. Ehlert, S. Grimme, ChemRxiv, 2019, preprint.
     DOI: 10.26434/chemrxiv.8326202.v1
   for GFN-FF:
   * S. Spicher and S. Grimme, Angew. Chem. Int. Ed., 2020, 59, 15665-15673.
     DOI: 10.1002/anie.202004239
   
   for ALPB and GBSA implicit solvation:
   * S. Ehlert, M. Stahn, S. Spicher, S. Grimme, J. Chem. Theory Comput.,
     2021, 17, 4250-4261. DOI: 10.1021/acs.jctc.1c00471
   
   for DFT-D4:
   * E. Caldeweyher, C. Bannwarth and S. Grimme, J. Chem. Phys., 2017,
     147, 034112. DOI: 10.1063/1.4993215
   * E. Caldeweyher, S. Ehlert, A. Hansen, H. Neugebauer, S. Spicher,
     C. Bannwarth and S. Grimme, J. Chem. Phys., 2019, 150, 154122.
     DOI: 10.1063/1.5090222
   * E. Caldeweyher, J.-M. Mewes, S. Ehlert and S. Grimme, Phys. Chem. Chem. Phys.
     2020, 22, 8499-8512. DOI: 10.1039/D0CP00502A
   
   for sTDA-xTB:
   * S. Grimme and C. Bannwarth, J. Chem. Phys., 2016, 145, 054103.
     DOI: 10.1063/1.4959605
   
   in the mass-spec context:
   * V. Asgeirsson, C. Bauer and S. Grimme, Chem. Sci., 2017, 8, 4879.
     DOI: 10.1039/c7sc00601b
   * J. Koopman and S. Grimme, ACS Omega 2019, 4, 12, 15120-15133.
     DOI: 10.1021/acsomega.9b02011
   
   for metadynamics refer to:
   * S. Grimme, J. Chem. Theory Comput., 2019, 155, 2847-2862
     DOI: 10.1021/acs.jctc.9b00143
   
   for SPH calculations refer to:
   * S. Spicher and S. Grimme, J. Chem. Theory Comput., 2021, 17, 1701-1714
     DOI: 10.1021/acs.jctc.0c01306
   
   with help from (in alphabetical order)
   P. Atkinson, C. Bannwarth, F. Bohle, G. Brandenburg, E. Caldeweyher
   M. Checinski, S. Dohm, S. Ehlert, S. Ehrlich, I. Gerasimov, C. Hölzer
   A. Katbashev, J. Koopman, C. Lavigne, S. Lehtola, F. März, M. Müller,
   F. Musil, H. Neugebauer, J. Pisarek, C. Plett, P. Pracht, F. Pultar,
   J. Seibert, P. Shushkov, S. Spicher, M. Stahn, M. Steiner, T. Strunk,
   J. Stückrath, T. Rose, and J. Unsleber
   
 * started run on 2026/07/23 at 16:40:02.638     

           -------------------------------------------------
          |                Calculation Setup                |
           -------------------------------------------------

          program call               : xtb /home/selva/covalent_quantum_benchmark/data/quantum/erbB_xyz/ERBB2__CHEMBL1630110__state02.xyz --gfn2 --chrg 0 --uhf 0 --iterations 300
          coordinate file            : /home/selva/covalent_quantum_benchmark/data/quantum/erbB_xyz/ERBB2__CHEMBL1630110__state02.xyz
          omp threads                :                    24

   ID    Z sym.   atoms
    1    8 O      1, 22, 39
    2    6 C      2-12, 14, 16, 18-21, 23-28, 30, 31, 33-37
    3    7 N      13, 15, 17, 38
    4    9 F      29
    5   17 Cl     32

           -------------------------------------------------
          |                 G F N 2 - x T B                 |
           -------------------------------------------------

        Reference                      10.1021/acs.jctc.8b01176
      * Hamiltonian:
        H0-scaling (s, p, d)           1.850000    2.230000    2.230000
        zeta-weighting                 0.500000
      * Dispersion:
        s8                             2.700000
        a1                             0.520000
        a2                             5.000000
        s9                             5.000000
      * Repulsion:
        kExp                           1.500000    1.000000
        rExp                           1.000000
      * Coulomb:
        alpha                          2.000000
        third order                    shell-resolved
        anisotropic                    true
        a3                             3.000000
        a5                             4.000000
        cn-shift                       1.200000
        cn-exp                         4.000000
        max-rad                        5.000000


          ...................................................
          :                      SETUP                      :
          :.................................................:
          :  # basis functions                 162          :
          :  # atomic orbitals                 161          :
          :  # shells                           79          :
          :  # electrons                       172          :
          :  max. iterations                   300          :
          :  Hamiltonian                  GFN2-xTB          :
          :  restarted?                      false          :
          :  GBSA solvation                  false          :
          :  PC potential                    false          :
          :  electronic temp.          300.0000000     K    :
          :  accuracy                    1.0000000          :
          :  -> integral cutoff          0.2500000E+02      :
          :  -> integral neglect         0.1000000E-07      :
          :  -> SCF convergence          0.1000000E-05 Eh   :
          :  -> wf. convergence          0.1000000E-03 e    :
          :  Broyden damping             0.4000000          :
          ...................................................

 iter      E             dE          RMSdq      gap      omega  full diag
   1    -95.2193480 -0.952193E+02  0.806E+00    0.18       0.0  T
   2    -75.7114645  0.195079E+02  0.123E+01    0.19       1.0  T
   3    -81.0143423 -0.530288E+01  0.101E+01    0.81       1.0  T
   4    -87.6972485 -0.668291E+01  0.795E+00    0.06       1.0  T
   5    -82.9641152  0.473313E+01  0.915E+00    0.13       1.0  T
   6    -89.8921106 -0.692800E+01  0.701E+00    0.19       1.0  T
   7    -95.0853300 -0.519322E+01  0.525E+00    0.08       1.0  T
   8    -94.6890204  0.396310E+00  0.438E+00    0.14       1.0  T
   9    -95.6971414 -0.100812E+01  0.407E+00    0.03       1.0  T
  10    -95.8123867 -0.115245E+00  0.363E+00    0.06       1.0  T
  11    -95.1972084  0.615178E+00  0.429E+00    0.05       1.0  T
  12    -95.9177836 -0.720575E+00  0.373E+00    0.02       1.0  T
  13    -94.9358734  0.981910E+00  0.439E+00    0.16       1.0  T
  14    -95.6000461 -0.664173E+00  0.384E+00    0.09       1.0  T
  15    -95.7067055 -0.106659E+00  0.348E+00    0.04       1.0  T
  16    -96.2505946 -0.543889E+00  0.273E+00    0.06       1.0  T
  17    -96.5644292 -0.313835E+00  0.207E+00    0.03       1.0  T
  18    -96.5152441  0.491851E-01  0.218E+00    0.06       1.0  T
  19    -96.1359199  0.379324E+00  0.272E+00    0.02       1.0  T
  20    -96.4464041 -0.310484E+00  0.204E+00    0.01       1.0  T
  21    -96.6190137 -0.172610E+00  0.184E+00    0.04       1.0  T
  22    -96.7313069 -0.112293E+00  0.156E+00    0.02       1.0  T
  23    -96.7322139 -0.906995E-03  0.153E+00    0.04       1.0  T
  24    -96.7321846  0.293362E-04  0.153E+00    0.04       1.0  T
  25    -96.6569454  0.752392E-01  0.164E+00    0.04       1.0  T
  26    -96.5719433  0.850021E-01  0.172E+00    0.02       1.0  T
  27    -96.6908218 -0.118879E+00  0.140E+00    0.03       1.0  T
  28    -96.7339561 -0.431343E-01  0.123E+00    0.03       1.0  T
  29    -96.7549005 -0.209443E-01  0.111E+00    0.03       1.0  T
  30    -96.7773955 -0.224951E-01  0.100E+00    0.02       1.0  T
  31    -96.8403133 -0.629177E-01  0.655E-01    0.03       1.0  T
  32    -96.8684829 -0.281697E-01  0.417E-01    0.03       1.0  T
  33    -96.8726492 -0.416622E-02  0.342E-01    0.03       1.0  T
  34    -96.8732995 -0.650288E-03  0.333E-01    0.03       1.0  T
  35    -96.8758148 -0.251534E-02  0.291E-01    0.03       1.0  T
  36    -96.8797117 -0.389687E-02  0.202E-01    0.03       1.0  T
  37    -96.8817145 -0.200284E-02  0.103E-01    0.03       1.0  T
  38    -96.8810953  0.619246E-03  0.140E-01    0.03       1.0  T
  39    -96.8818232 -0.727948E-03  0.992E-02    0.03       1.0  T
  40    -96.8823327 -0.509464E-03  0.455E-02    0.03       1.0  T
  41    -96.8820656  0.267057E-03  0.656E-02    0.03       1.0  T
  42    -96.8823256 -0.260026E-03  0.427E-02    0.03       1.0  T
  43    -96.8821939  0.131723E-03  0.556E-02    0.03       1.0  T
  44    -96.8825012 -0.307304E-03  0.180E-02    0.03       1.0  T
  45    -96.8825091 -0.792460E-05  0.119E-02    0.03       1.3  T
  46    -96.8825126 -0.345514E-05  0.102E-02    0.03       1.6  T
  47    -96.8825160 -0.344867E-05  0.785E-03    0.03       2.0  T
  48    -96.8825165 -0.455447E-06  0.718E-03    0.03       2.2  T
  49    -96.8825212 -0.469576E-05  0.327E-03    0.03       4.9  T
  50    -96.8825215 -0.256986E-06  0.263E-03    0.03       6.1  T
  51    -96.8825216 -0.168924E-06  0.192E-03    0.03       8.3  T
  52    -96.8825218 -0.181302E-06  0.114E-03    0.03      14.1  T
  53    -96.8825219 -0.698739E-07  0.702E-04    0.03      22.8  T
  54    -96.8825219 -0.415363E-07  0.417E-04    0.03      38.4  T

   *** convergence criteria satisfied after 54 iterations ***

         #    Occupation            Energy/Eh            Energy/eV
      -------------------------------------------------------------
         1        2.0000           -1.0913208             -29.6964
       ...           ...                  ...                  ...
        80        1.9998           -0.4303962             -11.7117
        81        1.9889           -0.4265620             -11.6073
        82        1.9258           -0.4247287             -11.5575
        83        1.8873           -0.4243124             -11.5461
        84        1.6730           -0.4231863             -11.5155
        85        1.5374           -0.4227765             -11.5043
        86        1.4978           -0.4226737             -11.5015 (HOMO)
        87        0.9473           -0.4215351             -11.4706 (LUMO)
        88        0.3349           -0.4201118             -11.4318
        89        0.2079           -0.4195889             -11.4176
        90                         -0.3979405             -10.8285
        91                         -0.3962964             -10.7838
       ...                                ...                  ...
       161                          0.5837830              15.8855
      -------------------------------------------------------------
                  HL-Gap            0.0011386 Eh            0.0310 eV
             Fermi-level           -0.4216355 Eh          -11.4733 eV

 SCC (total)                   0 d,  0 h,  0 min,  0.693 sec
 SCC setup                      ...        0 min,  0.000 sec (  0.056%)
 Dispersion                     ...        0 min,  0.003 sec (  0.385%)
 classical contributions        ...        0 min,  0.001 sec (  0.078%)
 integral evaluation            ...        0 min,  0.006 sec (  0.900%)
 iterations                     ...        0 min,  0.660 sec ( 95.166%)
 molecular gradient             ...        0 min,  0.021 sec (  3.074%)
 printout                       ...        0 min,  0.002 sec (  0.335%)

         :::::::::::::::::::::::::::::::::::::::::::::::::::::
         ::                     SUMMARY                     ::
         :::::::::::::::::::::::::::::::::::::::::::::::::::::
         :: total energy             -95.755356963464 Eh    ::
         :: gradient norm              0.463909690297 Eh/a0 ::
         :: HOMO-LUMO gap              0.030981840854 eV    ::
         ::.................................................::
         :: SCC energy               -96.882521916676 Eh    ::
         :: -> isotropic ES            0.065885277807 Eh    ::
         :: -> anisotropic ES          0.003956198349 Eh    ::
         :: -> anisotropic XC          0.038938949751 Eh    ::
         :: -> dispersion             -0.059876126231 Eh    ::
         :: repulsion energy           1.126051038901 Eh    ::
         :: add. restraining           0.000000000000 Eh    ::
         :: total charge               0.000000000162 e     ::
         :::::::::::::::::::::::::::::::::::::::::::::::::::::

           -------------------------------------------------
          |                Property Printout                |
           -------------------------------------------------

    * Orbital Energies and Occupations

         #    Occupation            Energy/Eh            Energy/eV
      -------------------------------------------------------------
         1        2.0000           -1.0913208             -29.6964
       ...           ...                  ...                  ...
        74        2.0000           -0.4494322             -12.2297
        75        2.0000           -0.4476398             -12.1809
        76        2.0000           -0.4431227             -12.0580
        77        2.0000           -0.4385454             -11.9334
        78        2.0000           -0.4357949             -11.8586
        79        2.0000           -0.4335128             -11.7965
        80        1.9998           -0.4303962             -11.7117
        81        1.9889           -0.4265620             -11.6073
        82        1.9258           -0.4247287             -11.5575
        83        1.8873           -0.4243124             -11.5461
        84        1.6730           -0.4231863             -11.5155
        85        1.5374           -0.4227765             -11.5043
        86        1.4978           -0.4226737             -11.5015 (HOMO)
        87        0.9473           -0.4215351             -11.4706 (LUMO)
        88        0.3349           -0.4201118             -11.4318
        89        0.2079           -0.4195889             -11.4176
        90                         -0.3979405             -10.8285
        91                         -0.3962964             -10.7838
        92                         -0.3743385             -10.1863
        93                         -0.3610384              -9.8244
        94                         -0.3602376              -9.8026
        95                         -0.3590671              -9.7707
        96                         -0.3522331              -9.5848
        97                         -0.3425589              -9.3215
       ...                                ...                  ...
       161                          0.5837830              15.8855
      -------------------------------------------------------------
                  HL-Gap            0.0011386 Eh            0.0310 eV
             Fermi-level           -0.4216355 Eh          -11.4733 eV

     #   Z          covCN         q      C6AA      α(0)
     1   8 O        0.858    -0.295    19.690     5.949
     2   6 C        2.754     0.309    21.745     7.636
     3   6 C        1.973    -0.038    32.066     9.145
     4   6 C        1.978     0.038    30.077     8.857
     5   6 C        2.968     0.076    26.309     8.413
     6   6 C        1.991    -0.018    31.526     9.068
     7   6 C        1.990    -0.027    31.772     9.103
     8   6 C        2.968     0.071    26.403     8.428
     9   6 C        2.968     0.076    26.310     8.414
    10   6 C        1.989    -0.011    31.344     9.041
    11   6 C        1.990    -0.017    31.506     9.065
    12   6 C        2.952     0.119    25.376     8.262
    13   7 N        1.832    -0.155    25.146     7.431
    14   6 C        1.888     0.173    26.975     8.388
    15   7 N        1.848    -0.166    25.384     7.467
    16   6 C        2.834     0.197    23.800     7.995
    17   7 N        1.847    -0.130    24.596     7.350
    18   6 C        2.914     0.135    25.060     8.209
    19   6 C        1.992    -0.034    31.964     9.130
    20   6 C        1.986    -0.032    31.913     9.123
    21   6 C        2.887     0.155    24.645     8.139
    22   8 O        1.702    -0.131    16.279     5.447
    23   6 C        1.853     0.000    31.137     9.014
    24   6 C        2.959     0.069    26.454     8.436
    25   6 C        1.990     0.025    30.403     8.905
    26   6 C        1.986    -0.014    31.411     9.051
    27   6 C        1.988     0.012    30.731     8.953
    28   6 C        2.773     0.207    23.613     7.959
    29   9 F        0.787    -0.153    10.762     3.875
    30   6 C        1.990    -0.071    32.979     9.274
    31   6 C        2.878     0.089    26.021     8.363
    32  17 Cl       0.959    -0.072   101.407    15.406
    33   6 C        2.031    -0.080    33.195     9.305
    34   6 C        2.962     0.005    27.909     8.665
    35   6 C        1.993    -0.065    32.815     9.251
    36   6 C        1.991    -0.030    31.855     9.115
    37   6 C        1.989    -0.021    31.604     9.079
    38   7 N        1.829     0.022    21.534     6.876
    39   8 O        0.912    -0.218    18.346     5.744

 Mol. C6AA /au·bohr⁶  :      42673.149819
 Mol. C8AA /au·bohr⁸  :    1195464.140657
 Mol. α(0) /au        :        327.329525


Wiberg/Mayer (AO) data.
largest (>0.10) Wiberg bond orders for each atom

 ---------------------------------------------------------------------------
     #   Z sym  total        # sym  WBO       # sym  WBO       # sym  WBO
 ---------------------------------------------------------------------------
     1   8 O    2.030 --     2 C    1.699     4 C    0.109
     2   6 C    3.898 --     1 O    1.699    38 N    1.107     3 C    1.016
     3   6 C    3.795 --     4 C    2.468     2 C    1.016
     4   6 C    3.791 --     3 C    2.468     5 C    1.075     1 O    0.109
     5   6 C    3.915 --     6 C    1.325    37 C    1.313     4 C    1.075
     6   6 C    3.362 --     7 C    1.554     5 C    1.325    36 C    0.207
     7   6 C    3.355 --     6 C    1.554     8 C    1.357    37 C    0.198
     8   6 C    3.889 --     7 C    1.357    36 C    1.353     9 C    0.946
     9   6 C    3.914 --    35 C    1.385    10 C    1.350     8 C    0.946
    10   6 C    3.695 --    11 C    1.727     9 C    1.350    35 C    0.129
                            34 C    0.104
    11   6 C    3.529 --    10 C    1.727    12 C    1.349    35 C    0.215
    12   6 C    3.903 --    11 C    1.349    34 C    1.207    13 N    1.058
    13   7 N    3.123 --    14 C    1.723    12 C    1.058
    14   6 C    3.796 --    13 N    1.723    15 N    1.648
    15   7 N    3.253 --    14 C    1.648    16 C    1.191    17 N    0.121
    16   6 C    3.947 --    17 N    1.564    15 N    1.191    34 C    1.001
    17   7 N    3.211 --    16 C    1.564    18 C    1.138    15 N    0.121
    18   6 C    3.910 --    33 C    1.310    19 C    1.268    17 N    1.138
    19   6 C    3.592 --    20 C    1.707    18 C    1.268    33 C    0.300
    20   6 C    3.445 --    19 C    1.707    21 C    1.347    33 C    0.159
    21   6 C    3.849 --    20 C    1.347    31 C    1.236    22 O    1.054
    22   8 O    2.488 --    23 C    1.265    21 C    1.054
    23   6 C    2.814 --    22 O    1.265    24 C    1.098    27 C    0.125
                            25 C    0.101
    24   6 C    3.947 --    30 C    1.350    25 C    1.322    23 C    1.098
                            27 C    0.106
    25   6 C    3.773 --    26 C    1.669    24 C    1.322    27 C    0.334
                            30 C    0.169    28 C    0.102    23 C    0.101
Note: The following floating-point exceptions are signalling: IEEE_UNDERFLOW_FLAG IEEE_DENORMAL
normal termination of xtb
    26   6 C    3.789 --    25 C    1.669    27 C    1.616    30 C    0.408
    27   6 C    3.771 --    26 C    1.616    28 C    1.354    25 C    0.334
                            30 C    0.158    23 C    0.125    24 C    0.106
    28   6 C    3.885 --    30 C    1.382    27 C    1.354    29 F    1.002
                            25 C    0.102
    29   9 F    1.175 --    28 C    1.002
    30   6 C    3.598 --    28 C    1.382    24 C    1.350    26 C    0.408
                            25 C    0.169    27 C    0.158
    31   6 C    3.886 --    33 C    1.451    21 C    1.236    32 Cl   1.005
    32  17 Cl   1.190 --    31 C    1.005
    33   6 C    3.378 --    31 C    1.451    18 C    1.310    19 C    0.300
                            20 C    0.159
    34   6 C    3.939 --    35 C    1.437    12 C    1.207    16 C    1.001
                            10 C    0.104
    35   6 C    3.545 --    34 C    1.437     9 C    1.385    11 C    0.215
                            10 C    0.129
    36   6 C    3.381 --    37 C    1.576     8 C    1.353     6 C    0.207
    37   6 C    3.353 --    36 C    1.576     5 C    1.313     7 C    0.198
    38   7 N    2.756 --    39 O    1.564     2 C    1.107
    39   8 O    1.681 --    38 N    1.564
 ---------------------------------------------------------------------------

Topologies differ in total number of bonds
Writing topology from bond orders to xtbtopo.mol

molecular dipole:
                 x           y           z       tot (Debye)
 q only:        0.688       3.343      -0.322
   full:        0.588       2.865       0.004       7.434
molecular quadrupole (traceless):
                xx          xy          yy          xz          yz          zz
 q only:        1.148     -24.872     -18.059      -3.848      12.060      16.911
  q+dip:       -3.370     -24.655     -10.508      -1.610      12.672      13.878
   full:        0.185     -26.888     -17.863      -3.780      12.565      17.678


           -------------------------------------------------
          | TOTAL ENERGY              -95.755356963464 Eh   |
          | GRADIENT NORM               0.463909690297 Eh/α |
          | HOMO-LUMO GAP               0.030981840854 eV   |
           -------------------------------------------------

------------------------------------------------------------------------
 * finished run on 2026/07/23 at 16:40:03.351     
------------------------------------------------------------------------
 total:
 * wall-time:     0 d,  0 h,  0 min,  0.713 sec
 *  cpu-time:     0 d,  0 h,  0 min,  0.742 sec
 * ratio c/w:     1.041 speedup
 SCF:
 * wall-time:     0 d,  0 h,  0 min,  0.694 sec
 *  cpu-time:     0 d,  0 h,  0 min,  0.720 sec
 * ratio c/w:     1.038 speedup

