      -----------------------------------------------------------      
     |                   =====================                   |     
     |                           x T B                           |     
     |                   =====================                   |     
     |                         S. Grimme                         |     
     |          Mulliken Center for Theoretical Chemistry        |     
     |                    University of Bonn                     |     
      -----------------------------------------------------------      

   * xtb version 6.6.1 (unknown) compiled by 'builduser@buildhost' on 2023-08-07

   xtb is free software: you can redistribute it and/or modify it under
   the terms of the GNU Lesser General Public License as published by
   the Free Software Foundation, either version 3 of the License, or
   (at your option) any later version.
   
   xtb is distributed in the hope that it will be useful,
   but WITHOUT ANY WARRANTY; without even the implied warranty of
   MERCHANTABILITY or FITNESS FOR A PARTICULAR PURPOSE.  See the
   GNU Lesser General Public License for more details.
   
   Cite this work as:
   * C. Bannwarth, E. Caldeweyher, S. Ehlert, A. Hansen, P. Pracht,
     J. Seibert, S. Spicher, S. Grimme, WIREs Comput. Mol. Sci., 2020, 11,
     e01493. DOI: 10.1002/wcms.1493
   
   for GFN2-xTB:
   * C. Bannwarth, S. Ehlert and S. Grimme., J. Chem. Theory Comput., 2019,
     15, 1652-1671. DOI: 10.1021/acs.jctc.8b01176
   for GFN1-xTB:
   * S. Grimme, C. Bannwarth, P. Shushkov, J. Chem. Theory Comput., 2017,
     13, 1989-2009. DOI: 10.1021/acs.jctc.7b00118
   for GFN0-xTB:
   * P. Pracht, E. Caldeweyher, S. Ehlert, S. Grimme, ChemRxiv, 2019, preprint.
     DOI: 10.26434/chemrxiv.8326202.v1
   for GFN-FF:
   * S. Spicher and S. Grimme, Angew. Chem. Int. Ed., 2020, 59, 15665-15673.
     DOI: 10.1002/anie.202004239
   
   for ALPB and GBSA implicit solvation:
   * S. Ehlert, M. Stahn, S. Spicher, S. Grimme, J. Chem. Theory Comput.,
     2021, 17, 4250-4261. DOI: 10.1021/acs.jctc.1c00471
   
   for DFT-D4:
   * E. Caldeweyher, C. Bannwarth and S. Grimme, J. Chem. Phys., 2017,
     147, 034112. DOI: 10.1063/1.4993215
   * E. Caldeweyher, S. Ehlert, A. Hansen, H. Neugebauer, S. Spicher,
     C. Bannwarth and S. Grimme, J. Chem. Phys., 2019, 150, 154122.
     DOI: 10.1063/1.5090222
   * E. Caldeweyher, J.-M. Mewes, S. Ehlert and S. Grimme, Phys. Chem. Chem. Phys.
     2020, 22, 8499-8512. DOI: 10.1039/D0CP00502A
   
   for sTDA-xTB:
   * S. Grimme and C. Bannwarth, J. Chem. Phys., 2016, 145, 054103.
     DOI: 10.1063/1.4959605
   
   in the mass-spec context:
   * V. Asgeirsson, C. Bauer and S. Grimme, Chem. Sci., 2017, 8, 4879.
     DOI: 10.1039/c7sc00601b
   * J. Koopman and S. Grimme, ACS Omega 2019, 4, 12, 15120-15133.
     DOI: 10.1021/acsomega.9b02011
   
   for metadynamics refer to:
   * S. Grimme, J. Chem. Theory Comput., 2019, 155, 2847-2862
     DOI: 10.1021/acs.jctc.9b00143
   
   for SPH calculations refer to:
   * S. Spicher and S. Grimme, J. Chem. Theory Comput., 2021, 17, 1701-1714
     DOI: 10.1021/acs.jctc.0c01306
   
   with help from (in alphabetical order)
   P. Atkinson, C. Bannwarth, F. Bohle, G. Brandenburg, E. Caldeweyher
   M. Checinski, S. Dohm, S. Ehlert, S. Ehrlich, I. Gerasimov, C. Hölzer
   A. Katbashev, J. Koopman, C. Lavigne, S. Lehtola, F. März, M. Müller,
   F. Musil, H. Neugebauer, J. Pisarek, C. Plett, P. Pracht, F. Pultar,
   J. Seibert, P. Shushkov, S. Spicher, M. Stahn, M. Steiner, T. Strunk,
   J. Stückrath, T. Rose, and J. Unsleber
   
 * started run on 2026/07/23 at 16:43:05.054     

           -------------------------------------------------
          |                Calculation Setup                |
           -------------------------------------------------

          program call               : xtb /home/selva/covalent_quantum_benchmark/data/quantum/erbB_xyz/ERBB2__CHEMBL53898__state01.xyz --gfn2 --chrg 0 --uhf 0 --iterations 300
          coordinate file            : /home/selva/covalent_quantum_benchmark/data/quantum/erbB_xyz/ERBB2__CHEMBL53898__state01.xyz
          omp threads                :                    24

   ID    Z sym.   atoms
    1    7 N      1, 15
    2    6 C      2-7, 9, 11-13, 16-24
    3    8 O      8, 10, 14

           -------------------------------------------------
          |                 G F N 2 - x T B                 |
           -------------------------------------------------

        Reference                      10.1021/acs.jctc.8b01176
      * Hamiltonian:
        H0-scaling (s, p, d)           1.850000    2.230000    2.230000
        zeta-weighting                 0.500000
      * Dispersion:
        s8                             2.700000
        a1                             0.520000
        a2                             5.000000
        s9                             5.000000
      * Repulsion:
        kExp                           1.500000    1.000000
        rExp                           1.000000
      * Coulomb:
        alpha                          2.000000
        third order                    shell-resolved
        anisotropic                    true
        a3                             3.000000
        a5                             4.000000
        cn-shift                       1.200000
        cn-exp                         4.000000
        max-rad                        5.000000


          ...................................................
          :                      SETUP                      :
          :.................................................:
          :  # basis functions                  96          :
          :  # atomic orbitals                  96          :
          :  # shells                           48          :
          :  # electrons                       104          :
          :  max. iterations                   300          :
          :  Hamiltonian                  GFN2-xTB          :
          :  restarted?                      false          :
          :  GBSA solvation                  false          :
          :  PC potential                    false          :
          :  electronic temp.          300.0000000     K    :
          :  accuracy                    1.0000000          :
          :  -> integral cutoff          0.2500000E+02      :
          :  -> integral neglect         0.1000000E-07      :
          :  -> SCF convergence          0.1000000E-05 Eh   :
          :  -> wf. convergence          0.1000000E-03 e    :
          :  Broyden damping             0.4000000          :
          ...................................................

 iter      E             dE          RMSdq      gap      omega  full diag
   1    -57.7433120 -0.577433E+02  0.850E+00    0.58       0.0  T
   2    -51.6459323  0.609738E+01  0.107E+01    0.21       1.0  T
   3    -50.9495269  0.696405E+00  0.101E+01    0.56       1.0  T
   4    -53.9545777 -0.300505E+01  0.819E+00    0.04       1.0  T
   5    -51.5801877  0.237439E+01  0.860E+00    0.27       1.0  T
   6    -54.8594494 -0.327926E+01  0.625E+00    0.11       1.0  T
   7    -57.7520665 -0.289262E+01  0.354E+00    0.45       1.0  T
   8    -57.8597666 -0.107700E+00  0.277E+00    0.19       1.0  T
   9    -57.9767371 -0.116970E+00  0.220E+00    0.14       1.0  T
  10    -57.9036573  0.730798E-01  0.234E+00    0.03       1.0  T
  11    -57.9892440 -0.855868E-01  0.200E+00    0.01       1.0  T
  12    -57.8772514  0.111993E+00  0.246E+00    0.05       1.0  T
  13    -57.8671949  0.100565E-01  0.248E+00    0.05       1.0  T
  14    -58.0763247 -0.209130E+00  0.151E+00    0.01       1.0  T
  15    -58.0872073 -0.108826E-01  0.138E+00    0.02       1.0  T
  16    -57.9926625  0.945448E-01  0.213E+00    0.00       1.0  T
  17    -58.1216506 -0.128988E+00  0.131E+00    0.04       1.0  T
  18    -58.0702637  0.513868E-01  0.156E+00    0.02       1.0  T
  19    -58.0061968  0.640669E-01  0.175E+00    0.01       1.0  T
  20    -58.1122991 -0.106102E+00  0.109E+00    0.02       1.0  T
  21    -58.1337980 -0.214989E-01  0.863E-01    0.03       1.0  T
  22    -58.1666664 -0.328685E-01  0.499E-01    0.05       1.0  T
  23    -58.1654824  0.118401E-02  0.522E-01    0.05       1.0  T
  24    -58.1689048 -0.342241E-02  0.459E-01    0.05       1.0  T
  25    -58.1792634 -0.103586E-01  0.213E-01    0.07       1.0  T
  26    -58.1816302 -0.236678E-02  0.957E-02    0.07       1.0  T
  27    -58.1807898  0.840397E-03  0.156E-01    0.08       1.0  T
  28    -58.1805126  0.277161E-03  0.171E-01    0.08       1.0  T
  29    -58.1817042 -0.119152E-02  0.814E-02    0.07       1.0  T
  30    -58.1820103 -0.306128E-03  0.318E-02    0.07       1.0  T
  31    -58.1820355 -0.251867E-04  0.234E-02    0.07       1.0  T
  32    -58.1819094  0.126104E-03  0.552E-02    0.07       1.0  T
  33    -58.1820503 -0.140972E-03  0.171E-02    0.07       1.2  T
  34    -58.1820596 -0.924928E-05  0.663E-03    0.07       3.1  T
  35    -58.1820605 -0.923056E-06  0.460E-03    0.07       4.4  T
  36    -58.1820610 -0.508850E-06  0.358E-03    0.07       5.7  T
  37    -58.1820611 -0.393866E-07  0.351E-03    0.07       5.8  T
  38    -58.1820614 -0.324623E-06  0.263E-03    0.07       7.8  T
  39    -58.1820616 -0.169596E-06  0.208E-03    0.07       9.8  T
  40    -58.1820618 -0.245476E-06  0.320E-04    0.07      63.7  T
  41    -58.1820618  0.318564E-08  0.383E-04    0.07      53.3  T

   *** convergence criteria satisfied after 41 iterations ***

         #    Occupation            Energy/Eh            Energy/eV
      -------------------------------------------------------------
         1        2.0000           -0.7742563             -21.0686
       ...           ...                  ...                  ...
        46        2.0000           -0.4648374             -12.6489
        47        2.0000           -0.4541601             -12.3583
        48        2.0000           -0.4465981             -12.1526
        49        1.9997           -0.4396722             -11.9641
        50        1.9923           -0.4366776             -11.8826
        51        1.9730           -0.4354790             -11.8500
        52        1.6062           -0.4327361             -11.7753 (HOMO)
        53        0.4190           -0.4301389             -11.7047 (LUMO)
        54        0.0098           -0.4263491             -11.6015
        55                         -0.4078057             -11.0970
        56                         -0.3915845             -10.6556
        57                         -0.3857725             -10.4974
       ...                                ...                  ...
        96                          1.0308793              28.0517
      -------------------------------------------------------------
                  HL-Gap            0.0025971 Eh            0.0707 eV
             Fermi-level           -0.4314005 Eh          -11.7390 eV

 SCC (total)                   0 d,  0 h,  0 min,  0.298 sec
 SCC setup                      ...        0 min,  0.000 sec (  0.085%)
 Dispersion                     ...        0 min,  0.001 sec (  0.204%)
 classical contributions        ...        0 min,  0.001 sec (  0.326%)
 integral evaluation            ...        0 min,  0.004 sec (  1.242%)
 iterations                     ...        0 min,  0.285 sec ( 95.613%)
 molecular gradient             ...        0 min,  0.007 sec (  2.298%)
 printout                       ...        0 min,  0.001 sec (  0.222%)

         :::::::::::::::::::::::::::::::::::::::::::::::::::::
         ::                     SUMMARY                     ::
         :::::::::::::::::::::::::::::::::::::::::::::::::::::
         :: total energy             -57.484185071425 Eh    ::
         :: gradient norm              0.454664935226 Eh/a0 ::
         :: HOMO-LUMO gap              0.070671602025 eV    ::
         ::.................................................::
         :: SCC energy               -58.182061802380 Eh    ::
         :: -> isotropic ES            0.073873746046 Eh    ::
         :: -> anisotropic ES          0.001131743115 Eh    ::
         :: -> anisotropic XC          0.041236023403 Eh    ::
         :: -> dispersion             -0.031709128369 Eh    ::
         :: repulsion energy           0.697378859968 Eh    ::
         :: add. restraining           0.000000000000 Eh    ::
         :: total charge               0.000000000009 e     ::
         :::::::::::::::::::::::::::::::::::::::::::::::::::::

           -------------------------------------------------
          |                Property Printout                |
           -------------------------------------------------

    * Orbital Energies and Occupations

         #    Occupation            Energy/Eh            Energy/eV
      -------------------------------------------------------------
         1        2.0000           -0.7742563             -21.0686
       ...           ...                  ...                  ...
        40        2.0000           -0.4932452             -13.4219
        41        2.0000           -0.4913886             -13.3714
        42        2.0000           -0.4855124             -13.2115
        43        2.0000           -0.4801122             -13.0645
        44        2.0000           -0.4762212             -12.9586
        45        2.0000           -0.4653365             -12.6625
        46        2.0000           -0.4648374             -12.6489
        47        2.0000           -0.4541601             -12.3583
        48        2.0000           -0.4465981             -12.1526
        49        1.9997           -0.4396722             -11.9641
        50        1.9923           -0.4366776             -11.8826
        51        1.9730           -0.4354790             -11.8500
        52        1.6062           -0.4327361             -11.7753 (HOMO)
        53        0.4190           -0.4301389             -11.7047 (LUMO)
        54        0.0098           -0.4263491             -11.6015
        55                         -0.4078057             -11.0970
        56                         -0.3915845             -10.6556
        57                         -0.3857725             -10.4974
        58                         -0.3756018             -10.2206
        59                         -0.3634598              -9.8902
        60                         -0.3558110              -9.6821
        61                         -0.3482829              -9.4773
        62                         -0.3400760              -9.2539
        63                         -0.3077707              -8.3749
       ...                                ...                  ...
        96                          1.0308793              28.0517
      -------------------------------------------------------------
                  HL-Gap            0.0025971 Eh            0.0707 eV
             Fermi-level           -0.4314005 Eh          -11.7390 eV

     #   Z          covCN         q      C6AA      α(0)
     1   7 N        0.911    -0.133    23.892     7.069
     2   6 C        1.904     0.143    27.635     8.490
     3   6 C        2.947     0.029    27.361     8.579
     4   6 C        1.997     0.039    30.047     8.852
     5   6 C        2.956     0.085    26.106     8.380
     6   6 C        1.991    -0.086    33.403     9.334
     7   6 C        2.817     0.247    22.862     7.834
     8   8 O        0.857    -0.255    18.986     5.842
     9   6 C        2.806     0.178    24.166     8.054
    10   8 O        0.851    -0.297    19.728     5.955
    11   6 C        1.970     0.002    31.027     8.995
    12   6 C        1.977    -0.019    31.564     9.073
    13   6 C        2.765     0.323    21.509     7.595
    14   8 O        0.857    -0.324    20.214     6.028
    15   7 N        1.825    -0.161    25.275     7.450
    16   6 C        1.891     0.081    29.087     8.710
    17   6 C        1.952     0.022    30.523     8.922
    18   6 C        1.956     0.027    30.370     8.900
    19   6 C        2.961     0.087    26.053     8.372
    20   6 C        1.990    -0.023    31.658     9.086
    21   6 C        1.986    -0.001    31.075     9.002
    22   6 C        1.987     0.049    29.805     8.816
    23   6 C        1.986     0.009    30.815     8.965
    24   6 C        1.990    -0.023    31.648     9.085

 Mol. C6AA /au·bohr⁶  :      15559.555000
 Mol. C8AA /au·bohr⁸  :     425706.329546
 Mol. α(0) /au        :        197.389931
Note: The following floating-point exceptions are signalling: IEEE_UNDERFLOW_FLAG IEEE_DENORMAL
normal termination of xtb


Wiberg/Mayer (AO) data.
largest (>0.10) Wiberg bond orders for each atom

 ---------------------------------------------------------------------------
     #   Z sym  total        # sym  WBO       # sym  WBO       # sym  WBO
 ---------------------------------------------------------------------------
     1   7 N    3.088 --     2 C    2.794     4 C    0.156
     2   6 C    3.936 --     1 N    2.794     3 C    1.045
     3   6 C    3.959 --     4 C    1.778     2 C    1.045    13 C    0.926
     4   6 C    3.778 --     3 C    1.778     5 C    1.201    11 C    0.279
                             1 N    0.156
     5   6 C    3.958 --     6 C    1.559     4 C    1.201    12 C    1.016
     6   6 C    3.602 --     5 C    1.559     7 C    1.106    12 C    0.260
                            11 C    0.225    10 O    0.116
     7   6 C    3.919 --     8 O    1.818     6 C    1.106     9 C    0.865
     8   8 O    2.182 --     7 C    1.818
     9   6 C    3.823 --    10 O    1.619    11 C    1.069     7 C    0.865
                            12 C    0.104
    10   8 O    2.086 --     9 C    1.619    12 C    0.193     6 C    0.116
    11   6 C    3.780 --    12 C    2.008     9 C    1.069     4 C    0.279
                             6 C    0.225
    12   6 C    3.801 --    11 C    2.008     5 C    1.016     6 C    0.260
                            10 O    0.193     9 C    0.104
    13   6 C    3.927 --    14 O    1.735    15 N    1.146     3 C    0.926
    14   8 O    2.101 --    13 C    1.735
    15   7 N    3.225 --    16 C    1.584    13 C    1.146    17 C    0.105
    16   6 C    3.489 --    15 N    1.584    17 C    1.435    18 C    0.152
    17   6 C    3.560 --    18 C    1.774    16 C    1.435    15 N    0.105
    18   6 C    3.442 --    17 C    1.774    19 C    1.065    16 C    0.152
    19   6 C    3.922 --    24 C    1.311    20 C    1.303    18 C    1.065
    20   6 C    3.610 --    21 C    1.551    19 C    1.303    23 C    0.218
                            22 C    0.179    24 C    0.119
    21   6 C    3.642 --    22 C    1.651    20 C    1.551    24 C    0.231
    22   6 C    3.786 --    21 C    1.651    23 C    1.613    20 C    0.179
                            24 C    0.164
    23   6 C    3.699 --    22 C    1.613    24 C    1.559    20 C    0.218
    24   6 C    3.560 --    23 C    1.559    19 C    1.311    21 C    0.231
                            22 C    0.164    20 C    0.119
 ---------------------------------------------------------------------------

Topologies differ in total number of bonds
Writing topology from bond orders to xtbtopo.mol

molecular dipole:
                 x           y           z       tot (Debye)
 q only:       -1.455      -0.206       1.881
   full:       -1.756      -0.256       1.652       6.161
molecular quadrupole (traceless):
                xx          xy          yy          xz          yz          zz
 q only:        1.982       7.697      -2.407      19.863     -13.587       0.425
  q+dip:        2.495       3.839      -7.744      18.337     -11.071       5.249
   full:        2.889       3.443      -8.882      22.742     -12.346       5.993


           -------------------------------------------------
          | TOTAL ENERGY              -57.484185071425 Eh   |
          | GRADIENT NORM               0.454664935226 Eh/α |
          | HOMO-LUMO GAP               0.070671602025 eV   |
           -------------------------------------------------

------------------------------------------------------------------------
 * finished run on 2026/07/23 at 16:43:05.366     
------------------------------------------------------------------------
 total:
 * wall-time:     0 d,  0 h,  0 min,  0.312 sec
 *  cpu-time:     0 d,  0 h,  0 min,  0.297 sec
 * ratio c/w:     0.952 speedup
 SCF:
 * wall-time:     0 d,  0 h,  0 min,  0.299 sec
 *  cpu-time:     0 d,  0 h,  0 min,  0.277 sec
 * ratio c/w:     0.926 speedup

