      -----------------------------------------------------------      
     |                   =====================                   |     
     |                           x T B                           |     
     |                   =====================                   |     
     |                         S. Grimme                         |     
     |          Mulliken Center for Theoretical Chemistry        |     
     |                    University of Bonn                     |     
      -----------------------------------------------------------      

   * xtb version 6.6.1 (unknown) compiled by 'builduser@buildhost' on 2023-08-07

   xtb is free software: you can redistribute it and/or modify it under
   the terms of the GNU Lesser General Public License as published by
   the Free Software Foundation, either version 3 of the License, or
   (at your option) any later version.
   
   xtb is distributed in the hope that it will be useful,
   but WITHOUT ANY WARRANTY; without even the implied warranty of
   MERCHANTABILITY or FITNESS FOR A PARTICULAR PURPOSE.  See the
   GNU Lesser General Public License for more details.
   
   Cite this work as:
   * C. Bannwarth, E. Caldeweyher, S. Ehlert, A. Hansen, P. Pracht,
     J. Seibert, S. Spicher, S. Grimme, WIREs Comput. Mol. Sci., 2020, 11,
     e01493. DOI: 10.1002/wcms.1493
   
   for GFN2-xTB:
   * C. Bannwarth, S. Ehlert and S. Grimme., J. Chem. Theory Comput., 2019,
     15, 1652-1671. DOI: 10.1021/acs.jctc.8b01176
   for GFN1-xTB:
   * S. Grimme, C. Bannwarth, P. Shushkov, J. Chem. Theory Comput., 2017,
     13, 1989-2009. DOI: 10.1021/acs.jctc.7b00118
   for GFN0-xTB:
   * P. Pracht, E. Caldeweyher, S. Ehlert, S. Grimme, ChemRxiv, 2019, preprint.
     DOI: 10.26434/chemrxiv.8326202.v1
   for GFN-FF:
   * S. Spicher and S. Grimme, Angew. Chem. Int. Ed., 2020, 59, 15665-15673.
     DOI: 10.1002/anie.202004239
   
   for ALPB and GBSA implicit solvation:
   * S. Ehlert, M. Stahn, S. Spicher, S. Grimme, J. Chem. Theory Comput.,
     2021, 17, 4250-4261. DOI: 10.1021/acs.jctc.1c00471
   
   for DFT-D4:
   * E. Caldeweyher, C. Bannwarth and S. Grimme, J. Chem. Phys., 2017,
     147, 034112. DOI: 10.1063/1.4993215
   * E. Caldeweyher, S. Ehlert, A. Hansen, H. Neugebauer, S. Spicher,
     C. Bannwarth and S. Grimme, J. Chem. Phys., 2019, 150, 154122.
     DOI: 10.1063/1.5090222
   * E. Caldeweyher, J.-M. Mewes, S. Ehlert and S. Grimme, Phys. Chem. Chem. Phys.
     2020, 22, 8499-8512. DOI: 10.1039/D0CP00502A
   
   for sTDA-xTB:
   * S. Grimme and C. Bannwarth, J. Chem. Phys., 2016, 145, 054103.
     DOI: 10.1063/1.4959605
   
   in the mass-spec context:
   * V. Asgeirsson, C. Bauer and S. Grimme, Chem. Sci., 2017, 8, 4879.
     DOI: 10.1039/c7sc00601b
   * J. Koopman and S. Grimme, ACS Omega 2019, 4, 12, 15120-15133.
     DOI: 10.1021/acsomega.9b02011
   
   for metadynamics refer to:
   * S. Grimme, J. Chem. Theory Comput., 2019, 155, 2847-2862
     DOI: 10.1021/acs.jctc.9b00143
   
   for SPH calculations refer to:
   * S. Spicher and S. Grimme, J. Chem. Theory Comput., 2021, 17, 1701-1714
     DOI: 10.1021/acs.jctc.0c01306
   
   with help from (in alphabetical order)
   P. Atkinson, C. Bannwarth, F. Bohle, G. Brandenburg, E. Caldeweyher
   M. Checinski, S. Dohm, S. Ehlert, S. Ehrlich, I. Gerasimov, C. Hölzer
   A. Katbashev, J. Koopman, C. Lavigne, S. Lehtola, F. März, M. Müller,
   F. Musil, H. Neugebauer, J. Pisarek, C. Plett, P. Pracht, F. Pultar,
   J. Seibert, P. Shushkov, S. Spicher, M. Stahn, M. Steiner, T. Strunk,
   J. Stückrath, T. Rose, and J. Unsleber
   
 * started run on 2026/07/23 at 16:41:26.855     

           -------------------------------------------------
          |                Calculation Setup                |
           -------------------------------------------------

          program call               : xtb /home/selva/covalent_quantum_benchmark/data/quantum/erbB_xyz/ERBB2__CHEMBL202411__state02.xyz --gfn2 --chrg 0 --uhf 0 --iterations 300
          coordinate file            : /home/selva/covalent_quantum_benchmark/data/quantum/erbB_xyz/ERBB2__CHEMBL202411__state02.xyz
          omp threads                :                    24

   ID    Z sym.   atoms
    1    8 O      1, 6
    2    6 C      2-5, 8-11, 13, 15, 17-20, 22, 24-26
    3    7 N      7, 12, 14, 16
    4    9 F      21
    5   17 Cl     23

           -------------------------------------------------
          |                 G F N 2 - x T B                 |
           -------------------------------------------------

        Reference                      10.1021/acs.jctc.8b01176
      * Hamiltonian:
        H0-scaling (s, p, d)           1.850000    2.230000    2.230000
        zeta-weighting                 0.500000
      * Dispersion:
        s8                             2.700000
        a1                             0.520000
        a2                             5.000000
        s9                             5.000000
      * Repulsion:
        kExp                           1.500000    1.000000
        rExp                           1.000000
      * Coulomb:
        alpha                          2.000000
        third order                    shell-resolved
        anisotropic                    true
        a3                             3.000000
        a5                             4.000000
        cn-shift                       1.200000
        cn-exp                         4.000000
        max-rad                        5.000000


          ...................................................
          :                      SETUP                      :
          :.................................................:
          :  # basis functions                 110          :
          :  # atomic orbitals                 109          :
          :  # shells                           53          :
          :  # electrons                       118          :
          :  max. iterations                   300          :
          :  Hamiltonian                  GFN2-xTB          :
          :  restarted?                      false          :
          :  GBSA solvation                  false          :
          :  PC potential                    false          :
          :  electronic temp.          300.0000000     K    :
          :  accuracy                    1.0000000          :
          :  -> integral cutoff          0.2500000E+02      :
          :  -> integral neglect         0.1000000E-07      :
          :  -> SCF convergence          0.1000000E-05 Eh   :
          :  -> wf. convergence          0.1000000E-03 e    :
          :  Broyden damping             0.4000000          :
          ...................................................

 iter      E             dE          RMSdq      gap      omega  full diag
   1    -66.9526713 -0.669527E+02  0.737E+00    0.26       0.0  T
   2    -61.9940398  0.495863E+01  0.106E+01    0.53       1.0  T
   3    -66.4867367 -0.449270E+01  0.539E+00    0.07       1.0  T
   4    -65.9794005  0.507336E+00  0.549E+00    0.09       1.0  T
   5    -64.9820926  0.997308E+00  0.650E+00    0.15       1.0  T
   6    -66.7751967 -0.179310E+01  0.405E+00    0.22       1.0  T
   7    -67.1178830 -0.342686E+00  0.297E+00    0.13       1.0  T
   8    -67.1664972 -0.486142E-01  0.254E+00    0.01       1.0  T
   9    -67.3584906 -0.191993E+00  0.201E+00    0.05       1.0  T
  10    -67.2834610  0.750296E-01  0.230E+00    0.02       1.0  T
  11    -67.2923518 -0.889077E-02  0.201E+00    0.05       1.0  T
  12    -67.2668732  0.254786E-01  0.227E+00    0.01       1.0  T
  13    -67.1420007  0.124872E+00  0.256E+00    0.07       1.0  T
  14    -67.1832858 -0.412851E-01  0.240E+00    0.03       1.0  T
  15    -67.3613381 -0.178052E+00  0.189E+00    0.03       1.0  T
  16    -67.3786680 -0.173299E-01  0.160E+00    0.03       1.0  T
  17    -67.5397619 -0.161094E+00  0.554E-01    0.03       1.0  T
  18    -67.5242862  0.154757E-01  0.715E-01    0.03       1.0  T
  19    -67.5321871 -0.790090E-02  0.604E-01    0.02       1.0  T
  20    -67.5394744 -0.728727E-02  0.492E-01    0.03       1.0  T
  21    -67.5470991 -0.762469E-02  0.203E-01    0.02       1.0  T
  22    -67.5476162 -0.517195E-03  0.139E-01    0.03       1.0  T
  23    -67.5469367  0.679544E-03  0.172E-01    0.03       1.0  T
  24    -67.5474336 -0.496855E-03  0.126E-01    0.03       1.0  T
  25    -67.5471853  0.248225E-03  0.135E-01    0.03       1.0  T
  26    -67.5483369 -0.115154E-02  0.258E-02    0.03       1.0  T
  27    -67.5481940  0.142855E-03  0.539E-02    0.03       1.0  T
  28    -67.5480535  0.140559E-03  0.712E-02    0.03       1.0  T
  29    -67.5480451  0.833684E-05  0.720E-02    0.03       1.0  T
  30    -67.5482400 -0.194879E-03  0.466E-02    0.03       1.0  T
  31    -67.5482906 -0.505736E-04  0.363E-02    0.03       1.0  T
  32    -67.5483435 -0.529288E-04  0.226E-02    0.03       1.0  T
  33    -67.5483703 -0.267948E-04  0.963E-03    0.03       2.0  T
  34    -67.5483757 -0.544241E-05  0.320E-03    0.03       6.1  T
  35    -67.5483751  0.653719E-06  0.451E-03    0.03       4.4  T
  36    -67.5483755 -0.455255E-06  0.328E-03    0.03       6.0  T
  37    -67.5483760 -0.478517E-06  0.193E-03    0.03      10.2  T
  38    -67.5483762 -0.224425E-06  0.663E-04    0.03      29.6  T
  39    -67.5483762  0.494776E-08  0.645E-04    0.03      30.4  T

   *** convergence criteria satisfied after 39 iterations ***

         #    Occupation            Energy/Eh            Energy/eV
      -------------------------------------------------------------
         1        2.0000           -1.0861768             -29.5564
       ...           ...                  ...                  ...
        53        2.0000           -0.4389088             -11.9433
        54        2.0000           -0.4325686             -11.7708
        55        1.9998           -0.4303388             -11.7101
        56        1.9821           -0.4261348             -11.5957
        57        1.9267           -0.4247672             -11.5585
        58        1.6661           -0.4231891             -11.5156
        59        1.4310           -0.4225379             -11.4978 (HOMO)
        60        0.9162           -0.4215022             -11.4697 (LUMO)
        61        0.0781           -0.4186192             -11.3912
        62                         -0.3959803             -10.7752
        63                         -0.3775951             -10.2749
        64                         -0.3592760              -9.7764
       ...                                ...                  ...
       109                          1.3089012              35.6170
      -------------------------------------------------------------
                  HL-Gap            0.0010358 Eh            0.0282 eV
             Fermi-level           -0.4216618 Eh          -11.4740 eV

 SCC (total)                   0 d,  0 h,  0 min,  0.320 sec
 SCC setup                      ...        0 min,  0.000 sec (  0.130%)
 Dispersion                     ...        0 min,  0.001 sec (  0.249%)
 classical contributions        ...        0 min,  0.001 sec (  0.190%)
 integral evaluation            ...        0 min,  0.006 sec (  1.902%)
 iterations                     ...        0 min,  0.289 sec ( 90.418%)
 molecular gradient             ...        0 min,  0.022 sec (  6.790%)
 printout                       ...        0 min,  0.001 sec (  0.312%)

         :::::::::::::::::::::::::::::::::::::::::::::::::::::
         ::                     SUMMARY                     ::
         :::::::::::::::::::::::::::::::::::::::::::::::::::::
         :: total energy             -66.759498582870 Eh    ::
         :: gradient norm              0.419828041876 Eh/a0 ::
         :: HOMO-LUMO gap              0.028185206181 eV    ::
         ::.................................................::
         :: SCC energy               -67.548376243475 Eh    ::
         :: -> isotropic ES            0.075658757757 Eh    ::
         :: -> anisotropic ES          0.005201708558 Eh    ::
         :: -> anisotropic XC          0.031857496713 Eh    ::
         :: -> dispersion             -0.033932438580 Eh    ::
         :: repulsion energy           0.789215539031 Eh    ::
         :: add. restraining           0.000000000000 Eh    ::
         :: total charge               0.000000000094 e     ::
         :::::::::::::::::::::::::::::::::::::::::::::::::::::

           -------------------------------------------------
          |                Property Printout                |
           -------------------------------------------------

    * Orbital Energies and Occupations

         #    Occupation            Energy/Eh            Energy/eV
      -------------------------------------------------------------
         1        2.0000           -1.0861768             -29.5564
       ...           ...                  ...                  ...
        47        2.0000           -0.4735318             -12.8855
        48        2.0000           -0.4634423             -12.6109
        49        2.0000           -0.4604258             -12.5288
        50        2.0000           -0.4569644             -12.4346
        51        2.0000           -0.4471361             -12.1672
        52        2.0000           -0.4442190             -12.0878
        53        2.0000           -0.4389088             -11.9433
        54        2.0000           -0.4325686             -11.7708
        55        1.9998           -0.4303388             -11.7101
        56        1.9821           -0.4261348             -11.5957
        57        1.9267           -0.4247672             -11.5585
        58        1.6661           -0.4231891             -11.5156
        59        1.4310           -0.4225379             -11.4978 (HOMO)
        60        0.9162           -0.4215022             -11.4697 (LUMO)
        61        0.0781           -0.4186192             -11.3912
        62                         -0.3959803             -10.7752
        63                         -0.3775951             -10.2749
        64                         -0.3592760              -9.7764
        65                         -0.3547869              -9.6542
        66                         -0.3190015              -8.6805
        67                         -0.3115935              -8.4789
        68                         -0.2865612              -7.7977
        69                         -0.2802478              -7.6259
        70                         -0.2753693              -7.4932
       ...                                ...                  ...
       109                          1.3089012              35.6170
      -------------------------------------------------------------
                  HL-Gap            0.0010358 Eh            0.0282 eV
             Fermi-level           -0.4216618 Eh          -11.4740 eV

     #   Z          covCN         q      C6AA      α(0)
     1   8 O        0.860    -0.324    20.222     6.029
     2   6 C        2.748     0.331    21.382     7.572
     3   6 C        1.975     0.035    30.160     8.869
     4   6 C        1.961     0.056    29.657     8.794
     5   6 C        1.828     0.168    27.125     8.414
     6   8 O        0.850    -0.229    18.545     5.774
     7   7 N        1.838    -0.209    26.390     7.613
     8   6 C        2.896     0.153    24.675     8.144
     9   6 C        1.993    -0.018    31.528     9.068
    10   6 C        1.991    -0.013    31.382     9.047
    11   6 C        2.951     0.128    25.189     8.232
    12   7 N        1.830    -0.152    25.073     7.420
    13   6 C        1.890     0.166    27.128     8.412
    14   7 N        1.832    -0.194    26.024     7.560
    15   6 C        2.854     0.202    23.717     7.982
    16   7 N        1.836    -0.119    24.368     7.315
    17   6 C        2.931     0.131    25.126     8.221
    18   6 C        1.993    -0.036    32.011     9.137
    19   6 C        1.987    -0.020    31.590     9.077
    20   6 C        2.806     0.180    24.129     8.048
    21   9 F        0.787    -0.165    10.885     3.897
    22   6 C        2.879     0.089    26.014     8.361
    23  17 Cl       0.962    -0.064   101.147    15.386
    24   6 C        2.030    -0.068    32.846     9.256
    25   6 C        2.977     0.008    27.840     8.655
    26   6 C        1.987    -0.035    31.999     9.135

 Mol. C6AA /au·bohr⁶  :      18788.082971
 Mol. C8AA /au·bohr⁸  :     522179.407220
Note: The following floating-point exceptions are signalling: IEEE_UNDERFLOW_FLAG IEEE_DENORMAL
normal termination of xtb
 Mol. α(0) /au        :        215.417887


Wiberg/Mayer (AO) data.
largest (>0.10) Wiberg bond orders for each atom

 ---------------------------------------------------------------------------
     #   Z sym  total        # sym  WBO       # sym  WBO       # sym  WBO
 ---------------------------------------------------------------------------
     1   8 O    2.024 --     2 C    1.661
     2   6 C    3.929 --     1 O    1.661     7 N    1.188     3 C    1.007
     3   6 C    3.906 --     4 C    2.575     2 C    1.007     6 O    0.149
     4   6 C    3.909 --     3 C    2.575     5 C    1.192
     5   6 C    3.275 --     6 O    1.873     4 C    1.192
     6   8 O    2.095 --     5 C    1.873     3 C    0.149
     7   7 N    2.884 --     8 C    1.282     2 C    1.188
     8   6 C    3.890 --     7 N    1.282    26 C    1.259     9 C    1.201
     9   6 C    3.608 --    10 C    1.785     8 C    1.201    26 C    0.189
    10   6 C    3.472 --     9 C    1.785    11 C    1.311    26 C    0.150
    11   6 C    3.850 --    10 C    1.311    25 C    1.182    12 N    1.109
    12   7 N    3.084 --    13 C    1.671    11 C    1.109
    13   6 C    3.816 --    12 N    1.671    14 N    1.635    16 N    0.128
    14   7 N    3.186 --    13 C    1.635    15 C    1.152    16 N    0.104
    15   6 C    3.952 --    16 N    1.587    14 N    1.152    25 C    1.024
    16   7 N    3.235 --    15 C    1.587    17 C    1.096    13 C    0.128
                            14 N    0.104
    17   6 C    3.924 --    24 C    1.343    18 C    1.292    16 N    1.096
    18   6 C    3.600 --    19 C    1.654    17 C    1.292    24 C    0.345
                            22 C    0.107
    19   6 C    3.390 --    18 C    1.654    20 C    1.379    24 C    0.149
    20   6 C    3.831 --    19 C    1.379    22 C    1.269    21 F    0.992
    21   9 F    1.146 --    20 C    0.992
    22   6 C    3.889 --    24 C    1.431    20 C    1.269    23 Cl   1.005
                            18 C    0.107
    23  17 Cl   1.188 --    22 C    1.005
    24   6 C    3.445 --    22 C    1.431    17 C    1.343    18 C    0.345
                            19 C    0.149
    25   6 C    3.931 --    26 C    1.457    11 C    1.182    15 C    1.024
    26   6 C    3.374 --    25 C    1.457     8 C    1.259     9 C    0.189
                            10 C    0.150
 ---------------------------------------------------------------------------

Topologies differ in total number of bonds
Writing topology from bond orders to xtbtopo.mol

molecular dipole:
                 x           y           z       tot (Debye)
 q only:        0.144       0.316      -0.901
   full:        0.649       0.833      -0.417       2.886
molecular quadrupole (traceless):
                xx          xy          yy          xz          yz          zz
 q only:      -17.376      -7.638      15.437      -6.786       0.750       1.939
  q+dip:      -22.509      -2.283      17.784      -5.511       5.881       4.725
   full:      -24.933      -5.219      16.935      -9.492       6.497       7.998


           -------------------------------------------------
          | TOTAL ENERGY              -66.759498582870 Eh   |
          | GRADIENT NORM               0.419828041876 Eh/α |
          | HOMO-LUMO GAP               0.028185206181 eV   |
           -------------------------------------------------

------------------------------------------------------------------------
 * finished run on 2026/07/23 at 16:41:27.200     
------------------------------------------------------------------------
 total:
 * wall-time:     0 d,  0 h,  0 min,  0.341 sec
 *  cpu-time:     0 d,  0 h,  0 min,  0.336 sec
 * ratio c/w:     0.984 speedup
 SCF:
 * wall-time:     0 d,  0 h,  0 min,  0.320 sec
 *  cpu-time:     0 d,  0 h,  0 min,  0.316 sec
 * ratio c/w:     0.987 speedup

