      -----------------------------------------------------------      
     |                   =====================                   |     
     |                           x T B                           |     
     |                   =====================                   |     
     |                         S. Grimme                         |     
     |          Mulliken Center for Theoretical Chemistry        |     
     |                    University of Bonn                     |     
      -----------------------------------------------------------      

   * xtb version 6.6.1 (unknown) compiled by 'builduser@buildhost' on 2023-08-07

   xtb is free software: you can redistribute it and/or modify it under
   the terms of the GNU Lesser General Public License as published by
   the Free Software Foundation, either version 3 of the License, or
   (at your option) any later version.
   
   xtb is distributed in the hope that it will be useful,
   but WITHOUT ANY WARRANTY; without even the implied warranty of
   MERCHANTABILITY or FITNESS FOR A PARTICULAR PURPOSE.  See the
   GNU Lesser General Public License for more details.
   
   Cite this work as:
   * C. Bannwarth, E. Caldeweyher, S. Ehlert, A. Hansen, P. Pracht,
     J. Seibert, S. Spicher, S. Grimme, WIREs Comput. Mol. Sci., 2020, 11,
     e01493. DOI: 10.1002/wcms.1493
   
   for GFN2-xTB:
   * C. Bannwarth, S. Ehlert and S. Grimme., J. Chem. Theory Comput., 2019,
     15, 1652-1671. DOI: 10.1021/acs.jctc.8b01176
   for GFN1-xTB:
   * S. Grimme, C. Bannwarth, P. Shushkov, J. Chem. Theory Comput., 2017,
     13, 1989-2009. DOI: 10.1021/acs.jctc.7b00118
   for GFN0-xTB:
   * P. Pracht, E. Caldeweyher, S. Ehlert, S. Grimme, ChemRxiv, 2019, preprint.
     DOI: 10.26434/chemrxiv.8326202.v1
   for GFN-FF:
   * S. Spicher and S. Grimme, Angew. Chem. Int. Ed., 2020, 59, 15665-15673.
     DOI: 10.1002/anie.202004239
   
   for ALPB and GBSA implicit solvation:
   * S. Ehlert, M. Stahn, S. Spicher, S. Grimme, J. Chem. Theory Comput.,
     2021, 17, 4250-4261. DOI: 10.1021/acs.jctc.1c00471
   
   for DFT-D4:
   * E. Caldeweyher, C. Bannwarth and S. Grimme, J. Chem. Phys., 2017,
     147, 034112. DOI: 10.1063/1.4993215
   * E. Caldeweyher, S. Ehlert, A. Hansen, H. Neugebauer, S. Spicher,
     C. Bannwarth and S. Grimme, J. Chem. Phys., 2019, 150, 154122.
     DOI: 10.1063/1.5090222
   * E. Caldeweyher, J.-M. Mewes, S. Ehlert and S. Grimme, Phys. Chem. Chem. Phys.
     2020, 22, 8499-8512. DOI: 10.1039/D0CP00502A
   
   for sTDA-xTB:
   * S. Grimme and C. Bannwarth, J. Chem. Phys., 2016, 145, 054103.
     DOI: 10.1063/1.4959605
   
   in the mass-spec context:
   * V. Asgeirsson, C. Bauer and S. Grimme, Chem. Sci., 2017, 8, 4879.
     DOI: 10.1039/c7sc00601b
   * J. Koopman and S. Grimme, ACS Omega 2019, 4, 12, 15120-15133.
     DOI: 10.1021/acsomega.9b02011
   
   for metadynamics refer to:
   * S. Grimme, J. Chem. Theory Comput., 2019, 155, 2847-2862
     DOI: 10.1021/acs.jctc.9b00143
   
   for SPH calculations refer to:
   * S. Spicher and S. Grimme, J. Chem. Theory Comput., 2021, 17, 1701-1714
     DOI: 10.1021/acs.jctc.0c01306
   
   with help from (in alphabetical order)
   P. Atkinson, C. Bannwarth, F. Bohle, G. Brandenburg, E. Caldeweyher
   M. Checinski, S. Dohm, S. Ehlert, S. Ehrlich, I. Gerasimov, C. Hölzer
   A. Katbashev, J. Koopman, C. Lavigne, S. Lehtola, F. März, M. Müller,
   F. Musil, H. Neugebauer, J. Pisarek, C. Plett, P. Pracht, F. Pultar,
   J. Seibert, P. Shushkov, S. Spicher, M. Stahn, M. Steiner, T. Strunk,
   J. Stückrath, T. Rose, and J. Unsleber
   
 * started run on 2026/07/23 at 16:42:51.811     

           -------------------------------------------------
          |                Calculation Setup                |
           -------------------------------------------------

          program call               : xtb /home/selva/covalent_quantum_benchmark/data/quantum/erbB_xyz/ERBB2__CHEMBL427314__state03.xyz --gfn2 --chrg 0 --uhf 0 --iterations 300
          coordinate file            : /home/selva/covalent_quantum_benchmark/data/quantum/erbB_xyz/ERBB2__CHEMBL427314__state03.xyz
          omp threads                :                    24

   ID    Z sym.   atoms
    1    6 C      1, 2, 4-6, 8-10, 12, 14-18, 20-30, 32, 34-36, 38, 39
    2    8 O      3, 19, 33
    3    7 N      7, 11, 13, 31, 37

           -------------------------------------------------
          |                 G F N 2 - x T B                 |
           -------------------------------------------------

        Reference                      10.1021/acs.jctc.8b01176
      * Hamiltonian:
        H0-scaling (s, p, d)           1.850000    2.230000    2.230000
        zeta-weighting                 0.500000
      * Dispersion:
        s8                             2.700000
        a1                             0.520000
        a2                             5.000000
        s9                             5.000000
      * Repulsion:
        kExp                           1.500000    1.000000
        rExp                           1.000000
      * Coulomb:
        alpha                          2.000000
        third order                    shell-resolved
        anisotropic                    true
        a3                             3.000000
        a5                             4.000000
        cn-shift                       1.200000
        cn-exp                         4.000000
        max-rad                        5.000000


          ...................................................
          :                      SETUP                      :
          :.................................................:
          :  # basis functions                 156          :
          :  # atomic orbitals                 156          :
          :  # shells                           78          :
          :  # electrons                       167          :
          :  max. iterations                   300          :
          :  Hamiltonian                  GFN2-xTB          :
          :  restarted?                      false          :
          :  GBSA solvation                  false          :
          :  PC potential                    false          :
          :  electronic temp.          300.0000000     K    :
          :  accuracy                    1.0000000          :
          :  -> integral cutoff          0.2500000E+02      :
          :  -> integral neglect         0.1000000E-07      :
          :  -> SCF convergence          0.1000000E-05 Eh   :
          :  -> wf. convergence          0.1000000E-03 e    :
          :  Broyden damping             0.4000000          :
          ...................................................

 iter      E             dE          RMSdq      gap      omega  full diag
   1    -91.0829067 -0.910829E+02  0.957E+00    0.28       0.0  T
   2    -75.9624165  0.151205E+02  0.127E+01    0.04       1.0  T
   3    -72.0616727  0.390074E+01  0.114E+01    0.13       1.0  T
   4    -72.1692778 -0.107605E+00  0.110E+01    0.01       1.0  T
   5    -81.7196470 -0.955037E+01  0.867E+00    0.11       1.0  T
   6    -80.3940560  0.132559E+01  0.867E+00    0.04       1.0  T
   7    -89.2104996 -0.881644E+01  0.551E+00    0.08       1.0  T
   8    -89.2236963 -0.131967E-01  0.542E+00    0.16       1.0  T
   9    -90.8150679 -0.159137E+01  0.424E+00    0.05       1.0  T
  10    -91.4337412 -0.618673E+00  0.356E+00    0.04       1.0  T
  11    -91.8037525 -0.370011E+00  0.264E+00    0.04       1.0  T
  12    -91.9562635 -0.152511E+00  0.250E+00    0.08       1.0  T
  13    -91.9600846 -0.382106E-02  0.244E+00    0.06       1.0  T
  14    -91.9634121 -0.332751E-02  0.245E+00    0.07       1.0  T
  15    -90.9001212  0.106329E+01  0.386E+00    0.16       1.0  T
  16    -91.8289547 -0.928833E+00  0.247E+00    0.02       1.0  T
  17    -91.5078618  0.321093E+00  0.307E+00    0.08       1.0  T
  18    -91.4147282  0.931336E-01  0.299E+00    0.05       1.0  T
  19    -90.6195930  0.795135E+00  0.382E+00    0.08       1.0  T
  20    -91.4293111 -0.809718E+00  0.280E+00    0.02       1.0  T
  21    -91.0099410  0.419370E+00  0.306E+00    0.02       1.0  T
  22    -91.3137737 -0.303833E+00  0.288E+00    0.01       1.0  T
  23    -91.4177815 -0.104008E+00  0.259E+00    0.02       1.0  T
  24    -91.8856543 -0.467873E+00  0.187E+00    0.05       1.0  T
  25    -91.7121906  0.173464E+00  0.199E+00    0.04       1.0  T
  26    -91.7675846 -0.553940E-01  0.190E+00    0.04       1.0  T
  27    -92.0028434 -0.235259E+00  0.134E+00    0.05       1.0  T
  28    -92.0875398 -0.846963E-01  0.105E+00    0.03       1.0  T
  29    -92.0845908  0.294894E-02  0.100E+00    0.01       1.0  T
  30    -92.1448944 -0.603036E-01  0.605E-01    0.01       1.0  T
  31    -92.1245008  0.203936E-01  0.687E-01    0.04       1.0  T
  32    -92.1393460 -0.148452E-01  0.612E-01    0.01       1.0  T
  33    -92.1543653 -0.150192E-01  0.458E-01    0.02       1.0  T
  34    -92.1349560  0.194093E-01  0.620E-01    0.01       1.0  T
  35    -92.1620756 -0.271196E-01  0.366E-01    0.04       1.0  T
  36    -92.1715649 -0.948932E-02  0.209E-01    0.04       1.0  T
  37    -92.1752876 -0.372267E-02  0.113E-01    0.04       1.0  T
  38    -92.1754859 -0.198310E-03  0.107E-01    0.03       1.0  T
  39    -92.1709924  0.449353E-02  0.223E-01    0.03       1.0  T
  40    -92.1758392 -0.484689E-02  0.828E-02    0.04       1.0  T
  41    -92.1762142 -0.374916E-03  0.566E-02    0.03       1.0  T
  42    -92.1765223 -0.308186E-03  0.266E-02    0.03       1.0  T
  43    -92.1764806  0.417148E-04  0.337E-02    0.03       1.0  T
  44    -92.1764602  0.204600E-04  0.343E-02    0.03       1.0  T
  45    -92.1765417 -0.815124E-04  0.180E-02    0.03       1.0  T
  46    -92.1765377  0.402437E-05  0.175E-02    0.03       1.0  T
  47    -92.1765348  0.284124E-05  0.172E-02    0.03       1.0  T
  48    -92.1765341  0.707969E-06  0.165E-02    0.03       1.0  T
  49    -92.1765510 -0.168866E-04  0.980E-03    0.03       1.6  T
  50    -92.1765547 -0.370721E-05  0.657E-03    0.03       2.4  T
  51    -92.1765523  0.242045E-05  0.752E-03    0.03       2.1  T
  52    -92.1765554 -0.315996E-05  0.477E-03    0.03       3.4  T
  53    -92.1765565 -0.105665E-05  0.322E-03    0.03       5.0  T
  54    -92.1765571 -0.610994E-06  0.180E-03    0.03       8.9  T
  55    -92.1765573 -0.144907E-06  0.106E-03    0.03      15.0  T
  56    -92.1765573 -0.329270E-07  0.691E-04    0.03      23.2  T
  57    -92.1765573 -0.184275E-08  0.618E-04    0.03      25.9  T

   *** convergence criteria satisfied after 57 iterations ***

         #    Occupation            Energy/Eh            Energy/eV
      -------------------------------------------------------------
         1        2.0000           -0.7937453             -21.5989
       ...           ...                  ...                  ...
        78        1.9970           -0.4311035             -11.7309
        79        1.9923           -0.4302178             -11.7068
        80        1.9866           -0.4296828             -11.6923
        81        1.9643           -0.4287379             -11.6666
        82        1.7821           -0.4268969             -11.6165
        83        1.4698           -0.4258127             -11.5870
        84        1.1276           -0.4250199             -11.5654 (HOMO)
        85        0.5754           -0.4238038             -11.5323 (LUMO)
        86        0.1051           -0.4218339             -11.4787
        87        0.0001           -0.4149686             -11.2919
        88                         -0.4072663             -11.0823
        89                         -0.3996293             -10.8745
       ...                                ...                  ...
       156                          1.0390624              28.2743
      -------------------------------------------------------------
                  HL-Gap            0.0012162 Eh            0.0331 eV
             Fermi-level           -0.4247501 Eh          -11.5580 eV

 SCC (total)                   0 d,  0 h,  0 min,  1.109 sec
 SCC setup                      ...        0 min,  0.000 sec (  0.030%)
 Dispersion                     ...        0 min,  0.001 sec (  0.122%)
 classical contributions        ...        0 min,  0.001 sec (  0.081%)
 integral evaluation            ...        0 min,  0.008 sec (  0.714%)
 iterations                     ...        0 min,  1.053 sec ( 94.977%)
 molecular gradient             ...        0 min,  0.025 sec (  2.277%)
 printout                       ...        0 min,  0.020 sec (  1.795%)

         :::::::::::::::::::::::::::::::::::::::::::::::::::::
         ::                     SUMMARY                     ::
         :::::::::::::::::::::::::::::::::::::::::::::::::::::
         :: total energy             -91.077897907765 Eh    ::
         :: gradient norm              0.557812209655 Eh/a0 ::
         :: HOMO-LUMO gap              0.033093432140 eV    ::
         ::.................................................::
         :: SCC energy               -92.176557289942 Eh    ::
         :: -> isotropic ES            0.011264992279 Eh    ::
         :: -> anisotropic ES          0.011491882500 Eh    ::
         :: -> anisotropic XC          0.061255342221 Eh    ::
         :: -> dispersion             -0.057839464777 Eh    ::
         :: repulsion energy           1.097752851550 Eh    ::
         :: add. restraining           0.000000000000 Eh    ::
         :: total charge               0.000000000061 e     ::
         :::::::::::::::::::::::::::::::::::::::::::::::::::::

           -------------------------------------------------
          |                Property Printout                |
           -------------------------------------------------

    * Orbital Energies and Occupations

         #    Occupation            Energy/Eh            Energy/eV
      -------------------------------------------------------------
         1        2.0000           -0.7937453             -21.5989
       ...           ...                  ...                  ...
        72        2.0000           -0.4551918             -12.3864
        73        2.0000           -0.4522899             -12.3074
        74        2.0000           -0.4494977             -12.2315
        75        2.0000           -0.4398253             -11.9683
        76        2.0000           -0.4372721             -11.8988
        77        1.9996           -0.4329627             -11.7815
        78        1.9970           -0.4311035             -11.7309
        79        1.9923           -0.4302178             -11.7068
        80        1.9866           -0.4296828             -11.6923
        81        1.9643           -0.4287379             -11.6666
        82        1.7821           -0.4268969             -11.6165
        83        1.4698           -0.4258127             -11.5870
        84        1.1276           -0.4250199             -11.5654 (HOMO)
        85        0.5754           -0.4238038             -11.5323 (LUMO)
        86        0.1051           -0.4218339             -11.4787
        87        0.0001           -0.4149686             -11.2919
        88                         -0.4072663             -11.0823
        89                         -0.3996293             -10.8745
        90                         -0.3974115             -10.8141
        91                         -0.3920754             -10.6689
        92                         -0.3894241             -10.5968
        93                         -0.3755526             -10.2193
        94                         -0.3735074             -10.1637
        95                         -0.3683888             -10.0244
       ...                                ...                  ...
       156                          1.0390624              28.2743
      -------------------------------------------------------------
                  HL-Gap            0.0012162 Eh            0.0331 eV
             Fermi-level           -0.4247501 Eh          -11.5580 eV

     #   Z          covCN         q      C6AA      α(0)
     1   6 C        0.976    -0.089    38.702    10.446
     2   6 C        1.837     0.106    28.538     8.630
     3   8 O        1.703    -0.103    15.885     5.381
     4   6 C        2.852     0.163    24.485     8.110
     5   6 C        2.001    -0.080    33.234     9.310
     6   6 C        2.950     0.120    25.367     8.261
     7   7 N        1.844    -0.109    24.157     7.284
     8   6 C        1.969     0.067    29.368     8.752
     9   6 C        2.958     0.036    27.195     8.554
    10   6 C        1.907     0.125    28.040     8.552
    11   7 N        0.911    -0.173    24.740     7.194
    12   6 C        2.914     0.130    25.155     8.224
    13   7 N        1.826    -0.175    25.596     7.497
    14   6 C        2.894     0.130    25.158     8.224
    15   6 C        1.990    -0.006    31.210     9.022
    16   6 C        1.986    -0.028    31.792     9.106
    17   6 C        1.988    -0.017    31.488     9.062
    18   6 C        2.858     0.188    23.985     8.027
    19   8 O        1.702    -0.151    16.574     5.497
    20   6 C        1.849     0.046    29.964     8.843
    21   6 C        2.958     0.073    26.357     8.421
    22   6 C        1.989    -0.024    31.681     9.090
    23   6 C        1.986    -0.002    31.105     9.007
    24   6 C        1.987     0.039    30.042     8.851
    25   6 C        1.985     0.001    31.024     8.995
    26   6 C        1.990    -0.018    31.518     9.066
    27   6 C        1.994    -0.071    32.985     9.275
    28   6 C        2.977     0.019    27.575     8.614
    29   6 C        1.994    -0.072    33.004     9.278
    30   6 C        2.933     0.103    25.726     8.318
    31   7 N        1.832    -0.155    25.149     7.431
    32   6 C        2.788     0.296    21.988     7.681
    33   8 O        0.860    -0.368    21.056     6.152
    34   6 C        1.964    -0.031    31.903     9.121
    35   6 C        1.964     0.039    30.071     8.856
    36   6 C        1.913    -0.034    32.010     9.137
    37   7 N        2.721     0.172    18.364     6.365
    38   6 C        0.936    -0.075    37.930    10.321
    39   6 C        0.941    -0.072    37.872    10.316

 Mol. C6AA /au·bohr⁶  :      42311.859931
 Mol. C8AA /au·bohr⁸  :    1163603.431376
 Mol. α(0) /au        :        328.268892


Wiberg/Mayer (AO) data.
largest (>0.10) Wiberg bond orders for each atom

 ---------------------------------------------------------------------------
     #   Z sym  total        # sym  WBO       # sym  WBO       # sym  WBO
 ---------------------------------------------------------------------------
     1   6 C    2.441 --     2 C    2.176     3 O    0.114
     2   6 C    3.464 --     1 C    2.176     3 O    1.126
     3   8 O    2.449 --     2 C    1.126     4 C    1.097     1 C    0.114
     4   6 C    3.902 --     5 C    1.457     3 O    1.097    30 C    1.086
     5   6 C    3.687 --     4 C    1.457     6 C    1.391    29 C    0.476
     6   6 C    3.931 --     5 C    1.391     7 N    1.236    28 C    1.070
     7   7 N    3.309 --     8 C    1.683     6 C    1.236
     8   6 C    3.711 --     7 N    1.683     9 C    1.389    13 N    0.279
     9   6 C    3.948 --     8 C    1.389    12 C    1.232    10 C    1.080
    10   6 C    3.945 --    11 N    2.816     9 C    1.080
    11   7 N    3.001 --    10 C    2.816
    12   6 C    3.958 --    13 N    1.260     9 C    1.232    28 C    1.185
    13   7 N    3.202 --    12 C    1.260    14 C    1.180     8 C    0.279
    14   6 C    3.951 --    27 C    1.331    15 C    1.264    13 N    1.180
    15   6 C    3.695 --    16 C    1.638    14 C    1.264    17 C    0.415
                            27 C    0.169
    16   6 C    3.777 --    15 C    1.638    17 C    1.611    27 C    0.414
    17   6 C    3.685 --    16 C    1.611    18 C    1.311    15 C    0.415
                            27 C    0.142
    18   6 C    3.902 --    27 C    1.349    17 C    1.311    19 O    1.044
    19   8 O    2.388 --    20 C    1.094    18 C    1.044
    20   6 C    2.828 --    21 C    1.217    19 O    1.094    24 C    0.115
                            23 C    0.101
    21   6 C    3.905 --    26 C    1.249    22 C    1.246    20 C    1.217
    22   6 C    3.530 --    23 C    1.640    21 C    1.246    25 C    0.255
                            24 C    0.200
    23   6 C    3.659 --    22 C    1.640    24 C    1.567    26 C    0.223
                            20 C    0.101
    24   6 C    3.760 --    25 C    1.587    23 C    1.567    22 C    0.200
Note: The following floating-point exceptions are signalling: IEEE_UNDERFLOW_FLAG IEEE_DENORMAL
normal termination of xtb
                            26 C    0.198    20 C    0.115
    25   6 C    3.647 --    26 C    1.662    24 C    1.587    22 C    0.255
    26   6 C    3.523 --    25 C    1.662    21 C    1.249    23 C    0.223
                            24 C    0.198
    27   6 C    3.520 --    18 C    1.349    14 C    1.331    16 C    0.414
                            15 C    0.169    17 C    0.142
    28   6 C    3.942 --    29 C    1.428    12 C    1.185     6 C    1.070
    29   6 C    3.751 --    30 C    1.434    28 C    1.428     5 C    0.476
    30   6 C    3.941 --    29 C    1.434    31 N    1.184     4 C    1.086
    31   7 N    3.211 --    32 C    1.480    30 C    1.184    33 O    0.179
    32   6 C    3.935 --    31 N    1.480    33 O    1.397    34 C    0.971
    33   8 O    1.951 --    32 C    1.397    31 N    0.179    34 C    0.115
    34   6 C    3.716 --    35 C    2.258    32 C    0.971    36 C    0.142
                            33 O    0.115    38 C    0.106
    35   6 C    3.812 --    34 C    2.258    36 C    1.345
    36   6 C    3.167 --    35 C    1.345    37 N    1.061    38 C    0.386
                            34 C    0.142
    37   7 N    3.674 --    38 C    1.289    39 C    1.274    36 C    1.061
    38   6 C    2.338 --    37 N    1.289    39 C    0.494    36 C    0.386
                            34 C    0.106
    39   6 C    1.932 --    37 N    1.274    38 C    0.494
 ---------------------------------------------------------------------------

Topologies differ in total number of bonds
Writing topology from bond orders to xtbtopo.mol

molecular dipole:
                 x           y           z       tot (Debye)
 q only:       -0.588      -0.653       1.691
   full:       -1.108      -0.562       1.855       5.675
molecular quadrupole (traceless):
                xx          xy          yy          xz          yz          zz
 q only:        8.679      -8.821      14.353      -3.191       3.293     -23.032
  q+dip:       10.713      -9.439      16.391      -8.787       5.648     -27.104
   full:        7.867      -6.839      21.031      -8.048       5.547     -28.898


           -------------------------------------------------
          | TOTAL ENERGY              -91.077897907765 Eh   |
          | GRADIENT NORM               0.557812209655 Eh/α |
          | HOMO-LUMO GAP               0.033093432140 eV   |
           -------------------------------------------------

------------------------------------------------------------------------
 * finished run on 2026/07/23 at 16:42:52.957     
------------------------------------------------------------------------
 total:
 * wall-time:     0 d,  0 h,  0 min,  1.146 sec
 *  cpu-time:     0 d,  0 h,  0 min,  1.077 sec
 * ratio c/w:     0.940 speedup
 SCF:
 * wall-time:     0 d,  0 h,  0 min,  1.109 sec
 *  cpu-time:     0 d,  0 h,  0 min,  1.048 sec
 * ratio c/w:     0.945 speedup

