      -----------------------------------------------------------      
     |                   =====================                   |     
     |                           x T B                           |     
     |                   =====================                   |     
     |                         S. Grimme                         |     
     |          Mulliken Center for Theoretical Chemistry        |     
     |                    University of Bonn                     |     
      -----------------------------------------------------------      

   * xtb version 6.6.1 (unknown) compiled by 'builduser@buildhost' on 2023-08-07

   xtb is free software: you can redistribute it and/or modify it under
   the terms of the GNU Lesser General Public License as published by
   the Free Software Foundation, either version 3 of the License, or
   (at your option) any later version.
   
   xtb is distributed in the hope that it will be useful,
   but WITHOUT ANY WARRANTY; without even the implied warranty of
   MERCHANTABILITY or FITNESS FOR A PARTICULAR PURPOSE.  See the
   GNU Lesser General Public License for more details.
   
   Cite this work as:
   * C. Bannwarth, E. Caldeweyher, S. Ehlert, A. Hansen, P. Pracht,
     J. Seibert, S. Spicher, S. Grimme, WIREs Comput. Mol. Sci., 2020, 11,
     e01493. DOI: 10.1002/wcms.1493
   
   for GFN2-xTB:
   * C. Bannwarth, S. Ehlert and S. Grimme., J. Chem. Theory Comput., 2019,
     15, 1652-1671. DOI: 10.1021/acs.jctc.8b01176
   for GFN1-xTB:
   * S. Grimme, C. Bannwarth, P. Shushkov, J. Chem. Theory Comput., 2017,
     13, 1989-2009. DOI: 10.1021/acs.jctc.7b00118
   for GFN0-xTB:
   * P. Pracht, E. Caldeweyher, S. Ehlert, S. Grimme, ChemRxiv, 2019, preprint.
     DOI: 10.26434/chemrxiv.8326202.v1
   for GFN-FF:
   * S. Spicher and S. Grimme, Angew. Chem. Int. Ed., 2020, 59, 15665-15673.
     DOI: 10.1002/anie.202004239
   
   for ALPB and GBSA implicit solvation:
   * S. Ehlert, M. Stahn, S. Spicher, S. Grimme, J. Chem. Theory Comput.,
     2021, 17, 4250-4261. DOI: 10.1021/acs.jctc.1c00471
   
   for DFT-D4:
   * E. Caldeweyher, C. Bannwarth and S. Grimme, J. Chem. Phys., 2017,
     147, 034112. DOI: 10.1063/1.4993215
   * E. Caldeweyher, S. Ehlert, A. Hansen, H. Neugebauer, S. Spicher,
     C. Bannwarth and S. Grimme, J. Chem. Phys., 2019, 150, 154122.
     DOI: 10.1063/1.5090222
   * E. Caldeweyher, J.-M. Mewes, S. Ehlert and S. Grimme, Phys. Chem. Chem. Phys.
     2020, 22, 8499-8512. DOI: 10.1039/D0CP00502A
   
   for sTDA-xTB:
   * S. Grimme and C. Bannwarth, J. Chem. Phys., 2016, 145, 054103.
     DOI: 10.1063/1.4959605
   
   in the mass-spec context:
   * V. Asgeirsson, C. Bauer and S. Grimme, Chem. Sci., 2017, 8, 4879.
     DOI: 10.1039/c7sc00601b
   * J. Koopman and S. Grimme, ACS Omega 2019, 4, 12, 15120-15133.
     DOI: 10.1021/acsomega.9b02011
   
   for metadynamics refer to:
   * S. Grimme, J. Chem. Theory Comput., 2019, 155, 2847-2862
     DOI: 10.1021/acs.jctc.9b00143
   
   for SPH calculations refer to:
   * S. Spicher and S. Grimme, J. Chem. Theory Comput., 2021, 17, 1701-1714
     DOI: 10.1021/acs.jctc.0c01306
   
   with help from (in alphabetical order)
   P. Atkinson, C. Bannwarth, F. Bohle, G. Brandenburg, E. Caldeweyher
   M. Checinski, S. Dohm, S. Ehlert, S. Ehrlich, I. Gerasimov, C. Hölzer
   A. Katbashev, J. Koopman, C. Lavigne, S. Lehtola, F. März, M. Müller,
   F. Musil, H. Neugebauer, J. Pisarek, C. Plett, P. Pracht, F. Pultar,
   J. Seibert, P. Shushkov, S. Spicher, M. Stahn, M. Steiner, T. Strunk,
   J. Stückrath, T. Rose, and J. Unsleber
   
 * started run on 2026/07/23 at 16:41:16.172     

           -------------------------------------------------
          |                Calculation Setup                |
           -------------------------------------------------

          program call               : xtb /home/selva/covalent_quantum_benchmark/data/quantum/erbB_xyz/ERBB2__CHEMBL180175__state00.xyz --gfn2 --chrg 0 --uhf 0 --iterations 300
          coordinate file            : /home/selva/covalent_quantum_benchmark/data/quantum/erbB_xyz/ERBB2__CHEMBL180175__state00.xyz
          omp threads                :                    24

   ID    Z sym.   atoms
    1    6 C      1, 3-5, 7-9, 11, 13-16, 18, 20, 21, 23, 24, 26-29, 31,
                  33-35, 37, 38
    2    8 O      2, 32
    3    7 N      6, 10, 12, 19, 22, 30, 36
    4   16 S      17
    5   17 Cl     25

           -------------------------------------------------
          |                 G F N 2 - x T B                 |
           -------------------------------------------------

        Reference                      10.1021/acs.jctc.8b01176
      * Hamiltonian:
        H0-scaling (s, p, d)           1.850000    2.230000    2.230000
        zeta-weighting                 0.500000
      * Dispersion:
        s8                             2.700000
        a1                             0.520000
        a2                             5.000000
        s9                             5.000000
      * Repulsion:
        kExp                           1.500000    1.000000
        rExp                           1.000000
      * Coulomb:
        alpha                          2.000000
        third order                    shell-resolved
        anisotropic                    true
        a3                             3.000000
        a5                             4.000000
        cn-shift                       1.200000
        cn-exp                         4.000000
        max-rad                        5.000000


          ...................................................
          :                      SETUP                      :
          :.................................................:
          :  # basis functions                 164          :
          :  # atomic orbitals                 162          :
          :  # shells                           78          :
          :  # electrons                       168          :
          :  max. iterations                   300          :
          :  Hamiltonian                  GFN2-xTB          :
          :  restarted?                      false          :
          :  GBSA solvation                  false          :
          :  PC potential                    false          :
          :  electronic temp.          300.0000000     K    :
          :  accuracy                    1.0000000          :
          :  -> integral cutoff          0.2500000E+02      :
          :  -> integral neglect         0.1000000E-07      :
          :  -> SCF convergence          0.1000000E-05 Eh   :
          :  -> wf. convergence          0.1000000E-03 e    :
          :  Broyden damping             0.4000000          :
          ...................................................

 iter      E             dE          RMSdq      gap      omega  full diag
   1    -91.5594098 -0.915594E+02  0.940E+00    0.40       0.0  T
   2    -60.2725858  0.312868E+02  0.147E+01    0.07       1.0  T
   3    -45.7711746  0.145014E+02  0.143E+01    0.28       1.0  T
   4    -71.8047144 -0.260335E+02  0.117E+01    0.06       1.0  T
   5    -86.1179547 -0.143132E+02  0.844E+00    0.08       1.0  T
   6    -87.8426708 -0.172472E+01  0.712E+00    0.10       1.0  T
   7    -90.8557106 -0.301304E+01  0.645E+00    0.10       1.0  T
   8    -89.1941146  0.166160E+01  0.612E+00    0.08       1.0  T
   9    -91.0153287 -0.182121E+01  0.608E+00    0.24       1.0  T
  10    -91.2862394 -0.270911E+00  0.511E+00    0.06       1.0  T
  11    -91.8167369 -0.530497E+00  0.441E+00    0.10       1.0  T
  12    -92.8391627 -0.102243E+01  0.320E+00    0.10       1.0  T
  13    -92.8542446 -0.150820E-01  0.313E+00    0.08       1.0  T
  14    -92.8308126  0.234320E-01  0.314E+00    0.09       1.0  T
  15    -91.9652610  0.865552E+00  0.403E+00    0.03       1.0  T
  16    -92.4148405 -0.449580E+00  0.352E+00    0.00       1.0  T
  17    -92.5505780 -0.135737E+00  0.328E+00    0.02       1.0  T
  18    -92.3741778  0.176400E+00  0.336E+00    0.02       1.0  T
  19    -93.0419635 -0.667786E+00  0.233E+00    0.04       1.0  T
  20    -92.5951329  0.446831E+00  0.349E+00    0.06       1.0  T
  21    -92.6465469 -0.514141E-01  0.338E+00    0.06       1.0  T
  22    -92.6818895 -0.353426E-01  0.333E+00    0.05       1.0  T
  23    -92.5814141  0.100475E+00  0.341E+00    0.06       1.0  T
  24    -92.8712909 -0.289877E+00  0.237E+00    0.02       1.0  T
  25    -93.0175217 -0.146231E+00  0.217E+00    0.05       1.0  T
  26    -92.9944526  0.230691E-01  0.228E+00    0.03       1.0  T
  27    -93.2749707 -0.280518E+00  0.141E+00    0.05       1.0  T
  28    -93.0187410  0.256230E+00  0.212E+00    0.02       1.0  T
  29    -93.1782566 -0.159516E+00  0.167E+00    0.02       1.0  T
  30    -93.1813663 -0.310969E-02  0.162E+00    0.03       1.0  T
  31    -93.2681127 -0.867464E-01  0.134E+00    0.03       1.0  T
  32    -93.3040573 -0.359447E-01  0.122E+00    0.03       1.0  T
  33    -93.2970693  0.698799E-02  0.125E+00    0.03       1.0  T
  34    -93.3334125 -0.363432E-01  0.105E+00    0.03       1.0  T
  35    -93.2976950  0.357175E-01  0.119E+00    0.03       1.0  T
  36    -93.3675397 -0.698447E-01  0.767E-01    0.04       1.0  T
  37    -93.3893036 -0.217639E-01  0.569E-01    0.03       1.0  T
  38    -93.3695806  0.197230E-01  0.680E-01    0.03       1.0  T
  39    -93.3928608 -0.232802E-01  0.530E-01    0.03       1.0  T
  40    -93.3933975 -0.536698E-03  0.524E-01    0.03       1.0  T
  41    -93.4122369 -0.188394E-01  0.246E-01    0.03       1.0  T
  42    -93.4148699 -0.263308E-02  0.161E-01    0.03       1.0  T
  43    -93.4155575 -0.687587E-03  0.127E-01    0.03       1.0  T
  44    -93.4152932  0.264326E-03  0.130E-01    0.03       1.0  T
  45    -93.4158579 -0.564712E-03  0.105E-01    0.03       1.0  T
  46    -93.4160441 -0.186179E-03  0.830E-02    0.03       1.0  T
  47    -93.4160110  0.330538E-04  0.781E-02    0.03       1.0  T
  48    -93.4163694 -0.358311E-03  0.356E-02    0.02       1.0  T
  49    -93.4164069 -0.375384E-04  0.271E-02    0.02       1.0  T
  50    -93.4159077  0.499175E-03  0.783E-02    0.02       1.0  T
  51    -93.4161792 -0.271487E-03  0.602E-02    0.03       1.0  T
  52    -93.4163915 -0.212303E-03  0.300E-02    0.03       1.0  T
  53    -93.4164483 -0.567693E-04  0.137E-02    0.03       1.2  T
  54    -93.4164576 -0.935085E-05  0.694E-03    0.03       2.3  T
  55    -93.4164535  0.408392E-05  0.829E-03    0.03       2.0  T
  56    -93.4164596 -0.607029E-05  0.409E-03    0.03       4.0  T
  57    -93.4164609 -0.124137E-05  0.155E-03    0.03      10.5  T
  58    -93.4164610 -0.137524E-06  0.943E-04    0.03      17.2  T
  59    -93.4164610  0.861141E-08  0.859E-04    0.03      18.9  T

   *** convergence criteria satisfied after 59 iterations ***

         #    Occupation            Energy/Eh            Energy/eV
      -------------------------------------------------------------
         1        2.0000           -1.0968852             -29.8478
       ...           ...                  ...                  ...
        78        2.0000           -0.4291195             -11.6769
        79        1.9999           -0.4261449             -11.5960
        80        1.9999           -0.4255818             -11.5807
        81        1.9903           -0.4215140             -11.4700
        82        1.9741           -0.4205671             -11.4442
        83        1.5014           -0.4174989             -11.3607
        84        1.2863           -0.4170112             -11.3475 (HOMO)
        85        0.8072           -0.4160807             -11.3221 (LUMO)
        86        0.3464           -0.4149665             -11.2918
        87        0.0945           -0.4135980             -11.2546
        88        0.0000           -0.4048401             -11.0163
        89                         -0.3982510             -10.8370
       ...                                ...                  ...
       162                          1.0419247              28.3522
      -------------------------------------------------------------
                  HL-Gap            0.0009305 Eh            0.0253 eV
             Fermi-level           -0.4164516 Eh          -11.3322 eV

 SCC (total)                   0 d,  0 h,  0 min,  1.169 sec
 SCC setup                      ...        0 min,  0.000 sec (  0.036%)
 Dispersion                     ...        0 min,  0.002 sec (  0.129%)
 classical contributions        ...        0 min,  0.003 sec (  0.278%)
 integral evaluation            ...        0 min,  0.010 sec (  0.827%)
 iterations                     ...        0 min,  1.111 sec ( 95.017%)
 molecular gradient             ...        0 min,  0.040 sec (  3.440%)
 printout                       ...        0 min,  0.003 sec (  0.269%)

         :::::::::::::::::::::::::::::::::::::::::::::::::::::
         ::                     SUMMARY                     ::
         :::::::::::::::::::::::::::::::::::::::::::::::::::::
         :: total energy             -92.392930952874 Eh    ::
         :: gradient norm              0.486017476166 Eh/a0 ::
         :: HOMO-LUMO gap              0.025318869329 eV    ::
         ::.................................................::
         :: SCC energy               -93.416460985996 Eh    ::
         :: -> isotropic ES            0.000882512155 Eh    ::
         :: -> anisotropic ES          0.006423112190 Eh    ::
         :: -> anisotropic XC          0.056776486694 Eh    ::
         :: -> dispersion             -0.058238463813 Eh    ::
         :: repulsion energy           1.023375151192 Eh    ::
         :: add. restraining           0.000000000000 Eh    ::
         :: total charge              -0.000000000025 e     ::
         :::::::::::::::::::::::::::::::::::::::::::::::::::::

           -------------------------------------------------
          |                Property Printout                |
           -------------------------------------------------

    * Orbital Energies and Occupations

         #    Occupation            Energy/Eh            Energy/eV
      -------------------------------------------------------------
         1        2.0000           -1.0968852             -29.8478
       ...           ...                  ...                  ...
        72        2.0000           -0.4545191             -12.3681
        73        2.0000           -0.4490363             -12.2189
        74        2.0000           -0.4380564             -11.9201
        75        2.0000           -0.4356175             -11.8538
        76        2.0000           -0.4339523             -11.8084
        77        2.0000           -0.4309656             -11.7272
        78        2.0000           -0.4291195             -11.6769
        79        1.9999           -0.4261449             -11.5960
        80        1.9999           -0.4255818             -11.5807
        81        1.9903           -0.4215140             -11.4700
        82        1.9741           -0.4205671             -11.4442
        83        1.5014           -0.4174989             -11.3607
        84        1.2863           -0.4170112             -11.3475 (HOMO)
        85        0.8072           -0.4160807             -11.3221 (LUMO)
        86        0.3464           -0.4149665             -11.2918
        87        0.0945           -0.4135980             -11.2546
        88        0.0000           -0.4048401             -11.0163
        89                         -0.3982510             -10.8370
        90                         -0.3962794             -10.7833
        91                         -0.3939949             -10.7211
        92                         -0.3887993             -10.5798
        93                         -0.3869867             -10.5304
        94                         -0.3819664             -10.3938
        95                         -0.3569346              -9.7127
       ...                                ...                  ...
       162                          1.0419247              28.3522
      -------------------------------------------------------------
                  HL-Gap            0.0009305 Eh            0.0253 eV
             Fermi-level           -0.4164516 Eh          -11.3322 eV

     #   Z          covCN         q      C6AA      α(0)
     1   6 C        0.868    -0.005    35.289     9.919
     2   8 O        1.703    -0.014    14.661     5.170
     3   6 C        2.862     0.154    24.655     8.139
     4   6 C        2.002    -0.077    33.126     9.295
     5   6 C        2.952     0.119    25.388     8.264
     6   7 N        1.845    -0.116    24.299     7.306
     7   6 C        1.970     0.061    29.529     8.775
     8   6 C        2.958     0.036    27.203     8.555
     9   6 C        1.907     0.124    28.067     8.556
    10   7 N        0.911    -0.180    24.893     7.216
    11   6 C        2.909     0.131    25.132     8.220
    12   7 N        1.828    -0.149    25.020     7.412
    13   6 C        2.891     0.142    24.914     8.183
    14   6 C        1.992    -0.022    31.619     9.081
    15   6 C        2.029    -0.016    31.426     9.054
    16   6 C        2.974     0.052    26.821     8.495
    17  16 S        2.062     0.047   139.163    19.855
    18   6 C        3.163     0.170    24.049     8.015
    19   7 N        1.919    -0.186    25.843     7.537
    20   6 C        2.217     0.041    29.328     8.767
    21   6 C        2.067    -0.044    32.117     9.154
    22   7 N        2.878     0.093    19.624     6.579
    23   6 C        0.915    -0.092    38.348    10.366
    24   6 C        2.894     0.099    25.808     8.329
    25  17 Cl       0.961    -0.105   102.429    15.484
    26   6 C        2.033    -0.110    34.047     9.424
    27   6 C        2.977     0.024    27.461     8.596
    28   6 C        1.991    -0.032    31.903     9.122
    29   6 C        2.895     0.111    25.560     8.289
    30   7 N        1.836    -0.242    27.169     7.724
    31   6 C        2.753     0.320    21.566     7.604
    32   8 O        0.857    -0.354    20.775     6.111
    33   6 C        1.970    -0.006    31.235     9.025
    34   6 C        1.965     0.041    30.013     8.847
    35   6 C        1.912    -0.029    31.878     9.118
    36   7 N        2.720     0.174    18.334     6.359
    37   6 C        0.937    -0.095    38.599    10.412
    38   6 C        0.940    -0.065    37.662    10.286

 Mol. C6AA /au·bohr⁶  :      44412.049618
 Mol. C8AA /au·bohr⁸  :    1283688.698801
 Mol. α(0) /au        :        336.645948


Wiberg/Mayer (AO) data.
largest (>0.10) Wiberg bond orders for each atom

 ---------------------------------------------------------------------------
     #   Z sym  total        # sym  WBO       # sym  WBO       # sym  WBO
 ---------------------------------------------------------------------------
     1   6 C    2.233 --     2 O    1.544     4 C    0.190    28 C    0.153
                            30 N    0.137     3 C    0.102
     2   8 O    2.663 --     1 C    1.544     3 C    1.028
     3   6 C    3.863 --     4 C    1.450    29 C    1.094     2 O    1.028
                             1 C    0.102
     4   6 C    3.644 --     3 C    1.450     5 C    1.370    28 C    0.348
                             1 C    0.190
     5   6 C    3.917 --     4 C    1.370     6 N    1.242    27 C    1.083
     6   7 N    3.285 --     7 C    1.652     5 C    1.242
     7   6 C    3.626 --     6 N    1.652     8 C    1.384    12 N    0.256
     8   6 C    3.934 --     7 C    1.384    11 C    1.223     9 C    1.081
     9   6 C    3.944 --    10 N    2.814     8 C    1.081
    10   7 N    2.998 --     9 C    2.814
    11   6 C    3.952 --    12 N    1.264     8 C    1.223    27 C    1.179
    12   7 N    3.188 --    11 C    1.264    13 C    1.242     7 C    0.256
    13   6 C    3.920 --    26 C    1.259    12 N    1.242    14 C    1.238
    14   6 C    3.601 --    15 C    1.740    13 C    1.238    26 C    0.335
    15   6 C    3.443 --    14 C    1.740    16 C    1.385    26 C    0.159
    16   6 C    3.858 --    15 C    1.385    24 C    1.269    17 S    0.969
    17  16 S    2.503 --    18 C    1.087    16 C    0.969
    18   6 C    3.891 --    19 N    1.485    17 S    1.087    22 N    1.061
                            21 C    0.109
    19   7 N    3.174 --    18 C    1.485    20 C    1.337    23 C    0.120
    20   6 C    3.612 --    21 C    1.614    19 N    1.337    23 C    0.532
    21   6 C    2.993 --    20 C    1.614    22 N    1.062    18 C    0.109
    22   7 N    3.724 --    23 C    1.499    21 C    1.062    18 C    1.061
Note: The following floating-point exceptions are signalling: IEEE_UNDERFLOW_FLAG IEEE_DENORMAL
normal termination of xtb
    23   6 C    2.409 --    22 N    1.499    20 C    0.532    19 N    0.120
    24   6 C    3.897 --    26 C    1.459    16 C    1.269    25 Cl   0.992
    25  17 Cl   1.170 --    24 C    0.992
    26   6 C    3.461 --    24 C    1.459    13 C    1.259    14 C    0.335
                            15 C    0.159
    27   6 C    3.963 --    28 C    1.420    11 C    1.179     5 C    1.083
    28   6 C    3.756 --    27 C    1.420    29 C    1.394     4 C    0.348
                             1 C    0.153
    29   6 C    3.957 --    28 C    1.394    30 N    1.253     3 C    1.094
    30   7 N    3.030 --    29 C    1.253    31 C    1.212    32 O    0.139
                             1 C    0.137
    31   6 C    3.926 --    32 O    1.638    30 N    1.212    33 C    0.983
    32   8 O    2.047 --    31 C    1.638    30 N    0.139
    33   6 C    3.709 --    34 C    2.372    31 C    0.983    35 C    0.104
    34   6 C    3.835 --    33 C    2.372    35 C    1.246
    35   6 C    3.022 --    34 C    1.246    36 N    1.059    37 C    0.470
                            33 C    0.104
    36   7 N    3.678 --    37 C    1.294    38 C    1.274    35 C    1.059
    37   6 C    2.360 --    36 N    1.294    38 C    0.480    35 C    0.470
    38   6 C    1.904 --    36 N    1.274    37 C    0.480
 ---------------------------------------------------------------------------

Topologies differ in total number of bonds
Writing topology from bond orders to xtbtopo.mol

molecular dipole:
                 x           y           z       tot (Debye)
 q only:        0.076       0.596      -0.519
   full:       -0.154       0.380      -0.863       2.428
molecular quadrupole (traceless):
                xx          xy          yy          xz          yz          zz
 q only:       -1.587       8.698      14.025      -6.696      -0.707     -12.438
  q+dip:      -13.126       8.833      13.445     -10.332       1.312      -0.319
   full:      -15.174       7.082      13.126     -13.776       3.722       2.048


           -------------------------------------------------
          | TOTAL ENERGY              -92.392930952874 Eh   |
          | GRADIENT NORM               0.486017476166 Eh/α |
          | HOMO-LUMO GAP               0.025318869329 eV   |
           -------------------------------------------------

------------------------------------------------------------------------
 * finished run on 2026/07/23 at 16:41:17.365     
------------------------------------------------------------------------
 total:
 * wall-time:     0 d,  0 h,  0 min,  1.193 sec
 *  cpu-time:     0 d,  0 h,  0 min,  1.147 sec
 * ratio c/w:     0.962 speedup
 SCF:
 * wall-time:     0 d,  0 h,  0 min,  1.170 sec
 *  cpu-time:     0 d,  0 h,  0 min,  1.117 sec
 * ratio c/w:     0.954 speedup

