      -----------------------------------------------------------      
     |                   =====================                   |     
     |                           x T B                           |     
     |                   =====================                   |     
     |                         S. Grimme                         |     
     |          Mulliken Center for Theoretical Chemistry        |     
     |                    University of Bonn                     |     
      -----------------------------------------------------------      

   * xtb version 6.6.1 (unknown) compiled by 'builduser@buildhost' on 2023-08-07

   xtb is free software: you can redistribute it and/or modify it under
   the terms of the GNU Lesser General Public License as published by
   the Free Software Foundation, either version 3 of the License, or
   (at your option) any later version.
   
   xtb is distributed in the hope that it will be useful,
   but WITHOUT ANY WARRANTY; without even the implied warranty of
   MERCHANTABILITY or FITNESS FOR A PARTICULAR PURPOSE.  See the
   GNU Lesser General Public License for more details.
   
   Cite this work as:
   * C. Bannwarth, E. Caldeweyher, S. Ehlert, A. Hansen, P. Pracht,
     J. Seibert, S. Spicher, S. Grimme, WIREs Comput. Mol. Sci., 2020, 11,
     e01493. DOI: 10.1002/wcms.1493
   
   for GFN2-xTB:
   * C. Bannwarth, S. Ehlert and S. Grimme., J. Chem. Theory Comput., 2019,
     15, 1652-1671. DOI: 10.1021/acs.jctc.8b01176
   for GFN1-xTB:
   * S. Grimme, C. Bannwarth, P. Shushkov, J. Chem. Theory Comput., 2017,
     13, 1989-2009. DOI: 10.1021/acs.jctc.7b00118
   for GFN0-xTB:
   * P. Pracht, E. Caldeweyher, S. Ehlert, S. Grimme, ChemRxiv, 2019, preprint.
     DOI: 10.26434/chemrxiv.8326202.v1
   for GFN-FF:
   * S. Spicher and S. Grimme, Angew. Chem. Int. Ed., 2020, 59, 15665-15673.
     DOI: 10.1002/anie.202004239
   
   for ALPB and GBSA implicit solvation:
   * S. Ehlert, M. Stahn, S. Spicher, S. Grimme, J. Chem. Theory Comput.,
     2021, 17, 4250-4261. DOI: 10.1021/acs.jctc.1c00471
   
   for DFT-D4:
   * E. Caldeweyher, C. Bannwarth and S. Grimme, J. Chem. Phys., 2017,
     147, 034112. DOI: 10.1063/1.4993215
   * E. Caldeweyher, S. Ehlert, A. Hansen, H. Neugebauer, S. Spicher,
     C. Bannwarth and S. Grimme, J. Chem. Phys., 2019, 150, 154122.
     DOI: 10.1063/1.5090222
   * E. Caldeweyher, J.-M. Mewes, S. Ehlert and S. Grimme, Phys. Chem. Chem. Phys.
     2020, 22, 8499-8512. DOI: 10.1039/D0CP00502A
   
   for sTDA-xTB:
   * S. Grimme and C. Bannwarth, J. Chem. Phys., 2016, 145, 054103.
     DOI: 10.1063/1.4959605
   
   in the mass-spec context:
   * V. Asgeirsson, C. Bauer and S. Grimme, Chem. Sci., 2017, 8, 4879.
     DOI: 10.1039/c7sc00601b
   * J. Koopman and S. Grimme, ACS Omega 2019, 4, 12, 15120-15133.
     DOI: 10.1021/acsomega.9b02011
   
   for metadynamics refer to:
   * S. Grimme, J. Chem. Theory Comput., 2019, 155, 2847-2862
     DOI: 10.1021/acs.jctc.9b00143
   
   for SPH calculations refer to:
   * S. Spicher and S. Grimme, J. Chem. Theory Comput., 2021, 17, 1701-1714
     DOI: 10.1021/acs.jctc.0c01306
   
   with help from (in alphabetical order)
   P. Atkinson, C. Bannwarth, F. Bohle, G. Brandenburg, E. Caldeweyher
   M. Checinski, S. Dohm, S. Ehlert, S. Ehrlich, I. Gerasimov, C. Hölzer
   A. Katbashev, J. Koopman, C. Lavigne, S. Lehtola, F. März, M. Müller,
   F. Musil, H. Neugebauer, J. Pisarek, C. Plett, P. Pracht, F. Pultar,
   J. Seibert, P. Shushkov, S. Spicher, M. Stahn, M. Steiner, T. Strunk,
   J. Stückrath, T. Rose, and J. Unsleber
   
 * started run on 2026/07/23 at 16:41:09.708     

           -------------------------------------------------
          |                Calculation Setup                |
           -------------------------------------------------

          program call               : xtb /home/selva/covalent_quantum_benchmark/data/quantum/erbB_xyz/ERBB2__CHEMBL179766__state03.xyz --gfn2 --chrg 0 --uhf 0 --iterations 300
          coordinate file            : /home/selva/covalent_quantum_benchmark/data/quantum/erbB_xyz/ERBB2__CHEMBL179766__state03.xyz
          omp threads                :                    24

   ID    Z sym.   atoms
    1    6 C      1, 2, 4-6, 8-10, 12, 14-17, 19-30, 32-35, 37, 39-41, 43, 44
    2    8 O      3, 38
    3    7 N      7, 11, 13, 18, 36, 42
    4   17 Cl     31

           -------------------------------------------------
          |                 G F N 2 - x T B                 |
           -------------------------------------------------

        Reference                      10.1021/acs.jctc.8b01176
      * Hamiltonian:
        H0-scaling (s, p, d)           1.850000    2.230000    2.230000
        zeta-weighting                 0.500000
      * Dispersion:
        s8                             2.700000
        a1                             0.520000
        a2                             5.000000
        s9                             5.000000
      * Repulsion:
        kExp                           1.500000    1.000000
        rExp                           1.000000
      * Coulomb:
        alpha                          2.000000
        third order                    shell-resolved
        anisotropic                    true
        a3                             3.000000
        a5                             4.000000
        cn-shift                       1.200000
        cn-exp                         4.000000
        max-rad                        5.000000


          ...................................................
          :                      SETUP                      :
          :.................................................:
          :  # basis functions                 182          :
          :  # atomic orbitals                 181          :
          :  # shells                           89          :
          :  # electrons                       189          :
          :  max. iterations                   300          :
          :  Hamiltonian                  GFN2-xTB          :
          :  restarted?                      false          :
          :  GBSA solvation                  false          :
          :  PC potential                    false          :
          :  electronic temp.          300.0000000     K    :
          :  accuracy                    1.0000000          :
          :  -> integral cutoff          0.2500000E+02      :
          :  -> integral neglect         0.1000000E-07      :
          :  -> SCF convergence          0.1000000E-05 Eh   :
          :  -> wf. convergence          0.1000000E-03 e    :
          :  Broyden damping             0.4000000          :
          ...................................................

 iter      E             dE          RMSdq      gap      omega  full diag
   1   -102.9213951 -0.102921E+03  0.937E+00    0.14       0.0  T
   2    -70.5254031  0.323960E+02  0.136E+01    0.07       1.0  T
   3    -46.6561259  0.238693E+02  0.154E+01    0.22       1.0  T
   4    -84.5628701 -0.379067E+02  0.104E+01    0.03       1.0  T
   5    -92.0591782 -0.749631E+01  0.898E+00    0.02       1.0  T
   6    -97.4772380 -0.541806E+01  0.729E+00    0.03       1.0  T
   7    -97.2035441  0.273694E+00  0.683E+00    0.25       1.0  T
   8   -102.6116640 -0.540812E+01  0.465E+00    0.01       1.0  T
   9   -102.8325813 -0.220917E+00  0.415E+00    0.16       1.0  T
  10   -103.0290694 -0.196488E+00  0.377E+00    0.02       1.0  T
  11   -102.8531512  0.175918E+00  0.394E+00    0.06       1.0  T
  12   -103.3758202 -0.522669E+00  0.326E+00    0.05       1.0  T
  13   -103.6256608 -0.249841E+00  0.275E+00    0.06       1.0  T
  14   -103.8251223 -0.199461E+00  0.251E+00    0.00       1.0  T
  15   -103.8237151  0.140718E-02  0.252E+00    0.00       1.0  T
  16   -103.4138047  0.409910E+00  0.308E+00    0.08       1.0  T
  17   -103.5905860 -0.176781E+00  0.271E+00    0.03       1.0  T
  18   -103.1795011  0.411085E+00  0.353E+00    0.14       1.0  T
  19   -103.2940967 -0.114596E+00  0.331E+00    0.11       1.0  T
  20   -103.2557920  0.383047E-01  0.333E+00    0.10       1.0  T
  21   -103.3139040 -0.581120E-01  0.325E+00    0.11       1.0  T
  22   -103.3393121 -0.254081E-01  0.318E+00    0.10       1.0  T
  23   -103.5967211 -0.257409E+00  0.270E+00    0.05       1.0  T
  24   -103.6549468 -0.582257E-01  0.256E+00    0.05       1.0  T
  25   -103.6478971  0.704966E-02  0.259E+00    0.05       1.0  T
  26   -103.6678505 -0.199534E-01  0.251E+00    0.04       1.0  T
  27   -103.8181234 -0.150273E+00  0.207E+00    0.03       1.0  T
  28   -104.0157960 -0.197673E+00  0.140E+00    0.04       1.0  T
  29   -104.0587188 -0.429228E-01  0.124E+00    0.05       1.0  T
  30   -104.0781514 -0.194326E-01  0.113E+00    0.04       1.0  T
  31   -104.1283479 -0.501965E-01  0.908E-01    0.06       1.0  T
  32   -104.1292125 -0.864533E-03  0.903E-01    0.04       1.0  T
  33   -104.1303161 -0.110359E-02  0.890E-01    0.04       1.0  T
  34   -104.1721094 -0.417933E-01  0.673E-01    0.03       1.0  T
  35   -104.1498541  0.222552E-01  0.820E-01    0.02       1.0  T
  36   -104.1733645 -0.235104E-01  0.756E-01    0.04       1.0  T
  37   -104.1601151  0.132494E-01  0.842E-01    0.04       1.0  T
  38   -104.1460291  0.140861E-01  0.894E-01    0.04       1.0  T
  39   -104.1889379 -0.429088E-01  0.564E-01    0.03       1.0  T
  40   -104.1966589 -0.772099E-02  0.472E-01    0.03       1.0  T
  41   -104.2105825 -0.139237E-01  0.249E-01    0.03       1.0  T
  42   -104.2083166  0.226593E-02  0.249E-01    0.01       1.0  T
  43   -104.2119275 -0.361088E-02  0.175E-01    0.02       1.0  T
  44   -104.2117059  0.221615E-03  0.196E-01    0.03       1.0  T
  45   -104.2131750 -0.146908E-02  0.150E-01    0.02       1.0  T
  46   -104.2145268 -0.135182E-02  0.869E-02    0.02       1.0  T
  47   -104.2143256  0.201145E-03  0.105E-01    0.02       1.0  T
  48   -104.2144905 -0.164894E-03  0.876E-02    0.02       1.0  T
  49   -104.2141613  0.329240E-03  0.101E-01    0.02       1.0  T
  50   -104.2142145 -0.532009E-04  0.963E-02    0.02       1.0  T
  51   -104.2149386 -0.724075E-03  0.429E-02    0.02       1.0  T
  52   -104.2147128  0.225766E-03  0.637E-02    0.03       1.0  T
  53   -104.2150784 -0.365634E-03  0.155E-02    0.02       1.0  T
  54   -104.2150732  0.518776E-05  0.154E-02    0.02       1.0  T
  55   -104.2150753 -0.205408E-05  0.155E-02    0.02       1.0  T
  56   -104.2150933 -0.180223E-04  0.565E-03    0.02       2.7  T
  57   -104.2150942 -0.898267E-06  0.443E-03    0.02       3.4  T
  58   -104.2150945 -0.312340E-06  0.414E-03    0.02       3.6  T
  59   -104.2150959 -0.135579E-05  0.192E-03    0.02       7.9  T
  60   -104.2150962 -0.349602E-06  0.829E-04    0.02      18.2  T
  61   -104.2150963 -0.166388E-07  0.690E-04    0.02      21.8  T

   *** convergence criteria satisfied after 61 iterations ***

         #    Occupation            Energy/Eh            Energy/eV
      -------------------------------------------------------------
         1        2.0000           -1.0948836             -29.7933
       ...           ...                  ...                  ...
        89        2.0000           -0.4298727             -11.6974
        90        1.9999           -0.4245450             -11.5525
        91        1.9988           -0.4224432             -11.4953
        92        1.9951           -0.4211053             -11.4589
        93        1.6645           -0.4168698             -11.3436
        94        1.5782           -0.4165892             -11.3360
        95        0.8645           -0.4149644             -11.2918 (HOMO)
        96        0.5073           -0.4141423             -11.2694 (LUMO)
        97        0.2887           -0.4134449             -11.2504
        98        0.1028           -0.4123407             -11.2204
        99        0.0001           -0.4055755             -11.0363
       100                         -0.3972096             -10.8086
       ...                                ...                  ...
       181                          1.0480214              28.5181
      -------------------------------------------------------------
                  HL-Gap            0.0008221 Eh            0.0224 eV
             Fermi-level           -0.4152452 Eh          -11.2994 eV

 SCC (total)                   0 d,  0 h,  0 min,  1.632 sec
 SCC setup                      ...        0 min,  0.000 sec (  0.023%)
 Dispersion                     ...        0 min,  0.002 sec (  0.107%)
 classical contributions        ...        0 min,  0.006 sec (  0.347%)
 integral evaluation            ...        0 min,  0.012 sec (  0.705%)
 iterations                     ...        0 min,  1.544 sec ( 94.618%)
 molecular gradient             ...        0 min,  0.050 sec (  3.094%)
 printout                       ...        0 min,  0.018 sec (  1.102%)

         :::::::::::::::::::::::::::::::::::::::::::::::::::::
         ::                     SUMMARY                     ::
         :::::::::::::::::::::::::::::::::::::::::::::::::::::
         :: total energy            -102.952626426332 Eh    ::
         :: gradient norm              0.614318715039 Eh/a0 ::
         :: HOMO-LUMO gap              0.022369564239 eV    ::
         ::.................................................::
         :: SCC energy              -104.215096255320 Eh    ::
         :: -> isotropic ES            0.016602886543 Eh    ::
         :: -> anisotropic ES          0.002988654902 Eh    ::
         :: -> anisotropic XC          0.068386422342 Eh    ::
         :: -> dispersion             -0.074534308833 Eh    ::
         :: repulsion energy           1.259456804108 Eh    ::
         :: add. restraining           0.000000000000 Eh    ::
         :: total charge              -0.000000000002 e     ::
         :::::::::::::::::::::::::::::::::::::::::::::::::::::

           -------------------------------------------------
          |                Property Printout                |
           -------------------------------------------------

    * Orbital Energies and Occupations

         #    Occupation            Energy/Eh            Energy/eV
      -------------------------------------------------------------
         1        2.0000           -1.0948836             -29.7933
       ...           ...                  ...                  ...
        83        2.0000           -0.4441062             -12.0847
        84        2.0000           -0.4433592             -12.0644
        85        2.0000           -0.4387993             -11.9403
        86        2.0000           -0.4371054             -11.8942
        87        2.0000           -0.4328257             -11.7778
        88        2.0000           -0.4310707             -11.7300
        89        2.0000           -0.4298727             -11.6974
        90        1.9999           -0.4245450             -11.5525
        91        1.9988           -0.4224432             -11.4953
        92        1.9951           -0.4211053             -11.4589
        93        1.6645           -0.4168698             -11.3436
        94        1.5782           -0.4165892             -11.3360
        95        0.8645           -0.4149644             -11.2918 (HOMO)
        96        0.5073           -0.4141423             -11.2694 (LUMO)
        97        0.2887           -0.4134449             -11.2504
        98        0.1028           -0.4123407             -11.2204
        99        0.0001           -0.4055755             -11.0363
       100                         -0.3972096             -10.8086
       101                         -0.3880514             -10.5594
       102                         -0.3867770             -10.5247
       103                         -0.3832376             -10.4284
       104                         -0.3810461             -10.3688
       105                         -0.3709951             -10.0953
       106                         -0.3645392              -9.9196
       ...                                ...                  ...
       181                          1.0480214              28.5181
      -------------------------------------------------------------
                  HL-Gap            0.0008221 Eh            0.0224 eV
             Fermi-level           -0.4152452 Eh          -11.2994 eV

     #   Z          covCN         q      C6AA      α(0)
     1   6 C        0.976    -0.113    39.495    10.553
     2   6 C        1.837     0.101    28.650     8.647
     3   8 O        1.703    -0.123    16.169     5.429
     4   6 C        2.851     0.158    24.575     8.125
     5   6 C        2.002    -0.084    33.332     9.324
     6   6 C        2.950     0.119    25.384     8.263
     7   7 N        1.844    -0.111    24.185     7.288
     8   6 C        1.969     0.067    29.386     8.754
     9   6 C        2.958     0.035    27.215     8.557
    10   6 C        1.907     0.124    28.055     8.554
    11   7 N        0.911    -0.179    24.875     7.213
    12   6 C        2.912     0.130    25.149     8.223
    13   7 N        1.828    -0.160    25.249     7.446
    14   6 C        2.894     0.143    24.886     8.179
    15   6 C        1.990    -0.024    31.676     9.089
    16   6 C        1.990    -0.049    32.369     9.188
    17   6 C        2.923     0.116    25.451     8.273
    18   7 N        1.823    -0.085    23.630     7.203
    19   6 C        1.895     0.012    30.802     8.963
    20   6 C        2.960     0.076    26.293     8.411
    21   6 C        1.988     0.004    30.948     8.984
    22   6 C        1.982     0.057    29.599     8.786
    23   6 C        1.997     0.023    30.444     8.911
    24   6 C        2.983     0.063    26.582     8.457
    25   6 C        1.996    -0.025    31.719     9.095
    26   6 C        1.985     0.045    29.912     8.832
    27   6 C        1.984     0.045    29.905     8.831
    28   6 C        1.990    -0.039    32.081     9.147
    29   6 C        2.974     0.045    26.995     8.523
    30   6 C        2.882     0.095    25.885     8.341
    31  17 Cl       0.958    -0.088   101.893    15.443
    32   6 C        2.027    -0.108    33.985     9.415
    33   6 C        2.977     0.020    27.552     8.610
    34   6 C        1.994    -0.074    33.071     9.287
    35   6 C        2.944     0.094    25.922     8.350
    36   7 N        1.831    -0.170    25.482     7.480
    37   6 C        2.805     0.293    22.039     7.691
    38   8 O        0.861    -0.390    21.472     6.213
    39   6 C        1.965     0.003    30.990     8.990
    40   6 C        1.969     0.004    30.963     8.986
    41   6 C        1.913    -0.048    32.395     9.192
    42   7 N        2.720     0.172    18.362     6.364
    43   6 C        0.938    -0.102    38.865    10.448
    44   6 C        0.941    -0.074    37.937    10.324

 Mol. C6AA /au·bohr⁶  :      56656.264716
 Mol. C8AA /au·bohr⁸  :    1596820.224697
 Mol. α(0) /au        :        380.385379


Wiberg/Mayer (AO) data.
largest (>0.10) Wiberg bond orders for each atom

 ---------------------------------------------------------------------------
     #   Z sym  total        # sym  WBO       # sym  WBO       # sym  WBO
 ---------------------------------------------------------------------------
     1   6 C    2.487 --     2 C    2.187     3 O    0.103
     2   6 C    3.464 --     1 C    2.187     3 O    1.111
     3   8 O    2.421 --     2 C    1.111     4 C    1.089     1 C    0.103
     4   6 C    3.902 --     5 C    1.465    35 C    1.090     3 O    1.089
     5   6 C    3.684 --     4 C    1.465     6 C    1.391    34 C    0.497
     6   6 C    3.921 --     5 C    1.391     7 N    1.236    33 C    1.070
     7   7 N    3.277 --     8 C    1.680     6 C    1.236
     8   6 C    3.567 --     7 N    1.680     9 C    1.380    13 N    0.172
     9   6 C    3.930 --     8 C    1.380    12 C    1.231    10 C    1.081
    10   6 C    3.944 --    11 N    2.814     9 C    1.081
    11   7 N    2.995 --    10 C    2.814
    12   6 C    3.947 --    13 N    1.246     9 C    1.231    33 C    1.189
    13   7 N    3.109 --    14 C    1.283    12 C    1.246     8 C    0.172
    14   6 C    3.920 --    13 N    1.283    32 C    1.244    15 C    1.210
    15   6 C    3.614 --    16 C    1.841    14 C    1.210    32 C    0.237
    16   6 C    3.500 --    15 C    1.841    17 C    1.280    32 C    0.178
    17   6 C    3.889 --    16 C    1.280    18 N    1.214    30 C    1.166
    18   7 N    3.220 --    19 C    1.683    17 C    1.214
    19   6 C    3.199 --    18 N    1.683    20 C    1.023
Note: The following floating-point exceptions are signalling: IEEE_UNDERFLOW_FLAG IEEE_DENORMAL
normal termination of xtb
    20   6 C    3.929 --    21 C    1.420    29 C    1.192    19 C    1.023
                            23 C    0.134
    21   6 C    3.646 --    22 C    1.687    20 C    1.420    23 C    0.176
    22   6 C    3.805 --    23 C    1.779    21 C    1.687
    23   6 C    3.644 --    22 C    1.779    24 C    1.284    21 C    0.176
                            20 C    0.134
    24   6 C    3.949 --    25 C    1.289    23 C    1.284    29 C    1.107
    25   6 C    3.748 --    26 C    1.753    24 C    1.289    28 C    0.413
                            27 C    0.147
    26   6 C    3.801 --    25 C    1.753    27 C    1.718    28 C    0.113
    27   6 C    3.830 --    28 C    1.731    26 C    1.718    25 C    0.147
    28   6 C    3.769 --    27 C    1.731    29 C    1.333    25 C    0.413
                            26 C    0.113
    29   6 C    3.945 --    28 C    1.333    20 C    1.192    24 C    1.107
    30   6 C    3.876 --    32 C    1.516    17 C    1.166    31 Cl   1.001
    31  17 Cl   1.189 --    30 C    1.001
    32   6 C    3.468 --    30 C    1.516    14 C    1.244    15 C    0.237
                            16 C    0.178
    33   6 C    3.936 --    34 C    1.423    12 C    1.189     6 C    1.070
    34   6 C    3.755 --    35 C    1.453    33 C    1.423     5 C    0.497
    35   6 C    3.937 --    34 C    1.453    36 N    1.158     4 C    1.090
    36   7 N    3.196 --    37 C    1.501    35 C    1.158    38 O    0.185
    37   6 C    3.941 --    36 N    1.501    38 O    1.378    39 C    0.964
    38   8 O    1.948 --    37 C    1.378    36 N    0.185    39 C    0.117
                            41 C    0.104
    39   6 C    3.704 --    40 C    2.288    37 C    0.964    41 C    0.118
                            38 O    0.117
    40   6 C    3.848 --    39 C    2.288    41 C    1.277
    41   6 C    3.095 --    40 C    1.277    42 N    1.030    43 C    0.451
                            39 C    0.118    38 O    0.104
    42   7 N    3.678 --    43 C    1.305    44 C    1.289    41 C    1.030
    43   6 C    2.382 --    42 N    1.305    44 C    0.476    41 C    0.451
    44   6 C    1.942 --    42 N    1.289    43 C    0.476
 ---------------------------------------------------------------------------

Topologies differ in total number of bonds
Writing topology from bond orders to xtbtopo.mol

molecular dipole:
                 x           y           z       tot (Debye)
 q only:        1.192       1.309      -0.753
   full:        1.213       0.605      -0.747       3.934
molecular quadrupole (traceless):
                xx          xy          yy          xz          yz          zz
 q only:       29.529       5.454     -30.560     -14.343       7.091       1.031
  q+dip:       24.006       7.224     -35.793     -20.300      -4.080      11.787
   full:       27.769       7.641     -38.709     -20.038      -4.144      10.940


           -------------------------------------------------
          | TOTAL ENERGY             -102.952626426332 Eh   |
          | GRADIENT NORM               0.614318715039 Eh/α |
          | HOMO-LUMO GAP               0.022369564239 eV   |
           -------------------------------------------------

------------------------------------------------------------------------
 * finished run on 2026/07/23 at 16:41:11.370     
------------------------------------------------------------------------
 total:
 * wall-time:     0 d,  0 h,  0 min,  1.662 sec
 *  cpu-time:     0 d,  0 h,  0 min,  1.658 sec
 * ratio c/w:     0.998 speedup
 SCF:
 * wall-time:     0 d,  0 h,  0 min,  1.632 sec
 *  cpu-time:     0 d,  0 h,  0 min,  1.618 sec
 * ratio c/w:     0.991 speedup

