      -----------------------------------------------------------      
     |                   =====================                   |     
     |                           x T B                           |     
     |                   =====================                   |     
     |                         S. Grimme                         |     
     |          Mulliken Center for Theoretical Chemistry        |     
     |                    University of Bonn                     |     
      -----------------------------------------------------------      

   * xtb version 6.6.1 (unknown) compiled by 'builduser@buildhost' on 2023-08-07

   xtb is free software: you can redistribute it and/or modify it under
   the terms of the GNU Lesser General Public License as published by
   the Free Software Foundation, either version 3 of the License, or
   (at your option) any later version.
   
   xtb is distributed in the hope that it will be useful,
   but WITHOUT ANY WARRANTY; without even the implied warranty of
   MERCHANTABILITY or FITNESS FOR A PARTICULAR PURPOSE.  See the
   GNU Lesser General Public License for more details.
   
   Cite this work as:
   * C. Bannwarth, E. Caldeweyher, S. Ehlert, A. Hansen, P. Pracht,
     J. Seibert, S. Spicher, S. Grimme, WIREs Comput. Mol. Sci., 2020, 11,
     e01493. DOI: 10.1002/wcms.1493
   
   for GFN2-xTB:
   * C. Bannwarth, S. Ehlert and S. Grimme., J. Chem. Theory Comput., 2019,
     15, 1652-1671. DOI: 10.1021/acs.jctc.8b01176
   for GFN1-xTB:
   * S. Grimme, C. Bannwarth, P. Shushkov, J. Chem. Theory Comput., 2017,
     13, 1989-2009. DOI: 10.1021/acs.jctc.7b00118
   for GFN0-xTB:
   * P. Pracht, E. Caldeweyher, S. Ehlert, S. Grimme, ChemRxiv, 2019, preprint.
     DOI: 10.26434/chemrxiv.8326202.v1
   for GFN-FF:
   * S. Spicher and S. Grimme, Angew. Chem. Int. Ed., 2020, 59, 15665-15673.
     DOI: 10.1002/anie.202004239
   
   for ALPB and GBSA implicit solvation:
   * S. Ehlert, M. Stahn, S. Spicher, S. Grimme, J. Chem. Theory Comput.,
     2021, 17, 4250-4261. DOI: 10.1021/acs.jctc.1c00471
   
   for DFT-D4:
   * E. Caldeweyher, C. Bannwarth and S. Grimme, J. Chem. Phys., 2017,
     147, 034112. DOI: 10.1063/1.4993215
   * E. Caldeweyher, S. Ehlert, A. Hansen, H. Neugebauer, S. Spicher,
     C. Bannwarth and S. Grimme, J. Chem. Phys., 2019, 150, 154122.
     DOI: 10.1063/1.5090222
   * E. Caldeweyher, J.-M. Mewes, S. Ehlert and S. Grimme, Phys. Chem. Chem. Phys.
     2020, 22, 8499-8512. DOI: 10.1039/D0CP00502A
   
   for sTDA-xTB:
   * S. Grimme and C. Bannwarth, J. Chem. Phys., 2016, 145, 054103.
     DOI: 10.1063/1.4959605
   
   in the mass-spec context:
   * V. Asgeirsson, C. Bauer and S. Grimme, Chem. Sci., 2017, 8, 4879.
     DOI: 10.1039/c7sc00601b
   * J. Koopman and S. Grimme, ACS Omega 2019, 4, 12, 15120-15133.
     DOI: 10.1021/acsomega.9b02011
   
   for metadynamics refer to:
   * S. Grimme, J. Chem. Theory Comput., 2019, 155, 2847-2862
     DOI: 10.1021/acs.jctc.9b00143
   
   for SPH calculations refer to:
   * S. Spicher and S. Grimme, J. Chem. Theory Comput., 2021, 17, 1701-1714
     DOI: 10.1021/acs.jctc.0c01306
   
   with help from (in alphabetical order)
   P. Atkinson, C. Bannwarth, F. Bohle, G. Brandenburg, E. Caldeweyher
   M. Checinski, S. Dohm, S. Ehlert, S. Ehrlich, I. Gerasimov, C. Hölzer
   A. Katbashev, J. Koopman, C. Lavigne, S. Lehtola, F. März, M. Müller,
   F. Musil, H. Neugebauer, J. Pisarek, C. Plett, P. Pracht, F. Pultar,
   J. Seibert, P. Shushkov, S. Spicher, M. Stahn, M. Steiner, T. Strunk,
   J. Stückrath, T. Rose, and J. Unsleber
   
 * started run on 2026/07/23 at 16:41:14.999     

           -------------------------------------------------
          |                Calculation Setup                |
           -------------------------------------------------

          program call               : xtb /home/selva/covalent_quantum_benchmark/data/quantum/erbB_xyz/ERBB2__CHEMBL180022__state01.xyz --gfn2 --chrg 0 --uhf 0 --iterations 300
          coordinate file            : /home/selva/covalent_quantum_benchmark/data/quantum/erbB_xyz/ERBB2__CHEMBL180022__state01.xyz
          omp threads                :                    24

   ID    Z sym.   atoms
    1    6 C      1, 2, 4-6, 8-10, 12, 14-17, 19-24, 26, 28-31, 33, 35-37,
                  39, 40
    2    8 O      3, 18, 34
    3    7 N      7, 11, 13, 25, 32, 38
    4   17 Cl     27

           -------------------------------------------------
          |                 G F N 2 - x T B                 |
           -------------------------------------------------

        Reference                      10.1021/acs.jctc.8b01176
      * Hamiltonian:
        H0-scaling (s, p, d)           1.850000    2.230000    2.230000
        zeta-weighting                 0.500000
      * Dispersion:
        s8                             2.700000
        a1                             0.520000
        a2                             5.000000
        s9                             5.000000
      * Repulsion:
        kExp                           1.500000    1.000000
        rExp                           1.000000
      * Coulomb:
        alpha                          2.000000
        third order                    shell-resolved
        anisotropic                    true
        a3                             3.000000
        a5                             4.000000
        cn-shift                       1.200000
        cn-exp                         4.000000
        max-rad                        5.000000


          ...................................................
          :                      SETUP                      :
          :.................................................:
          :  # basis functions                 166          :
          :  # atomic orbitals                 165          :
          :  # shells                           81          :
          :  # electrons                       175          :
          :  max. iterations                   300          :
          :  Hamiltonian                  GFN2-xTB          :
          :  restarted?                      false          :
          :  GBSA solvation                  false          :
          :  PC potential                    false          :
          :  electronic temp.          300.0000000     K    :
          :  accuracy                    1.0000000          :
          :  -> integral cutoff          0.2500000E+02      :
          :  -> integral neglect         0.1000000E-07      :
          :  -> SCF convergence          0.1000000E-05 Eh   :
          :  -> wf. convergence          0.1000000E-03 e    :
          :  Broyden damping             0.4000000          :
          ...................................................

 iter      E             dE          RMSdq      gap      omega  full diag
   1    -96.4227414 -0.964227E+02  0.882E+00    0.16       0.0  T
   2    -78.8890398  0.175337E+02  0.126E+01    0.44       1.0  T
   3    -77.3127277  0.157631E+01  0.113E+01    0.12       1.0  T
   4    -76.7250508  0.587677E+00  0.109E+01    0.15       1.0  T
   5    -93.9556196 -0.172306E+02  0.703E+00    0.17       1.0  T
   6    -94.0979695 -0.142350E+00  0.632E+00    0.06       1.0  T
   7    -96.4207884 -0.232282E+01  0.459E+00    0.17       1.0  T
   8    -95.8501098  0.570679E+00  0.428E+00    0.18       1.0  T
   9    -96.8013149 -0.951205E+00  0.362E+00    0.24       1.0  T
  10    -96.4538323  0.347483E+00  0.329E+00    0.10       1.0  T
  11    -97.0733013 -0.619469E+00  0.301E+00    0.11       1.0  T
  12    -97.3248736 -0.251572E+00  0.238E+00    0.06       1.0  T
  13    -97.4116403 -0.867667E-01  0.214E+00    0.05       1.0  T
  14    -97.4333028 -0.216626E-01  0.212E+00    0.05       1.0  T
  15    -97.3825743  0.507286E-01  0.216E+00    0.05       1.0  T
  16    -97.4972306 -0.114656E+00  0.198E+00    0.06       1.0  T
  17    -97.2543672  0.242863E+00  0.206E+00    0.03       1.0  T
  18    -97.4310346 -0.176667E+00  0.168E+00    0.05       1.0  T
  19    -97.3115015  0.119533E+00  0.201E+00    0.04       1.0  T
  20    -96.9697689  0.341733E+00  0.230E+00    0.06       1.0  T
  21    -97.0531953 -0.834264E-01  0.216E+00    0.06       1.0  T
  22    -97.3958964 -0.342701E+00  0.150E+00    0.06       1.0  T
  23    -97.4156760 -0.197796E-01  0.138E+00    0.06       1.0  T
  24    -97.5800548 -0.164379E+00  0.773E-01    0.06       1.0  T
  25    -97.6194159 -0.393610E-01  0.580E-01    0.07       1.0  T
  26    -97.6027849  0.166309E-01  0.587E-01    0.07       1.0  T
  27    -97.6425869 -0.398020E-01  0.352E-01    0.08       1.0  T
  28    -97.6281593  0.144276E-01  0.493E-01    0.09       1.0  T
  29    -97.6368700 -0.871069E-02  0.413E-01    0.08       1.0  T
  30    -97.6126585  0.242115E-01  0.534E-01    0.08       1.0  T
  31    -97.6445898 -0.319313E-01  0.286E-01    0.07       1.0  T
  32    -97.6484013 -0.381151E-02  0.256E-01    0.08       1.0  T
  33    -97.6488814 -0.480084E-03  0.209E-01    0.08       1.0  T
  34    -97.6470786  0.180285E-02  0.205E-01    0.08       1.0  T
  35    -97.6490759 -0.199731E-02  0.166E-01    0.08       1.0  T
  36    -97.6487967  0.279137E-03  0.166E-01    0.08       1.0  T
  37    -97.6515157 -0.271891E-02  0.860E-02    0.08       1.0  T
  38    -97.6521959 -0.680210E-03  0.572E-02    0.07       1.0  T
  39    -97.6522710 -0.751772E-04  0.443E-02    0.08       1.0  T
  40    -97.6524035 -0.132491E-03  0.246E-02    0.08       1.0  T
  41    -97.6524220 -0.184493E-04  0.209E-02    0.08       1.0  T
  42    -97.6524294 -0.741989E-05  0.165E-02    0.08       1.0  T
  43    -97.6524332 -0.377875E-05  0.155E-02    0.07       1.0  T
  44    -97.6524495 -0.162788E-04  0.992E-03    0.07       1.6  T
  45    -97.6524592 -0.970096E-05  0.482E-03    0.07       3.3  T
  46    -97.6524564  0.280020E-05  0.646E-03    0.07       2.4  T
  47    -97.6524574 -0.106192E-05  0.497E-03    0.07       3.2  T
  48    -97.6524588 -0.140978E-05  0.341E-03    0.07       4.6  T
  49    -97.6524595 -0.630694E-06  0.198E-03    0.07       8.0  T
  50    -97.6524598 -0.304349E-06  0.754E-04    0.07      21.0  T
  51    -97.6524596  0.162623E-06  0.133E-03    0.07      11.9  T
  52    -97.6524598 -0.165689E-06  0.606E-04    0.07      26.1  T

   *** convergence criteria satisfied after 52 iterations ***

         #    Occupation            Energy/Eh            Energy/eV
      -------------------------------------------------------------
         1        2.0000           -1.0901612             -29.6648
       ...           ...                  ...                  ...
        82        1.9994           -0.4275505             -11.6342
        83        1.9964           -0.4258752             -11.5887
        84        1.9697           -0.4238209             -11.5328
        85        1.8822           -0.4224687             -11.4960
        86        1.7234           -0.4215362             -11.4706
        87        1.6006           -0.4210846             -11.4583
        88        1.4677           -0.4206919             -11.4476 (HOMO)
        89        0.3604           -0.4179478             -11.3729 (LUMO)
        90        0.0003           -0.4110702             -11.1858
        91        0.0000           -0.4056932             -11.0395
        92                         -0.4017662             -10.9326
        93                         -0.4004672             -10.8973
       ...                                ...                  ...
       165                          1.0462103              28.4688
      -------------------------------------------------------------
                  HL-Gap            0.0027441 Eh            0.0747 eV
             Fermi-level           -0.4195817 Eh          -11.4174 eV

 SCC (total)                   0 d,  0 h,  0 min,  1.130 sec
 SCC setup                      ...        0 min,  0.004 sec (  0.326%)
 Dispersion                     ...        0 min,  0.002 sec (  0.181%)
 classical contributions        ...        0 min,  0.001 sec (  0.087%)
 integral evaluation            ...        0 min,  0.018 sec (  1.618%)
 iterations                     ...        0 min,  1.065 sec ( 94.229%)
 molecular gradient             ...        0 min,  0.028 sec (  2.446%)
 printout                       ...        0 min,  0.013 sec (  1.108%)

         :::::::::::::::::::::::::::::::::::::::::::::::::::::
         ::                     SUMMARY                     ::
         :::::::::::::::::::::::::::::::::::::::::::::::::::::
         :: total energy             -96.564501306068 Eh    ::
         :: gradient norm              0.543031693499 Eh/a0 ::
         :: HOMO-LUMO gap              0.074671217982 eV    ::
         ::.................................................::
         :: SCC energy               -97.652459773526 Eh    ::
         :: -> isotropic ES            0.023472078692 Eh    ::
         :: -> anisotropic ES          0.005992564813 Eh    ::
         :: -> anisotropic XC          0.061015020874 Eh    ::
         :: -> dispersion             -0.058982054299 Eh    ::
         :: repulsion energy           1.088264516435 Eh    ::
         :: add. restraining           0.000000000000 Eh    ::
         :: total charge               0.000000000000 e     ::
         :::::::::::::::::::::::::::::::::::::::::::::::::::::

           -------------------------------------------------
          |                Property Printout                |
           -------------------------------------------------

    * Orbital Energies and Occupations

         #    Occupation            Energy/Eh            Energy/eV
      -------------------------------------------------------------
         1        2.0000           -1.0901612             -29.6648
       ...           ...                  ...                  ...
        76        2.0000           -0.4509079             -12.2698
        77        2.0000           -0.4479260             -12.1887
        78        2.0000           -0.4419359             -12.0257
        79        2.0000           -0.4395877             -11.9618
        80        2.0000           -0.4325583             -11.7705
        81        1.9999           -0.4293505             -11.6832
        82        1.9994           -0.4275505             -11.6342
        83        1.9964           -0.4258752             -11.5887
        84        1.9697           -0.4238209             -11.5328
        85        1.8822           -0.4224687             -11.4960
        86        1.7234           -0.4215362             -11.4706
        87        1.6006           -0.4210846             -11.4583
        88        1.4677           -0.4206919             -11.4476 (HOMO)
        89        0.3604           -0.4179478             -11.3729 (LUMO)
        90        0.0003           -0.4110702             -11.1858
        91        0.0000           -0.4056932             -11.0395
        92                         -0.4017662             -10.9326
        93                         -0.4004672             -10.8973
        94                         -0.3906039             -10.6289
        95                         -0.3819393             -10.3931
        96                         -0.3803254             -10.3492
        97                         -0.3656976              -9.9511
        98                         -0.3629209              -9.8756
        99                         -0.3609488              -9.8219
       ...                                ...                  ...
       165                          1.0462103              28.4688
      -------------------------------------------------------------
                  HL-Gap            0.0027441 Eh            0.0747 eV
             Fermi-level           -0.4195817 Eh          -11.4174 eV

     #   Z          covCN         q      C6AA      α(0)
     1   6 C        0.976    -0.095    38.906    10.474
     2   6 C        1.871     0.077    29.205     8.729
     3   8 O        1.702    -0.124    16.185     5.432
     4   6 C        2.891     0.162    24.506     8.116
     5   6 C        1.988    -0.060    32.666     9.230
     6   6 C        2.912     0.119    25.379     8.261
     7   7 N        1.832    -0.124    24.469     7.330
     8   6 C        1.939     0.085    28.971     8.692
     9   6 C        2.943     0.016    27.644     8.623
    10   6 C        1.914     0.120    28.154     8.569
    11   7 N        0.911    -0.195    25.227     7.264
    12   6 C        2.899     0.130    25.151     8.223
    13   7 N        1.837    -0.096    23.877     7.241
    14   6 C        2.917     0.124    25.274     8.244
    15   6 C        1.992    -0.045    32.263     9.173
    16   6 C        1.986    -0.060    32.682     9.232
    17   6 C        2.875     0.169    24.362     8.091
    18   8 O        1.702    -0.135    16.338     5.457
    19   6 C        1.845     0.057    29.708     8.805
    20   6 C        2.930     0.126    25.230     8.237
    21   6 C        1.985    -0.046    32.283     9.176
    22   6 C        1.999     0.022    30.473     8.915
    23   6 C        1.982     0.030    30.279     8.886
    24   6 C        1.959     0.033    30.234     8.880
    25   7 N        1.833    -0.103    24.010     7.261
    26   6 C        2.880     0.090    25.993     8.358
    27  17 Cl       0.959    -0.057   100.943    15.371
    28   6 C        2.033    -0.085    33.323     9.323
    29   6 C        2.972     0.014    27.693     8.632
    30   6 C        1.994    -0.049    32.351     9.185
    31   6 C        2.921     0.125    25.253     8.241
    32   7 N        1.830    -0.174    25.571     7.493
    33   6 C        2.782     0.297    21.963     7.676
    34   8 O        0.858    -0.410    21.886     6.272
    35   6 C        1.969     0.021    30.533     8.923
    36   6 C        1.967     0.017    30.621     8.936
    37   6 C        1.906     0.001    31.080     9.004
    38   7 N        2.721     0.195    18.015     6.304
    39   6 C        0.931    -0.083    38.169    10.350
    40   6 C        0.932    -0.089    38.383    10.380

 Mol. C6AA /au·bohr⁶  :      45980.738791
 Mol. C8AA /au·bohr⁸  :    1284070.844466
 Mol. α(0) /au        :        340.992047


Wiberg/Mayer (AO) data.
largest (>0.10) Wiberg bond orders for each atom

 ---------------------------------------------------------------------------
     #   Z sym  total        # sym  WBO       # sym  WBO       # sym  WBO
 ---------------------------------------------------------------------------
     1   6 C    2.137 --     2 C    1.933
     2   6 C    3.214 --     1 C    1.933     3 O    1.132
     3   8 O    2.367 --     2 C    1.132     4 C    1.027
     4   6 C    3.901 --     5 C    1.529    31 C    1.115     3 O    1.027
     5   6 C    3.649 --     4 C    1.529     6 C    1.346    30 C    0.433
     6   6 C    3.883 --     5 C    1.346     7 N    1.202    29 C    1.127
     7   7 N    3.154 --     8 C    1.618     6 C    1.202
     8   6 C    3.704 --     7 N    1.618     9 C    1.563    13 N    0.171
     9   6 C    3.872 --     8 C    1.563    10 C    1.105    12 C    0.978
    10   6 C    3.944 --    11 N    2.777     9 C    1.105
    11   7 N    2.974 --    10 C    2.777
    12   6 C    3.930 --    13 N    1.652    29 C    1.059     9 C    0.978
    13   7 N    3.309 --    12 C    1.652    14 C    1.130     8 C    0.171
    14   6 C    3.905 --    28 C    1.326    15 C    1.256    13 N    1.130
    15   6 C    3.656 --    16 C    1.739    14 C    1.256    28 C    0.306
    16   6 C    3.478 --    15 C    1.739    17 C    1.324    28 C    0.182
    17   6 C    3.835 --    16 C    1.324    26 C    1.202    18 O    1.044
    18   8 O    2.387 --    19 C    1.140    17 C    1.044
    19   6 C    2.856 --    18 O    1.140    20 C    1.082    28 C    0.106
                            21 C    0.103
    20   6 C    3.931 --    21 C    1.340    25 N    1.286    19 C    1.082
                            23 C    0.112
    21   6 C    3.694 --    22 C    1.571    20 C    1.340    24 C    0.385
                            23 C    0.185    19 C    0.103
    22   6 C    3.852 --    23 C    1.766    21 C    1.571    25 N    0.275
                            24 C    0.137
    23   6 C    3.818 --    22 C    1.766    24 C    1.576    21 C    0.185
                            20 C    0.112
    24   6 C    3.753 --    23 C    1.576    25 N    1.546    21 C    0.385
                            22 C    0.137
    25   7 N    3.303 --    24 C    1.546    20 C    1.286    22 C    0.275
    26   6 C    3.862 --    28 C    1.465    17 C    1.202    27 Cl   1.011
Note: The following floating-point exceptions are signalling: IEEE_UNDERFLOW_FLAG IEEE_DENORMAL
normal termination of xtb
    27  17 Cl   1.183 --    26 C    1.011
    28   6 C    3.568 --    26 C    1.465    14 C    1.326    15 C    0.306
                            16 C    0.182    19 C    0.106
    29   6 C    3.933 --    30 C    1.493     6 C    1.127    12 C    1.059
    30   6 C    3.690 --    29 C    1.493    31 C    1.378     5 C    0.433
    31   6 C    3.911 --    30 C    1.378    32 N    1.203     4 C    1.115
    32   7 N    3.108 --    33 C    1.423    31 C    1.203    34 O    0.193
    33   6 C    3.931 --    32 N    1.423    34 O    1.400    35 C    1.021
    34   8 O    1.842 --    33 C    1.400    32 N    0.193
    35   6 C    3.812 --    36 C    2.289    33 C    1.021    40 C    0.175
                            39 C    0.163
    36   6 C    3.836 --    35 C    2.289    37 C    1.332
    37   6 C    3.414 --    36 C    1.332    38 N    0.965    39 C    0.500
                            40 C    0.480
    38   7 N    3.702 --    40 C    1.355    39 C    1.348    37 C    0.965
    39   6 C    2.568 --    38 N    1.348    40 C    0.515    37 C    0.500
                            35 C    0.163
    40   6 C    2.573 --    38 N    1.355    39 C    0.515    37 C    0.480
                            35 C    0.175
 ---------------------------------------------------------------------------

Topologies differ in total number of bonds
Writing topology from bond orders to xtbtopo.mol

molecular dipole:
                 x           y           z       tot (Debye)
 q only:        0.535       0.357       2.063
   full:        0.352       0.798       2.444       6.595
molecular quadrupole (traceless):
                xx          xy          yy          xz          yz          zz
 q only:       14.575       5.248      10.439      -2.751      10.283     -25.014
  q+dip:        1.005      -1.404      14.117      -7.800       9.221     -15.122
   full:       -0.367      -0.637      16.894      -8.813       7.554     -16.528


           -------------------------------------------------
          | TOTAL ENERGY              -96.564501306068 Eh   |
          | GRADIENT NORM               0.543031693499 Eh/α |
          | HOMO-LUMO GAP               0.074671217982 eV   |
           -------------------------------------------------

------------------------------------------------------------------------
 * finished run on 2026/07/23 at 16:41:16.154     
------------------------------------------------------------------------
 total:
 * wall-time:     0 d,  0 h,  0 min,  1.154 sec
 *  cpu-time:     0 d,  0 h,  0 min,  1.163 sec
 * ratio c/w:     1.007 speedup
 SCF:
 * wall-time:     0 d,  0 h,  0 min,  1.131 sec
 *  cpu-time:     0 d,  0 h,  0 min,  1.132 sec
 * ratio c/w:     1.001 speedup

