      -----------------------------------------------------------      
     |                   =====================                   |     
     |                           x T B                           |     
     |                   =====================                   |     
     |                         S. Grimme                         |     
     |          Mulliken Center for Theoretical Chemistry        |     
     |                    University of Bonn                     |     
      -----------------------------------------------------------      

   * xtb version 6.6.1 (unknown) compiled by 'builduser@buildhost' on 2023-08-07

   xtb is free software: you can redistribute it and/or modify it under
   the terms of the GNU Lesser General Public License as published by
   the Free Software Foundation, either version 3 of the License, or
   (at your option) any later version.
   
   xtb is distributed in the hope that it will be useful,
   but WITHOUT ANY WARRANTY; without even the implied warranty of
   MERCHANTABILITY or FITNESS FOR A PARTICULAR PURPOSE.  See the
   GNU Lesser General Public License for more details.
   
   Cite this work as:
   * C. Bannwarth, E. Caldeweyher, S. Ehlert, A. Hansen, P. Pracht,
     J. Seibert, S. Spicher, S. Grimme, WIREs Comput. Mol. Sci., 2020, 11,
     e01493. DOI: 10.1002/wcms.1493
   
   for GFN2-xTB:
   * C. Bannwarth, S. Ehlert and S. Grimme., J. Chem. Theory Comput., 2019,
     15, 1652-1671. DOI: 10.1021/acs.jctc.8b01176
   for GFN1-xTB:
   * S. Grimme, C. Bannwarth, P. Shushkov, J. Chem. Theory Comput., 2017,
     13, 1989-2009. DOI: 10.1021/acs.jctc.7b00118
   for GFN0-xTB:
   * P. Pracht, E. Caldeweyher, S. Ehlert, S. Grimme, ChemRxiv, 2019, preprint.
     DOI: 10.26434/chemrxiv.8326202.v1
   for GFN-FF:
   * S. Spicher and S. Grimme, Angew. Chem. Int. Ed., 2020, 59, 15665-15673.
     DOI: 10.1002/anie.202004239
   
   for ALPB and GBSA implicit solvation:
   * S. Ehlert, M. Stahn, S. Spicher, S. Grimme, J. Chem. Theory Comput.,
     2021, 17, 4250-4261. DOI: 10.1021/acs.jctc.1c00471
   
   for DFT-D4:
   * E. Caldeweyher, C. Bannwarth and S. Grimme, J. Chem. Phys., 2017,
     147, 034112. DOI: 10.1063/1.4993215
   * E. Caldeweyher, S. Ehlert, A. Hansen, H. Neugebauer, S. Spicher,
     C. Bannwarth and S. Grimme, J. Chem. Phys., 2019, 150, 154122.
     DOI: 10.1063/1.5090222
   * E. Caldeweyher, J.-M. Mewes, S. Ehlert and S. Grimme, Phys. Chem. Chem. Phys.
     2020, 22, 8499-8512. DOI: 10.1039/D0CP00502A
   
   for sTDA-xTB:
   * S. Grimme and C. Bannwarth, J. Chem. Phys., 2016, 145, 054103.
     DOI: 10.1063/1.4959605
   
   in the mass-spec context:
   * V. Asgeirsson, C. Bauer and S. Grimme, Chem. Sci., 2017, 8, 4879.
     DOI: 10.1039/c7sc00601b
   * J. Koopman and S. Grimme, ACS Omega 2019, 4, 12, 15120-15133.
     DOI: 10.1021/acsomega.9b02011
   
   for metadynamics refer to:
   * S. Grimme, J. Chem. Theory Comput., 2019, 155, 2847-2862
     DOI: 10.1021/acs.jctc.9b00143
   
   for SPH calculations refer to:
   * S. Spicher and S. Grimme, J. Chem. Theory Comput., 2021, 17, 1701-1714
     DOI: 10.1021/acs.jctc.0c01306
   
   with help from (in alphabetical order)
   P. Atkinson, C. Bannwarth, F. Bohle, G. Brandenburg, E. Caldeweyher
   M. Checinski, S. Dohm, S. Ehlert, S. Ehrlich, I. Gerasimov, C. Hölzer
   A. Katbashev, J. Koopman, C. Lavigne, S. Lehtola, F. März, M. Müller,
   F. Musil, H. Neugebauer, J. Pisarek, C. Plett, P. Pracht, F. Pultar,
   J. Seibert, P. Shushkov, S. Spicher, M. Stahn, M. Steiner, T. Strunk,
   J. Stückrath, T. Rose, and J. Unsleber
   
 * started run on 2026/07/23 at 16:43:15.684     

           -------------------------------------------------
          |                Calculation Setup                |
           -------------------------------------------------

          program call               : xtb /home/selva/covalent_quantum_benchmark/data/quantum/erbB_xyz/ERBB2__CHEMBL67057__state00.xyz --gfn2 --chrg 0 --uhf 0 --iterations 300
          coordinate file            : /home/selva/covalent_quantum_benchmark/data/quantum/erbB_xyz/ERBB2__CHEMBL67057__state00.xyz
          omp threads                :                    24

   ID    Z sym.   atoms
    1    6 C      1-5, 8, 9, 11, 12, 14-17, 20, 22, 24, 26-32, 34-42
    2    8 O      6, 10, 18
    3    7 N      7, 13, 19, 21, 23, 25, 33

           -------------------------------------------------
          |                 G F N 2 - x T B                 |
           -------------------------------------------------

        Reference                      10.1021/acs.jctc.8b01176
      * Hamiltonian:
        H0-scaling (s, p, d)           1.850000    2.230000    2.230000
        zeta-weighting                 0.500000
      * Dispersion:
        s8                             2.700000
        a1                             0.520000
        a2                             5.000000
        s9                             5.000000
      * Repulsion:
        kExp                           1.500000    1.000000
        rExp                           1.000000
      * Coulomb:
        alpha                          2.000000
        third order                    shell-resolved
        anisotropic                    true
        a3                             3.000000
        a5                             4.000000
        cn-shift                       1.200000
        cn-exp                         4.000000
        max-rad                        5.000000


          ...................................................
          :                      SETUP                      :
          :.................................................:
          :  # basis functions                 168          :
          :  # atomic orbitals                 168          :
          :  # shells                           84          :
          :  # electrons                       181          :
          :  max. iterations                   300          :
          :  Hamiltonian                  GFN2-xTB          :
          :  restarted?                      false          :
          :  GBSA solvation                  false          :
          :  PC potential                    false          :
          :  electronic temp.          300.0000000     K    :
          :  accuracy                    1.0000000          :
          :  -> integral cutoff          0.2500000E+02      :
          :  -> integral neglect         0.1000000E-07      :
          :  -> SCF convergence          0.1000000E-05 Eh   :
          :  -> wf. convergence          0.1000000E-03 e    :
          :  Broyden damping             0.4000000          :
          ...................................................

 iter      E             dE          RMSdq      gap      omega  full diag
   1    -99.3525755 -0.993526E+02  0.807E+00    0.07       0.0  T
   2    -76.0913220  0.232613E+02  0.119E+01    0.22       1.0  T
   3    -57.9489920  0.181423E+02  0.132E+01    0.16       1.0  T
   4    -75.8488397 -0.178998E+02  0.117E+01    0.06       1.0  T
   5    -92.7332650 -0.168844E+02  0.769E+00    0.18       1.0  T
   6    -92.8027291 -0.694640E-01  0.654E+00    0.02       1.0  T
   7    -92.8903699 -0.876408E-01  0.672E+00    0.07       1.0  T
   8    -98.2922808 -0.540191E+01  0.510E+00    0.07       1.0  T
   9    -99.7795424 -0.148726E+01  0.370E+00    0.11       1.0  T
  10    -99.5621383  0.217404E+00  0.391E+00    0.03       1.0  T
  11    -99.8880805 -0.325942E+00  0.299E+00    0.11       1.0  T
  12    -99.8798973  0.818326E-02  0.318E+00    0.01       1.0  T
  13    -99.9004596 -0.205623E-01  0.282E+00    0.09       1.0  T
  14   -100.1619245 -0.261465E+00  0.236E+00    0.10       1.0  T
  15   -100.2408592 -0.789348E-01  0.193E+00    0.11       1.0  T
  16    -99.4418004  0.799059E+00  0.283E+00    0.02       1.0  T
  17    -99.7165182 -0.274718E+00  0.274E+00    0.07       1.0  T
  18    -99.7962985 -0.797803E-01  0.245E+00    0.05       1.0  T
  19   -100.0494190 -0.253120E+00  0.208E+00    0.04       1.0  T
  20   -100.2618293 -0.212410E+00  0.141E+00    0.04       1.0  T
  21   -100.3849108 -0.123081E+00  0.623E-01    0.03       1.0  T
  22   -100.3704077  0.145031E-01  0.720E-01    0.03       1.0  T
  23   -100.3021272  0.682805E-01  0.951E-01    0.03       1.0  T
  24   -100.3332680 -0.311408E-01  0.808E-01    0.03       1.0  T
  25   -100.3926608 -0.593928E-01  0.497E-01    0.04       1.0  T
  26   -100.3822225  0.104383E-01  0.591E-01    0.05       1.0  T
  27   -100.4102656 -0.280431E-01  0.328E-01    0.05       1.0  T
  28   -100.4065112  0.375447E-02  0.356E-01    0.04       1.0  T
  29   -100.4093008 -0.278960E-02  0.326E-01    0.04       1.0  T
  30   -100.4139672 -0.466642E-02  0.267E-01    0.05       1.0  T
  31   -100.4141258 -0.158571E-03  0.247E-01    0.05       1.0  T
  32   -100.4145572 -0.431475E-03  0.216E-01    0.05       1.0  T
  33   -100.4120170  0.254023E-02  0.254E-01    0.05       1.0  T
  34   -100.4130395 -0.102249E-02  0.229E-01    0.04       1.0  T
  35   -100.4132800 -0.240491E-03  0.217E-01    0.04       1.0  T
  36   -100.4142245 -0.944494E-03  0.188E-01    0.04       1.0  T
  37   -100.4146295 -0.405070E-03  0.169E-01    0.04       1.0  T
  38   -100.4145989  0.306430E-04  0.160E-01    0.04       1.0  T
  39   -100.4149292 -0.330315E-03  0.148E-01    0.04       1.0  T
  40   -100.4161920 -0.126279E-02  0.101E-01    0.04       1.0  T
  41   -100.4168854 -0.693431E-03  0.613E-02    0.04       1.0  T
  42   -100.4170567 -0.171245E-03  0.462E-02    0.04       1.0  T
  43   -100.4172053 -0.148579E-03  0.266E-02    0.04       1.0  T
  44   -100.4172481 -0.428879E-04  0.138E-02    0.04       1.1  T
  45   -100.4172468  0.132234E-05  0.128E-02    0.04       1.2  T
  46   -100.4172603 -0.135076E-04  0.740E-03    0.04       2.1  T
  47   -100.4172644 -0.405644E-05  0.387E-03    0.04       4.0  T
  48   -100.4172656 -0.118735E-05  0.188E-03    0.04       8.2  T
  49   -100.4172659 -0.300517E-06  0.854E-04    0.04      18.1  T
  50   -100.4172659  0.220395E-07  0.921E-04    0.04      16.8  T

   *** convergence criteria satisfied after 50 iterations ***

         #    Occupation            Energy/Eh            Energy/eV
      -------------------------------------------------------------
         1        2.0000           -0.7746361             -21.0789
       ...           ...                  ...                  ...
        85        1.9999           -0.4263433             -11.6014
        86        1.9987           -0.4241407             -11.5415
        87        1.9957           -0.4230266             -11.5111
        88        1.8809           -0.4197912             -11.4231
        89        1.6838           -0.4187233             -11.3940
        90        1.6230           -0.4185096             -11.3882
        91        1.2291           -0.4174845             -11.3603 (HOMO)
        92        0.5546           -0.4159849             -11.3195 (LUMO)
        93        0.0331           -0.4129159             -11.2360
        94        0.0009           -0.4095140             -11.1434
        95        0.0003           -0.4083056             -11.1106
        96        0.0000           -0.4062285             -11.0540
       ...           ...                  ...                  ...
       168                          0.6796322              18.4937
      -------------------------------------------------------------
                  HL-Gap            0.0014996 Eh            0.0408 eV
             Fermi-level           -0.4169910 Eh          -11.3469 eV

 SCC (total)                   0 d,  0 h,  0 min,  1.151 sec
 SCC setup                      ...        0 min,  0.001 sec (  0.046%)
 Dispersion                     ...        0 min,  0.005 sec (  0.421%)
 classical contributions        ...        0 min,  0.001 sec (  0.065%)
 integral evaluation            ...        0 min,  0.013 sec (  1.152%)
 iterations                     ...        0 min,  1.071 sec ( 93.019%)
 molecular gradient             ...        0 min,  0.049 sec (  4.255%)
 printout                       ...        0 min,  0.012 sec (  1.039%)

         :::::::::::::::::::::::::::::::::::::::::::::::::::::
         ::                     SUMMARY                     ::
         :::::::::::::::::::::::::::::::::::::::::::::::::::::
         :: total energy             -99.239874397530 Eh    ::
         :: gradient norm              0.514458664468 Eh/a0 ::
         :: HOMO-LUMO gap              0.040806289326 eV    ::
         ::.................................................::
         :: SCC energy              -100.417265851442 Eh    ::
         :: -> isotropic ES            0.056505515590 Eh    ::
         :: -> anisotropic ES          0.008337378683 Eh    ::
         :: -> anisotropic XC          0.053881800426 Eh    ::
         :: -> dispersion             -0.065615413956 Eh    ::
         :: repulsion energy           1.176203054695 Eh    ::
         :: add. restraining           0.000000000000 Eh    ::
         :: total charge               0.000000000314 e     ::
         :::::::::::::::::::::::::::::::::::::::::::::::::::::

           -------------------------------------------------
          |                Property Printout                |
           -------------------------------------------------

    * Orbital Energies and Occupations

         #    Occupation            Energy/Eh            Energy/eV
      -------------------------------------------------------------
         1        2.0000           -0.7746361             -21.0789
       ...           ...                  ...                  ...
        79        2.0000           -0.4507310             -12.2650
        80        2.0000           -0.4451987             -12.1145
        81        2.0000           -0.4392619             -11.9529
        82        2.0000           -0.4359582             -11.8630
        83        2.0000           -0.4333184             -11.7912
        84        2.0000           -0.4311350             -11.7318
        85        1.9999           -0.4263433             -11.6014
        86        1.9987           -0.4241407             -11.5415
        87        1.9957           -0.4230266             -11.5111
        88        1.8809           -0.4197912             -11.4231
        89        1.6838           -0.4187233             -11.3940
        90        1.6230           -0.4185096             -11.3882
        91        1.2291           -0.4174845             -11.3603 (HOMO)
        92        0.5546           -0.4159849             -11.3195 (LUMO)
        93        0.0331           -0.4129159             -11.2360
        94        0.0009           -0.4095140             -11.1434
        95        0.0003           -0.4083056             -11.1106
        96        0.0000           -0.4062285             -11.0540
        97                         -0.4004706             -10.8974
        98                         -0.3883008             -10.5662
        99                         -0.3817494             -10.3879
       100                         -0.3751072             -10.2072
       101                         -0.3659372              -9.9577
       102                         -0.3528656              -9.6020
       ...                                ...                  ...
       168                          0.6796322              18.4937
      -------------------------------------------------------------
                  HL-Gap            0.0014996 Eh            0.0408 eV
             Fermi-level           -0.4169910 Eh          -11.3469 eV

     #   Z          covCN         q      C6AA      α(0)
     1   6 C        0.980    -0.067    37.982    10.351
     2   6 C        3.061     0.087    26.011     8.364
     3   6 C        2.122    -0.029    31.581     9.082
     4   6 C        3.017     0.083    26.132     8.385
     5   6 C        2.761     0.292    22.048     7.689
     6   8 O        0.858    -0.325    20.241     6.032
     7   7 N        2.731     0.029    20.750     6.765
     8   6 C        1.897    -0.039    32.173     9.161
     9   6 C        1.847     0.036    30.234     8.882
    10   8 O        1.694    -0.118    16.098     5.417
    11   6 C        1.847     0.054    29.773     8.814
    12   6 C        1.902    -0.009    31.361     9.044
    13   7 N        1.957    -0.168    25.414     7.476
    14   6 C        3.048     0.131    25.085     8.214
    15   6 C        1.974    -0.005    31.183     9.018
    16   6 C        3.034     0.021    27.516     8.604
    17   6 C        2.824     0.307    21.798     7.650
    18   8 O        0.857    -0.305    19.875     5.977
    19   7 N        1.883    -0.220    26.643     7.652
    20   6 C        3.076     0.194    23.804     7.999
    21   7 N        1.830    -0.151    25.047     7.416
    22   6 C        1.981     0.161    27.170     8.418
    23   7 N        1.838    -0.161    25.282     7.451
    24   6 C        2.888     0.193    23.883     8.012
    25   7 N        1.832    -0.160    25.259     7.448
    26   6 C        2.891     0.141    24.935     8.187
    27   6 C        1.995    -0.016    31.478     9.061
    28   6 C        1.979    -0.058    32.634     9.225
    29   6 C        3.061     0.070    26.370     8.421
    30   6 C        3.097     0.041    26.956     8.509
    31   6 C        2.095    -0.008    31.107     9.011
    32   6 C        2.061    -0.013    31.313     9.039
    33   7 N        2.843     0.088    19.709     6.594
    34   6 C        1.893    -0.015    31.521     9.068
    35   6 C        2.959     0.076    26.290     8.410
    36   6 C        1.989    -0.038    32.068     9.145
    37   6 C        1.986     0.005    30.919     8.980
    38   6 C        1.987     0.034    30.171     8.871
    39   6 C        1.985    -0.007    31.230     9.025
    40   6 C        1.990    -0.022    31.631     9.083
    41   6 C        1.989    -0.080    33.246     9.312
    42   6 C        3.011    -0.028    28.689     8.786

 Mol. C6AA /au·bohr⁶  :      47933.150209
 Mol. C8AA /au·bohr⁸  :    1305991.479055
 Mol. α(0) /au        :        348.047381


Wiberg/Mayer (AO) data.
largest (>0.10) Wiberg bond orders for each atom

 ---------------------------------------------------------------------------
     #   Z sym  total        # sym  WBO       # sym  WBO       # sym  WBO
 ---------------------------------------------------------------------------
     1   6 C    2.245 --     2 C    1.650    13 N    0.176     3 C    0.146
     2   6 C    3.954 --     1 C    1.650     3 C    1.146    14 C    1.062
     3   6 C    3.159 --     4 C    1.425     2 C    1.146     1 C    0.146
                            13 N    0.138
     4   6 C    3.920 --     3 C    1.425    13 N    1.214     5 C    1.043
     5   6 C    3.940 --     6 O    1.753     4 C    1.043     7 N    1.036
     6   8 O    2.069 --     5 C    1.753
     7   7 N    3.619 --     8 C    1.099    12 C    1.099     5 C    1.036
                            11 C    0.105     9 C    0.103
     8   6 C    3.435 --     9 C    1.517     7 N    1.099    11 C    0.375
                            12 C    0.260    10 O    0.109
     9   6 C    3.309 --     8 C    1.517    10 O    1.096    12 C    0.386
                            11 C    0.167     7 N    0.103
    10   8 O    2.496 --     9 C    1.096    11 C    1.096    12 C    0.109
                             8 C    0.109
    11   6 C    3.316 --    12 C    1.536    10 O    1.096     8 C    0.375
                             9 C    0.167     7 N    0.105
    12   6 C    3.442 --    11 C    1.536     7 N    1.099     9 C    0.386
                             8 C    0.260    10 O    0.109
    13   7 N    3.016 --    14 C    1.340     4 C    1.214     1 C    0.176
                             3 C    0.138
    14   6 C    3.942 --    13 N    1.340    15 C    1.289     2 C    1.062
    15   6 C    3.816 --    16 C    1.843    14 C    1.289    19 N    0.149
                            18 O    0.135
    16   6 C    3.938 --    15 C    1.843    42 C    1.061    17 C    0.813
    17   6 C    3.937 --    18 O    1.728    19 N    1.254    16 C    0.813
    18   8 O    2.193 --    17 C    1.728    19 N    0.173    15 C    0.135
    19   7 N    3.081 --    17 C    1.254    20 C    1.237    18 O    0.173
                            15 C    0.149
    20   6 C    3.929 --    21 N    1.254    19 N    1.237    42 C    1.224
    21   7 N    3.153 --    22 C    1.580    20 C    1.254
    22   6 C    3.621 --    23 N    1.633    21 N    1.580    25 N    0.151
Note: The following floating-point exceptions are signalling: IEEE_UNDERFLOW_FLAG IEEE_DENORMAL
normal termination of xtb
                            42 C    0.107
    23   7 N    3.158 --    22 C    1.633    24 C    1.197
    24   6 C    3.939 --    42 C    1.319    25 N    1.217    23 N    1.197
    25   7 N    3.094 --    26 C    1.303    24 C    1.217    22 C    0.151
    26   6 C    3.928 --    25 N    1.303    27 C    1.239    41 C    1.212
    27   6 C    3.760 --    28 C    1.706    26 C    1.239    41 C    0.278
                            32 C    0.182    31 C    0.100
    28   6 C    3.718 --    27 C    1.706    29 C    1.337    31 C    0.232
                            41 C    0.178
    29   6 C    3.871 --    28 C    1.337    33 N    1.108    30 C    1.102
    30   6 C    3.946 --    41 C    1.433    31 C    1.170    29 C    1.102
    31   6 C    3.633 --    32 C    1.889    30 C    1.170    28 C    0.232
                            27 C    0.100
    32   6 C    3.565 --    31 C    1.889    33 N    1.170    27 C    0.182
    33   7 N    3.632 --    32 C    1.170    34 C    1.151    29 C    1.108
    34   6 C    3.003 --    35 C    1.186    33 N    1.151
    35   6 C    3.897 --    40 C    1.263    36 C    1.261    34 C    1.186
    36   6 C    3.494 --    37 C    1.594    35 C    1.261    39 C    0.259
                            38 C    0.181
    37   6 C    3.601 --    38 C    1.611    36 C    1.594    40 C    0.228
    38   6 C    3.743 --    37 C    1.611    39 C    1.610    36 C    0.181
                            40 C    0.178
    39   6 C    3.621 --    38 C    1.610    40 C    1.601    36 C    0.259
    40   6 C    3.468 --    39 C    1.601    35 C    1.263    37 C    0.228
                            38 C    0.178
    41   6 C    3.427 --    30 C    1.433    26 C    1.212    27 C    0.278
                            28 C    0.178
    42   6 C    3.932 --    24 C    1.319    20 C    1.224    16 C    1.061
                            22 C    0.107
 ---------------------------------------------------------------------------

Topologies differ in total number of bonds
Writing topology from bond orders to xtbtopo.mol

molecular dipole:
                 x           y           z       tot (Debye)
 q only:        0.189      -1.394       1.305
   full:        0.250      -1.098       1.528       4.825
molecular quadrupole (traceless):
                xx          xy          yy          xz          yz          zz
 q only:        9.670      -6.660       4.838       6.315      -1.324     -14.508
  q+dip:        8.745     -10.722      10.622       0.694       5.681     -19.367
   full:       11.856      -9.527      12.128       0.433       4.071     -23.984


           -------------------------------------------------
          | TOTAL ENERGY              -99.239874397530 Eh   |
          | GRADIENT NORM               0.514458664468 Eh/α |
          | HOMO-LUMO GAP               0.040806289326 eV   |
           -------------------------------------------------

------------------------------------------------------------------------
 * finished run on 2026/07/23 at 16:43:16.871     
------------------------------------------------------------------------
 total:
 * wall-time:     0 d,  0 h,  0 min,  1.187 sec
 *  cpu-time:     0 d,  0 h,  0 min,  1.137 sec
 * ratio c/w:     0.958 speedup
 SCF:
 * wall-time:     0 d,  0 h,  0 min,  1.152 sec
 *  cpu-time:     0 d,  0 h,  0 min,  1.103 sec
 * ratio c/w:     0.957 speedup

