      -----------------------------------------------------------      
     |                   =====================                   |     
     |                           x T B                           |     
     |                   =====================                   |     
     |                         S. Grimme                         |     
     |          Mulliken Center for Theoretical Chemistry        |     
     |                    University of Bonn                     |     
      -----------------------------------------------------------      

   * xtb version 6.6.1 (unknown) compiled by 'builduser@buildhost' on 2023-08-07

   xtb is free software: you can redistribute it and/or modify it under
   the terms of the GNU Lesser General Public License as published by
   the Free Software Foundation, either version 3 of the License, or
   (at your option) any later version.
   
   xtb is distributed in the hope that it will be useful,
   but WITHOUT ANY WARRANTY; without even the implied warranty of
   MERCHANTABILITY or FITNESS FOR A PARTICULAR PURPOSE.  See the
   GNU Lesser General Public License for more details.
   
   Cite this work as:
   * C. Bannwarth, E. Caldeweyher, S. Ehlert, A. Hansen, P. Pracht,
     J. Seibert, S. Spicher, S. Grimme, WIREs Comput. Mol. Sci., 2020, 11,
     e01493. DOI: 10.1002/wcms.1493
   
   for GFN2-xTB:
   * C. Bannwarth, S. Ehlert and S. Grimme., J. Chem. Theory Comput., 2019,
     15, 1652-1671. DOI: 10.1021/acs.jctc.8b01176
   for GFN1-xTB:
   * S. Grimme, C. Bannwarth, P. Shushkov, J. Chem. Theory Comput., 2017,
     13, 1989-2009. DOI: 10.1021/acs.jctc.7b00118
   for GFN0-xTB:
   * P. Pracht, E. Caldeweyher, S. Ehlert, S. Grimme, ChemRxiv, 2019, preprint.
     DOI: 10.26434/chemrxiv.8326202.v1
   for GFN-FF:
   * S. Spicher and S. Grimme, Angew. Chem. Int. Ed., 2020, 59, 15665-15673.
     DOI: 10.1002/anie.202004239
   
   for ALPB and GBSA implicit solvation:
   * S. Ehlert, M. Stahn, S. Spicher, S. Grimme, J. Chem. Theory Comput.,
     2021, 17, 4250-4261. DOI: 10.1021/acs.jctc.1c00471
   
   for DFT-D4:
   * E. Caldeweyher, C. Bannwarth and S. Grimme, J. Chem. Phys., 2017,
     147, 034112. DOI: 10.1063/1.4993215
   * E. Caldeweyher, S. Ehlert, A. Hansen, H. Neugebauer, S. Spicher,
     C. Bannwarth and S. Grimme, J. Chem. Phys., 2019, 150, 154122.
     DOI: 10.1063/1.5090222
   * E. Caldeweyher, J.-M. Mewes, S. Ehlert and S. Grimme, Phys. Chem. Chem. Phys.
     2020, 22, 8499-8512. DOI: 10.1039/D0CP00502A
   
   for sTDA-xTB:
   * S. Grimme and C. Bannwarth, J. Chem. Phys., 2016, 145, 054103.
     DOI: 10.1063/1.4959605
   
   in the mass-spec context:
   * V. Asgeirsson, C. Bauer and S. Grimme, Chem. Sci., 2017, 8, 4879.
     DOI: 10.1039/c7sc00601b
   * J. Koopman and S. Grimme, ACS Omega 2019, 4, 12, 15120-15133.
     DOI: 10.1021/acsomega.9b02011
   
   for metadynamics refer to:
   * S. Grimme, J. Chem. Theory Comput., 2019, 155, 2847-2862
     DOI: 10.1021/acs.jctc.9b00143
   
   for SPH calculations refer to:
   * S. Spicher and S. Grimme, J. Chem. Theory Comput., 2021, 17, 1701-1714
     DOI: 10.1021/acs.jctc.0c01306
   
   with help from (in alphabetical order)
   P. Atkinson, C. Bannwarth, F. Bohle, G. Brandenburg, E. Caldeweyher
   M. Checinski, S. Dohm, S. Ehlert, S. Ehrlich, I. Gerasimov, C. Hölzer
   A. Katbashev, J. Koopman, C. Lavigne, S. Lehtola, F. März, M. Müller,
   F. Musil, H. Neugebauer, J. Pisarek, C. Plett, P. Pracht, F. Pultar,
   J. Seibert, P. Shushkov, S. Spicher, M. Stahn, M. Steiner, T. Strunk,
   J. Stückrath, T. Rose, and J. Unsleber
   
 * started run on 2026/07/23 at 16:37:19.203     

           -------------------------------------------------
          |                Calculation Setup                |
           -------------------------------------------------

          program call               : xtb /home/selva/covalent_quantum_benchmark/data/quantum/erbB_xyz/EGFR__CHEMBL136178__state03.xyz --gfn2 --chrg 0 --uhf 0 --iterations 300
          coordinate file            : /home/selva/covalent_quantum_benchmark/data/quantum/erbB_xyz/EGFR__CHEMBL136178__state03.xyz
          omp threads                :                    24

   ID    Z sym.   atoms
    1    6 C      1, 2, 4-6, 9-12, 14, 16, 18-22, 24-26
    2    8 O      3, 7
    3    7 N      8, 13, 15, 17
    4   35 Br     23

           -------------------------------------------------
          |                 G F N 2 - x T B                 |
           -------------------------------------------------

        Reference                      10.1021/acs.jctc.8b01176
      * Hamiltonian:
        H0-scaling (s, p, d)           1.850000    2.230000    2.230000
        zeta-weighting                 0.500000
      * Dispersion:
        s8                             2.700000
        a1                             0.520000
        a2                             5.000000
        s9                             5.000000
      * Repulsion:
        kExp                           1.500000    1.000000
        rExp                           1.000000
      * Coulomb:
        alpha                          2.000000
        third order                    shell-resolved
        anisotropic                    true
        a3                             3.000000
        a5                             4.000000
        cn-shift                       1.200000
        cn-exp                         4.000000
        max-rad                        5.000000


          ...................................................
          :                      SETUP                      :
          :.................................................:
          :  # basis functions                 110          :
          :  # atomic orbitals                 109          :
          :  # shells                           53          :
          :  # electrons                       115          :
          :  max. iterations                   300          :
          :  Hamiltonian                  GFN2-xTB          :
          :  restarted?                      false          :
          :  GBSA solvation                  false          :
          :  PC potential                    false          :
          :  electronic temp.          300.0000000     K    :
          :  accuracy                    1.0000000          :
          :  -> integral cutoff          0.2500000E+02      :
          :  -> integral neglect         0.1000000E-07      :
          :  -> SCF convergence          0.1000000E-05 Eh   :
          :  -> wf. convergence          0.1000000E-03 e    :
          :  Broyden damping             0.4000000          :
          ...................................................

 iter      E             dE          RMSdq      gap      omega  full diag
   1    -63.5916104 -0.635916E+02  0.811E+00    0.55       0.0  T
   2    -52.2411716  0.113504E+02  0.112E+01    0.11       1.0  T
   3    -46.8921749  0.534900E+01  0.123E+01    0.87       1.0  T
   4    -58.0633960 -0.111712E+02  0.884E+00    0.33       1.0  T
   5    -60.8286563 -0.276526E+01  0.744E+00    0.13       1.0  T
   6    -62.6635567 -0.183490E+01  0.574E+00    0.44       1.0  T
   7    -63.3854781 -0.721921E+00  0.457E+00    0.08       1.0  T
   8    -63.0642023  0.321276E+00  0.441E+00    0.10       1.0  T
   9    -63.5693310 -0.505129E+00  0.364E+00    0.17       1.0  T
  10    -64.0214810 -0.452150E+00  0.244E+00    0.09       1.0  T
  11    -63.8884844  0.132997E+00  0.258E+00    0.10       1.0  T
  12    -63.9812474 -0.927630E-01  0.211E+00    0.10       1.0  T
  13    -63.8602587  0.120989E+00  0.284E+00    0.13       1.0  T
  14    -63.9605939 -0.100335E+00  0.230E+00    0.04       1.0  T
  15    -64.1414715 -0.180878E+00  0.157E+00    0.01       1.0  T
  16    -64.0950916  0.463800E-01  0.159E+00    0.04       1.0  T
  17    -64.0374709  0.576207E-01  0.191E+00    0.02       1.0  T
  18    -64.1742589 -0.136788E+00  0.121E+00    0.04       1.0  T
  19    -64.2483650 -0.741061E-01  0.455E-01    0.07       1.0  T
  20    -64.2466983  0.166668E-02  0.462E-01    0.07       1.0  T
  21    -63.9276505  0.319048E+00  0.206E+00    0.05       1.0  T
  22    -63.8430339  0.846166E-01  0.232E+00    0.05       1.0  T
  23    -64.0542815 -0.211248E+00  0.160E+00    0.06       1.0  T
  24    -64.0884347 -0.341533E-01  0.146E+00    0.06       1.0  T
  25    -64.2433001 -0.154865E+00  0.430E-01    0.07       1.0  T
  26    -64.2533751 -0.100750E-01  0.215E-01    0.08       1.0  T
  27    -64.2385643  0.148108E-01  0.471E-01    0.07       1.0  T
  28    -64.2491130 -0.105487E-01  0.298E-01    0.08       1.0  T
  29    -64.2556374 -0.652443E-02  0.108E-01    0.09       1.0  T
  30    -64.2537002  0.193726E-02  0.177E-01    0.08       1.0  T
  31    -64.2480778  0.562238E-02  0.319E-01    0.08       1.0  T
  32    -64.2488073 -0.729506E-03  0.301E-01    0.08       1.0  T
  33    -64.2525417 -0.373438E-02  0.208E-01    0.08       1.0  T
  34    -64.2552396 -0.269787E-02  0.991E-02    0.08       1.0  T
  35    -64.2557928 -0.553290E-03  0.537E-02    0.08       1.0  T
  36    -64.2559005 -0.107614E-03  0.275E-02    0.08       1.0  T
  37    -64.2558716  0.289077E-04  0.310E-02    0.08       1.0  T
  38    -64.2558546  0.169842E-04  0.338E-02    0.08       1.0  T
  39    -64.2559254 -0.708184E-04  0.139E-02    0.08       1.4  T
  40    -64.2559366 -0.112329E-04  0.664E-03    0.08       3.0  T
  41    -64.2559391 -0.244702E-05  0.302E-03    0.08       6.5  T
  42    -64.2559381  0.980502E-06  0.459E-03    0.08       4.3  T
  43    -64.2559391 -0.101453E-05  0.282E-03    0.08       7.0  T
  44    -64.2559396 -0.453312E-06  0.143E-03    0.08      13.7  T
  45    -64.2559397 -0.103887E-06  0.815E-04    0.08      24.1  T
  46    -64.2559397 -0.469839E-07  0.226E-04    0.08      86.8  T

   *** convergence criteria satisfied after 46 iterations ***

         #    Occupation            Energy/Eh            Energy/eV
      -------------------------------------------------------------
         1        2.0000           -0.8756423             -23.8274
       ...           ...                  ...                  ...
        52        2.0000           -0.4446100             -12.0985
        53        1.9999           -0.4381772             -11.9234
        54        1.9894           -0.4333406             -11.7918
        55        1.9230           -0.4314040             -11.7391
        56        1.8418           -0.4306537             -11.7187
        57        1.6640           -0.4297799             -11.6949
        58        1.3320           -0.4287744             -11.6675 (HOMO)
        59        0.2498           -0.4257599             -11.5855 (LUMO)
        60                         -0.4108624             -11.1801
        61                         -0.4029591             -10.9651
        62                         -0.3963200             -10.7844
        63                         -0.3686970             -10.0328
       ...                                ...                  ...
       109                          0.6222189              16.9314
      -------------------------------------------------------------
                  HL-Gap            0.0030145 Eh            0.0820 eV
             Fermi-level           -0.4279501 Eh          -11.6451 eV

 SCC (total)                   0 d,  0 h,  0 min,  0.373 sec
 SCC setup                      ...        0 min,  0.000 sec (  0.121%)
 Dispersion                     ...        0 min,  0.004 sec (  0.959%)
 classical contributions        ...        0 min,  0.001 sec (  0.256%)
 integral evaluation            ...        0 min,  0.008 sec (  2.128%)
 iterations                     ...        0 min,  0.330 sec ( 88.292%)
 molecular gradient             ...        0 min,  0.027 sec (  7.301%)
 printout                       ...        0 min,  0.003 sec (  0.927%)

         :::::::::::::::::::::::::::::::::::::::::::::::::::::
         ::                     SUMMARY                     ::
         :::::::::::::::::::::::::::::::::::::::::::::::::::::
         :: total energy             -63.493796558452 Eh    ::
         :: gradient norm              0.416756260644 Eh/a0 ::
         :: HOMO-LUMO gap              0.082029373446 eV    ::
         ::.................................................::
         :: SCC energy               -64.255939704830 Eh    ::
         :: -> isotropic ES            0.066393399265 Eh    ::
         :: -> anisotropic ES          0.005240097839 Eh    ::
         :: -> anisotropic XC          0.037936198871 Eh    ::
         :: -> dispersion             -0.034553399306 Eh    ::
         :: repulsion energy           0.762514326382 Eh    ::
         :: add. restraining           0.000000000000 Eh    ::
         :: total charge               0.000000000150 e     ::
         :::::::::::::::::::::::::::::::::::::::::::::::::::::

           -------------------------------------------------
          |                Property Printout                |
           -------------------------------------------------

    * Orbital Energies and Occupations

         #    Occupation            Energy/Eh            Energy/eV
      -------------------------------------------------------------
         1        2.0000           -0.8756423             -23.8274
       ...           ...                  ...                  ...
        46        2.0000           -0.4669400             -12.7061
        47        2.0000           -0.4644897             -12.6394
        48        2.0000           -0.4597963             -12.5117
        49        2.0000           -0.4529585             -12.3256
        50        2.0000           -0.4523817             -12.3099
        51        2.0000           -0.4453798             -12.1194
        52        2.0000           -0.4446100             -12.0985
        53        1.9999           -0.4381772             -11.9234
        54        1.9894           -0.4333406             -11.7918
        55        1.9230           -0.4314040             -11.7391
        56        1.8418           -0.4306537             -11.7187
        57        1.6640           -0.4297799             -11.6949
        58        1.3320           -0.4287744             -11.6675 (HOMO)
        59        0.2498           -0.4257599             -11.5855 (LUMO)
        60                         -0.4108624             -11.1801
        61                         -0.4029591             -10.9651
        62                         -0.3963200             -10.7844
        63                         -0.3686970             -10.0328
        64                         -0.3621988              -9.8559
        65                         -0.3484973              -9.4831
        66                         -0.3377520              -9.1907
        67                         -0.3341062              -9.0915
        68                         -0.3166658              -8.6169
        69                         -0.3019788              -8.2173
       ...                                ...                  ...
       109                          0.6222189              16.9314
      -------------------------------------------------------------
                  HL-Gap            0.0030145 Eh            0.0820 eV
             Fermi-level           -0.4279501 Eh          -11.6451 eV

     #   Z          covCN         q      C6AA      α(0)
     1   6 C        0.991    -0.052    37.599    10.304
     2   6 C        2.819     0.256    22.692     7.805
     3   8 O        0.854    -0.342    20.553     6.078
     4   6 C        1.977     0.028    30.338     8.895
     5   6 C        1.974     0.010    30.792     8.961
     6   6 C        2.754     0.320    21.566     7.605
     7   8 O        0.857    -0.334    20.410     6.057
     8   7 N        1.836    -0.183    25.784     7.525
     9   6 C        2.893     0.154    24.665     8.143
    10   6 C        1.995    -0.008    31.261     9.029
    11   6 C        2.005    -0.022    31.614     9.080
    12   6 C        2.987     0.145    24.838     8.175
    13   7 N        1.844    -0.132    24.634     7.356
    14   6 C        1.958     0.156    27.302     8.438
    15   7 N        1.831    -0.160    25.256     7.447
    16   6 C        2.889     0.196    23.840     8.005
    17   7 N        1.830    -0.162    25.297     7.453
    18   6 C        2.891     0.136    25.026     8.202
    19   6 C        1.994     0.028    30.332     8.894
    20   6 C        1.986    -0.013    31.409     9.051
    21   6 C        2.063     0.018    30.493     8.920
    22   6 C        2.905     0.114    25.492     8.279
    23  35 Br       1.068    -0.056   186.563    22.023
    24   6 C        2.063    -0.079    33.091     9.292
    25   6 C        2.979     0.012    27.740     8.640
    26   6 C        1.993    -0.030    31.833     9.112

 Mol. C6AA /au·bohr⁶  :      20681.772159
 Mol. C8AA /au·bohr⁸  :     619316.458322
 Mol. α(0) /au        :        228.768296


Wiberg/Mayer (AO) data.
largest (>0.10) Wiberg bond orders for each atom

 ---------------------------------------------------------------------------
     #   Z sym  total        # sym  WBO       # sym  WBO       # sym  WBO
 ---------------------------------------------------------------------------
     1   6 C    1.932 --     2 C    1.563     3 O    0.154
     2   6 C    3.910 --     1 C    1.563     3 O    1.288     4 C    1.020
     3   8 O    1.658 --     2 C    1.288     1 C    0.154
     4   6 C    3.798 --     5 C    2.480     2 C    1.020
     5   6 C    3.765 --     4 C    2.480     6 C    0.992
     6   6 C    3.936 --     7 O    1.675     8 N    1.175     5 C    0.992
     7   8 O    2.058 --     6 C    1.675
     8   7 N    2.857 --     9 C    1.291     6 C    1.175
     9   6 C    3.909 --     8 N    1.291    26 C    1.273    10 C    1.194
    10   6 C    3.737 --    11 C    1.861     9 C    1.194    26 C    0.162
                            14 C    0.142
    11   6 C    3.530 --    10 C    1.861    12 C    1.265    26 C    0.165
    12   6 C    3.891 --    11 C    1.265    13 N    1.251    25 C    1.124
    13   7 N    3.151 --    14 C    1.574    12 C    1.251
    14   6 C    3.785 --    15 N    1.615    13 N    1.574    17 N    0.144
                            10 C    0.142
    15   7 N    3.162 --    14 C    1.615    16 C    1.214
    16   6 C    3.956 --    17 N    1.345    15 N    1.214    25 C    1.164
    17   7 N    3.139 --    16 C    1.345    18 C    1.193    14 C    0.144
    18   6 C    3.939 --    24 C    1.304    19 C    1.279    17 N    1.193
    19   6 C    3.717 --    20 C    1.650    18 C    1.279    21 C    0.375
                            24 C    0.153
    20   6 C    3.758 --    19 C    1.650    21 C    1.623    24 C    0.392
    21   6 C    3.704 --    20 C    1.623    22 C    1.364    19 C    0.375
                            24 C    0.158
    22   6 C    3.929 --    24 C    1.418    21 C    1.364    23 Br   0.997
    23  35 Br   1.202 --    22 C    0.997
    24   6 C    3.555 --    22 C    1.418    18 C    1.304    20 C    0.392
                            21 C    0.158    19 C    0.153
    25   6 C    3.952 --    26 C    1.401    16 C    1.164    12 C    1.124
    26   6 C    3.412 --    25 C    1.401     9 C    1.273    11 C    0.165
                            10 C    0.162
 ---------------------------------------------------------------------------

Topologies differ in total number of bonds
Writing topology from bond orders to xtbtopo.mol

molecular dipole:
                 x           y           z       tot (Debye)
 q only:        2.164      -1.779       0.512
   full:        2.186      -2.173       0.555       7.961
molecular quadrupole (traceless):
                xx          xy          yy          xz          yz          zz
 q only:      -19.805       8.037      11.767      -2.822       3.171       8.038
  q+dip:      -30.827      13.004      17.422      -1.521       0.980      13.405
   full:      -30.378      16.971      18.282      -4.457      -4.351      12.096


           -------------------------------------------------
          | TOTAL ENERGY              -63.493796558452 Eh   |
          | GRADIENT NORM               0.416756260644 Eh/α |
          | HOMO-LUMO GAP               0.082029373446 eV   |
           -------------------------------------------------

------------------------------------------------------------------------
 * finished run on 2026/07/23 at 16:37:19.618     
------------------------------------------------------------------------
 total:
 * wall-time:     0 d,  0 h,  0 min,  0.415 sec
Note: The following floating-point exceptions are signalling: IEEE_UNDERFLOW_FLAG IEEE_DENORMAL
normal termination of xtb
 *  cpu-time:     0 d,  0 h,  0 min,  0.394 sec
 * ratio c/w:     0.950 speedup
 SCF:
 * wall-time:     0 d,  0 h,  0 min,  0.374 sec
 *  cpu-time:     0 d,  0 h,  0 min,  0.373 sec
 * ratio c/w:     0.998 speedup

