      -----------------------------------------------------------      
     |                   =====================                   |     
     |                           x T B                           |     
     |                   =====================                   |     
     |                         S. Grimme                         |     
     |          Mulliken Center for Theoretical Chemistry        |     
     |                    University of Bonn                     |     
      -----------------------------------------------------------      

   * xtb version 6.6.1 (unknown) compiled by 'builduser@buildhost' on 2023-08-07

   xtb is free software: you can redistribute it and/or modify it under
   the terms of the GNU Lesser General Public License as published by
   the Free Software Foundation, either version 3 of the License, or
   (at your option) any later version.
   
   xtb is distributed in the hope that it will be useful,
   but WITHOUT ANY WARRANTY; without even the implied warranty of
   MERCHANTABILITY or FITNESS FOR A PARTICULAR PURPOSE.  See the
   GNU Lesser General Public License for more details.
   
   Cite this work as:
   * C. Bannwarth, E. Caldeweyher, S. Ehlert, A. Hansen, P. Pracht,
     J. Seibert, S. Spicher, S. Grimme, WIREs Comput. Mol. Sci., 2020, 11,
     e01493. DOI: 10.1002/wcms.1493
   
   for GFN2-xTB:
   * C. Bannwarth, S. Ehlert and S. Grimme., J. Chem. Theory Comput., 2019,
     15, 1652-1671. DOI: 10.1021/acs.jctc.8b01176
   for GFN1-xTB:
   * S. Grimme, C. Bannwarth, P. Shushkov, J. Chem. Theory Comput., 2017,
     13, 1989-2009. DOI: 10.1021/acs.jctc.7b00118
   for GFN0-xTB:
   * P. Pracht, E. Caldeweyher, S. Ehlert, S. Grimme, ChemRxiv, 2019, preprint.
     DOI: 10.26434/chemrxiv.8326202.v1
   for GFN-FF:
   * S. Spicher and S. Grimme, Angew. Chem. Int. Ed., 2020, 59, 15665-15673.
     DOI: 10.1002/anie.202004239
   
   for ALPB and GBSA implicit solvation:
   * S. Ehlert, M. Stahn, S. Spicher, S. Grimme, J. Chem. Theory Comput.,
     2021, 17, 4250-4261. DOI: 10.1021/acs.jctc.1c00471
   
   for DFT-D4:
   * E. Caldeweyher, C. Bannwarth and S. Grimme, J. Chem. Phys., 2017,
     147, 034112. DOI: 10.1063/1.4993215
   * E. Caldeweyher, S. Ehlert, A. Hansen, H. Neugebauer, S. Spicher,
     C. Bannwarth and S. Grimme, J. Chem. Phys., 2019, 150, 154122.
     DOI: 10.1063/1.5090222
   * E. Caldeweyher, J.-M. Mewes, S. Ehlert and S. Grimme, Phys. Chem. Chem. Phys.
     2020, 22, 8499-8512. DOI: 10.1039/D0CP00502A
   
   for sTDA-xTB:
   * S. Grimme and C. Bannwarth, J. Chem. Phys., 2016, 145, 054103.
     DOI: 10.1063/1.4959605
   
   in the mass-spec context:
   * V. Asgeirsson, C. Bauer and S. Grimme, Chem. Sci., 2017, 8, 4879.
     DOI: 10.1039/c7sc00601b
   * J. Koopman and S. Grimme, ACS Omega 2019, 4, 12, 15120-15133.
     DOI: 10.1021/acsomega.9b02011
   
   for metadynamics refer to:
   * S. Grimme, J. Chem. Theory Comput., 2019, 155, 2847-2862
     DOI: 10.1021/acs.jctc.9b00143
   
   for SPH calculations refer to:
   * S. Spicher and S. Grimme, J. Chem. Theory Comput., 2021, 17, 1701-1714
     DOI: 10.1021/acs.jctc.0c01306
   
   with help from (in alphabetical order)
   P. Atkinson, C. Bannwarth, F. Bohle, G. Brandenburg, E. Caldeweyher
   M. Checinski, S. Dohm, S. Ehlert, S. Ehrlich, I. Gerasimov, C. Hölzer
   A. Katbashev, J. Koopman, C. Lavigne, S. Lehtola, F. März, M. Müller,
   F. Musil, H. Neugebauer, J. Pisarek, C. Plett, P. Pracht, F. Pultar,
   J. Seibert, P. Shushkov, S. Spicher, M. Stahn, M. Steiner, T. Strunk,
   J. Stückrath, T. Rose, and J. Unsleber
   
 * started run on 2026/07/23 at 16:38:00.856     

           -------------------------------------------------
          |                Calculation Setup                |
           -------------------------------------------------

          program call               : xtb /home/selva/covalent_quantum_benchmark/data/quantum/erbB_xyz/EGFR__CHEMBL305246__state00.xyz --gfn2 --chrg 0 --uhf 0 --iterations 300
          coordinate file            : /home/selva/covalent_quantum_benchmark/data/quantum/erbB_xyz/EGFR__CHEMBL305246__state00.xyz
          omp threads                :                    24

   ID    Z sym.   atoms
    1    6 C      1-5, 8, 9, 11-13, 15-18, 21, 23, 25, 27-30, 32, 34, 35
    2    8 O      6, 19
    3    7 N      7, 10, 14, 20, 22, 24, 26
    4    9 F      31
    5   17 Cl     33

           -------------------------------------------------
          |                 G F N 2 - x T B                 |
           -------------------------------------------------

        Reference                      10.1021/acs.jctc.8b01176
      * Hamiltonian:
        H0-scaling (s, p, d)           1.850000    2.230000    2.230000
        zeta-weighting                 0.500000
      * Dispersion:
        s8                             2.700000
        a1                             0.520000
        a2                             5.000000
        s9                             5.000000
      * Repulsion:
        kExp                           1.500000    1.000000
        rExp                           1.000000
      * Coulomb:
        alpha                          2.000000
        third order                    shell-resolved
        anisotropic                    true
        a3                             3.000000
        a5                             4.000000
        cn-shift                       1.200000
        cn-exp                         4.000000
        max-rad                        5.000000


          ...................................................
          :                      SETUP                      :
          :.................................................:
          :  # basis functions                 146          :
          :  # atomic orbitals                 145          :
          :  # shells                           71          :
          :  # electrons                       157          :
          :  max. iterations                   300          :
          :  Hamiltonian                  GFN2-xTB          :
          :  restarted?                      false          :
          :  GBSA solvation                  false          :
          :  PC potential                    false          :
          :  electronic temp.          300.0000000     K    :
          :  accuracy                    1.0000000          :
          :  -> integral cutoff          0.2500000E+02      :
          :  -> integral neglect         0.1000000E-07      :
          :  -> SCF convergence          0.1000000E-05 Eh   :
          :  -> wf. convergence          0.1000000E-03 e    :
          :  Broyden damping             0.4000000          :
          ...................................................

 iter      E             dE          RMSdq      gap      omega  full diag
   1    -87.9386221 -0.879386E+02  0.838E+00    0.09       0.0  T
   2    -76.9925336  0.109461E+02  0.115E+01    0.18       1.0  T
   3    -70.5098166  0.648272E+01  0.106E+01    0.01       1.0  T
   4    -60.4465216  0.100633E+02  0.123E+01    0.02       1.0  T
   5    -86.2147573 -0.257682E+02  0.587E+00    0.28       1.0  T
   6    -81.8807450  0.433401E+01  0.795E+00    0.21       1.0  T
   7    -86.6940330 -0.481329E+01  0.473E+00    0.20       1.0  T
   8    -87.8395791 -0.114555E+01  0.404E+00    0.06       1.0  T
   9    -86.6664822  0.117310E+01  0.428E+00    0.11       1.0  T
  10    -87.9966779 -0.133020E+01  0.351E+00    0.05       1.0  T
  11    -88.1438531 -0.147175E+00  0.296E+00    0.06       1.0  T
  12    -88.1983475 -0.544944E-01  0.303E+00    0.23       1.0  T
  13    -88.3706377 -0.172290E+00  0.258E+00    0.05       1.0  T
  14    -88.3305880  0.400497E-01  0.254E+00    0.11       1.0  T
  15    -88.0689542  0.261634E+00  0.263E+00    0.07       1.0  T
  16    -88.4756486 -0.406694E+00  0.177E+00    0.06       1.0  T
  17    -88.3758422  0.998064E-01  0.191E+00    0.02       1.0  T
  18    -88.3550909  0.207513E-01  0.196E+00    0.01       1.0  T
  19    -88.1996132  0.155478E+00  0.229E+00    0.04       1.0  T
  20    -88.4604468 -0.260834E+00  0.152E+00    0.03       1.0  T
  21    -88.5486639 -0.882170E-01  0.144E+00    0.07       1.0  T
  22    -88.6305510 -0.818871E-01  0.106E+00    0.03       1.0  T
  23    -88.6455360 -0.149850E-01  0.886E-01    0.04       1.0  T
  24    -88.6196848  0.258511E-01  0.859E-01    0.01       1.0  T
  25    -88.6735532 -0.538684E-01  0.609E-01    0.01       1.0  T
  26    -88.6525083  0.210449E-01  0.577E-01    0.02       1.0  T
  27    -88.6572606 -0.475229E-02  0.621E-01    0.01       1.0  T
  28    -88.6922588 -0.349982E-01  0.212E-01    0.01       1.0  T
  29    -88.6964026 -0.414384E-02  0.101E-01    0.01       1.0  T
  30    -88.6957435  0.659160E-03  0.131E-01    0.01       1.0  T
  31    -88.6966353 -0.891836E-03  0.858E-02    0.01       1.0  T
  32    -88.6969420 -0.306679E-03  0.446E-02    0.01       1.0  T
  33    -88.6968982  0.437784E-04  0.548E-02    0.01       1.0  T
  34    -88.6963563  0.541899E-03  0.830E-02    0.01       1.0  T
  35    -88.6963899 -0.336062E-04  0.814E-02    0.01       1.0  T
  36    -88.6970694 -0.679481E-03  0.127E-02    0.01       1.3  T
  37    -88.6970612  0.817597E-05  0.138E-02    0.01       1.2  T
  38    -88.6970541  0.711812E-05  0.162E-02    0.01       1.0  T
  39    -88.6970731 -0.189910E-04  0.864E-03    0.01       2.0  T
  40    -88.6970741 -0.100685E-05  0.673E-03    0.01       2.5  T
  41    -88.6970735  0.629242E-06  0.714E-03    0.01       2.4  T
  42    -88.6970780 -0.448797E-05  0.200E-03    0.01       8.5  T
  43    -88.6970780 -0.494154E-07  0.203E-03    0.01       8.3  T
  44    -88.6970782 -0.144472E-06  0.131E-03    0.01      12.9  T
  45    -88.6970782 -0.662419E-08  0.121E-03    0.01      13.9  T
  46    -88.6970783 -0.106952E-06  0.695E-04    0.01      24.3  T
  47    -88.6970783 -0.357302E-07  0.473E-04    0.01      35.7  T

   *** convergence criteria satisfied after 47 iterations ***

         #    Occupation            Energy/Eh            Energy/eV
      -------------------------------------------------------------
         1        2.0000           -1.0899627             -29.6594
       ...           ...                  ...                  ...
        73        2.0000           -0.4367232             -11.8838
        74        1.9988           -0.4278134             -11.6414
        75        1.9979           -0.4272589             -11.6263
        76        1.9941           -0.4262643             -11.5992
        77        1.7217           -0.4224259             -11.4948
        78        1.3826           -0.4214048             -11.4670
        79        1.0095           -0.4205913             -11.4449 (HOMO)
        80        0.8259           -0.4202062             -11.4344 (LUMO)
        81        0.0503           -0.4169392             -11.3455
        82        0.0191           -0.4159989             -11.3199
        83        0.0002           -0.4116203             -11.2008
        84        0.0000           -0.4062351             -11.0542
       ...           ...                  ...                  ...
       145                          0.6703610              18.2415
      -------------------------------------------------------------
                  HL-Gap            0.0003851 Eh            0.0105 eV
             Fermi-level           -0.4205715 Eh          -11.4443 eV

 SCC (total)                   0 d,  0 h,  0 min,  0.767 sec
 SCC setup                      ...        0 min,  0.000 sec (  0.050%)
 Dispersion                     ...        0 min,  0.001 sec (  0.175%)
 classical contributions        ...        0 min,  0.003 sec (  0.435%)
 integral evaluation            ...        0 min,  0.008 sec (  1.101%)
 iterations                     ...        0 min,  0.719 sec ( 93.833%)
 molecular gradient             ...        0 min,  0.024 sec (  3.189%)
 printout                       ...        0 min,  0.009 sec (  1.213%)

         :::::::::::::::::::::::::::::::::::::::::::::::::::::
         ::                     SUMMARY                     ::
         :::::::::::::::::::::::::::::::::::::::::::::::::::::
         :: total energy             -87.809195353307 Eh    ::
         :: gradient norm              0.468688019971 Eh/a0 ::
         :: HOMO-LUMO gap              0.010479182953 eV    ::
         ::.................................................::
         :: SCC energy               -88.697078300614 Eh    ::
         :: -> isotropic ES            0.044880569953 Eh    ::
         :: -> anisotropic ES          0.009775575531 Eh    ::
         :: -> anisotropic XC          0.039562587092 Eh    ::
         :: -> dispersion             -0.051790465565 Eh    ::
         :: repulsion energy           0.888203419935 Eh    ::
         :: add. restraining           0.000000000000 Eh    ::
         :: total charge              -0.000000000351 e     ::
         :::::::::::::::::::::::::::::::::::::::::::::::::::::

           -------------------------------------------------
          |                Property Printout                |
           -------------------------------------------------

    * Orbital Energies and Occupations

         #    Occupation            Energy/Eh            Energy/eV
      -------------------------------------------------------------
         1        2.0000           -1.0899627             -29.6594
       ...           ...                  ...                  ...
        67        2.0000           -0.4616415             -12.5619
        68        2.0000           -0.4574487             -12.4478
        69        2.0000           -0.4553581             -12.3909
        70        2.0000           -0.4533609             -12.3366
        71        2.0000           -0.4459428             -12.1347
        72        2.0000           -0.4424170             -12.0388
        73        2.0000           -0.4367232             -11.8838
        74        1.9988           -0.4278134             -11.6414
        75        1.9979           -0.4272589             -11.6263
        76        1.9941           -0.4262643             -11.5992
        77        1.7217           -0.4224259             -11.4948
        78        1.3826           -0.4214048             -11.4670
        79        1.0095           -0.4205913             -11.4449 (HOMO)
        80        0.8259           -0.4202062             -11.4344 (LUMO)
        81        0.0503           -0.4169392             -11.3455
        82        0.0191           -0.4159989             -11.3199
        83        0.0002           -0.4116203             -11.2008
        84        0.0000           -0.4062351             -11.0542
        85                         -0.3997780             -10.8785
        86                         -0.3795145             -10.3271
        87                         -0.3688479             -10.0369
        88                         -0.3582200              -9.7477
        89                         -0.3559820              -9.6868
        90                         -0.3374080              -9.1813
       ...                                ...                  ...
       145                          0.6703610              18.2415
      -------------------------------------------------------------
                  HL-Gap            0.0003851 Eh            0.0105 eV
             Fermi-level           -0.4205715 Eh          -11.4443 eV

     #   Z          covCN         q      C6AA      α(0)
     1   6 C        0.979    -0.069    38.058    10.361
     2   6 C        3.073     0.080    26.141     8.383
     3   6 C        2.114    -0.016    31.257     9.034
     4   6 C        3.019     0.085    26.082     8.377
     5   6 C        2.760     0.295    22.000     7.681
     6   8 O        0.858    -0.330    20.327     6.045
     7   7 N        2.730     0.037    20.602     6.741
     8   6 C        1.900    -0.020    31.638     9.084
     9   6 C        1.902    -0.024    31.738     9.098
    10   7 N        2.719     0.137    18.923     6.461
    11   6 C        0.927    -0.062    37.479    10.254
    12   6 C        1.902    -0.038    32.120     9.153
    13   6 C        1.893    -0.032    31.978     9.133
    14   7 N        1.958    -0.145    24.898     7.399
    15   6 C        3.028     0.125    25.238     8.240
    16   6 C        1.970     0.016    30.651     8.941
    17   6 C        3.023     0.031    27.292     8.569
    18   6 C        2.829     0.310    21.745     7.641
    19   8 O        0.856    -0.265    19.165     5.869
    20   7 N        1.882    -0.215    26.527     7.635
    21   6 C        3.074     0.194    23.805     8.000
    22   7 N        1.830    -0.154    25.114     7.426
    23   6 C        1.981     0.164    27.121     8.410
    24   7 N        1.836    -0.166    25.399     7.469
    25   6 C        2.881     0.186    24.025     8.035
    26   7 N        1.831    -0.161    25.268     7.449
    27   6 C        2.891     0.140    24.947     8.189
    28   6 C        1.994    -0.032    31.909     9.122
    29   6 C        1.986    -0.034    31.963     9.130
    30   6 C        2.807     0.193    23.874     8.005
    31   9 F        0.787    -0.155    10.785     3.879
    32   6 C        2.877     0.089    26.017     8.362
    33  17 Cl       0.962    -0.069   101.315    15.399
    34   6 C        2.028    -0.075    33.036     9.283
    35   6 C        3.018    -0.019    28.467     8.752

 Mol. C6AA /au·bohr⁶  :      33917.627840
 Mol. C8AA /au·bohr⁸  :     933940.916557
 Mol. α(0) /au        :        291.012304


Wiberg/Mayer (AO) data.
largest (>0.10) Wiberg bond orders for each atom

 ---------------------------------------------------------------------------
     #   Z sym  total        # sym  WBO       # sym  WBO       # sym  WBO
 ---------------------------------------------------------------------------
     1   6 C    2.251 --     2 C    1.661    14 N    0.170     3 C    0.152
                            15 C    0.107
     2   6 C    3.954 --     1 C    1.661     3 C    1.137    15 C    1.078
     3   6 C    3.204 --     4 C    1.467     2 C    1.137     1 C    0.152
                            14 N    0.142
     4   6 C    3.924 --     3 C    1.467    14 N    1.192     5 C    1.029
     5   6 C    3.932 --     6 O    1.738     7 N    1.055     4 C    1.029
     6   8 O    2.030 --     5 C    1.738     7 N    0.101
     7   7 N    3.505 --    13 C    1.074     8 C    1.061     5 C    1.055
                             6 O    0.101
     8   6 C    3.282 --     9 C    1.512     7 N    1.061    13 C    0.253
                            12 C    0.204    11 C    0.162
     9   6 C    3.142 --     8 C    1.512    10 N    0.971    11 C    0.226
                            13 C    0.215    12 C    0.112
    10   7 N    3.625 --    11 C    1.556     9 C    0.971    12 C    0.965
    11   6 C    2.355 --    10 N    1.556    12 C    0.230     9 C    0.226
                             8 C    0.162    13 C    0.162
    12   6 C    3.091 --    13 C    1.470    10 N    0.965    11 C    0.230
                             8 C    0.204     9 C    0.112
    13   6 C    3.299 --    12 C    1.470     7 N    1.074     8 C    0.253
                             9 C    0.215    11 C    0.162
    14   7 N    3.088 --    15 C    1.345     4 C    1.192     1 C    0.170
                             3 C    0.142
    15   6 C    3.944 --    14 N    1.345    16 C    1.245     2 C    1.078
                             1 C    0.107
    16   6 C    3.788 --    17 C    1.797    15 C    1.245    20 N    0.217
                            19 O    0.167
    17   6 C    3.938 --    16 C    1.797    35 C    1.091    18 C    0.788
    18   6 C    3.933 --    19 O    1.738    20 N    1.270    17 C    0.788
    19   8 O    2.250 --    18 C    1.738    20 N    0.173    16 C    0.167
    20   7 N    3.131 --    18 C    1.270    21 C    1.232    16 C    0.217
                            19 O    0.173
    21   6 C    3.935 --    22 N    1.266    20 N    1.232    35 C    1.219
    22   7 N    3.145 --    23 C    1.559    21 C    1.266
    23   6 C    3.669 --    24 N    1.661    22 N    1.559    26 N    0.195
    24   7 N    3.170 --    23 C    1.661    25 C    1.167
    25   6 C    3.941 --    26 N    1.291    35 C    1.284    24 N    1.167
    26   7 N    3.089 --    25 C    1.291    27 C    1.243    23 C    0.195
    27   6 C    3.905 --    34 C    1.271    26 N    1.243    28 C    1.224
    28   6 C    3.600 --    29 C    1.775    27 C    1.224    34 C    0.320
Note: The following floating-point exceptions are signalling: IEEE_UNDERFLOW_FLAG IEEE_DENORMAL
normal termination of xtb
    29   6 C    3.427 --    28 C    1.775    30 C    1.358    34 C    0.152
    30   6 C    3.782 --    29 C    1.358    32 C    1.249    31 F    1.004
    31   9 F    1.151 --    30 C    1.004
    32   6 C    3.890 --    34 C    1.459    30 C    1.249    33 Cl   1.005
    33  17 Cl   1.186 --    32 C    1.005
    34   6 C    3.400 --    32 C    1.459    27 C    1.271    28 C    0.320
                            29 C    0.152
    35   6 C    3.884 --    25 C    1.284    21 C    1.219    17 C    1.091
 ---------------------------------------------------------------------------

Topologies differ in total number of bonds
Writing topology from bond orders to xtbtopo.mol

molecular dipole:
                 x           y           z       tot (Debye)
 q only:       -0.259      -0.673      -0.231
   full:       -0.576      -1.412      -0.418       4.020
molecular quadrupole (traceless):
                xx          xy          yy          xz          yz          zz
 q only:       13.448     -12.465      -9.063      -1.285      -8.292      -4.385
  q+dip:       10.498      -8.925       4.354       1.602      -3.962     -14.853
   full:       17.096      -9.740       2.278       2.085      -6.594     -19.374


           -------------------------------------------------
          | TOTAL ENERGY              -87.809195353307 Eh   |
          | GRADIENT NORM               0.468688019971 Eh/α |
          | HOMO-LUMO GAP               0.010479182953 eV   |
           -------------------------------------------------

------------------------------------------------------------------------
 * finished run on 2026/07/23 at 16:38:01.650     
------------------------------------------------------------------------
 total:
 * wall-time:     0 d,  0 h,  0 min,  0.794 sec
 *  cpu-time:     0 d,  0 h,  0 min,  0.787 sec
 * ratio c/w:     0.991 speedup
 SCF:
 * wall-time:     0 d,  0 h,  0 min,  0.767 sec
 *  cpu-time:     0 d,  0 h,  0 min,  0.762 sec
 * ratio c/w:     0.993 speedup

