      -----------------------------------------------------------      
     |                   =====================                   |     
     |                           x T B                           |     
     |                   =====================                   |     
     |                         S. Grimme                         |     
     |          Mulliken Center for Theoretical Chemistry        |     
     |                    University of Bonn                     |     
      -----------------------------------------------------------      

   * xtb version 6.6.1 (unknown) compiled by 'builduser@buildhost' on 2023-08-07

   xtb is free software: you can redistribute it and/or modify it under
   the terms of the GNU Lesser General Public License as published by
   the Free Software Foundation, either version 3 of the License, or
   (at your option) any later version.
   
   xtb is distributed in the hope that it will be useful,
   but WITHOUT ANY WARRANTY; without even the implied warranty of
   MERCHANTABILITY or FITNESS FOR A PARTICULAR PURPOSE.  See the
   GNU Lesser General Public License for more details.
   
   Cite this work as:
   * C. Bannwarth, E. Caldeweyher, S. Ehlert, A. Hansen, P. Pracht,
     J. Seibert, S. Spicher, S. Grimme, WIREs Comput. Mol. Sci., 2020, 11,
     e01493. DOI: 10.1002/wcms.1493
   
   for GFN2-xTB:
   * C. Bannwarth, S. Ehlert and S. Grimme., J. Chem. Theory Comput., 2019,
     15, 1652-1671. DOI: 10.1021/acs.jctc.8b01176
   for GFN1-xTB:
   * S. Grimme, C. Bannwarth, P. Shushkov, J. Chem. Theory Comput., 2017,
     13, 1989-2009. DOI: 10.1021/acs.jctc.7b00118
   for GFN0-xTB:
   * P. Pracht, E. Caldeweyher, S. Ehlert, S. Grimme, ChemRxiv, 2019, preprint.
     DOI: 10.26434/chemrxiv.8326202.v1
   for GFN-FF:
   * S. Spicher and S. Grimme, Angew. Chem. Int. Ed., 2020, 59, 15665-15673.
     DOI: 10.1002/anie.202004239
   
   for ALPB and GBSA implicit solvation:
   * S. Ehlert, M. Stahn, S. Spicher, S. Grimme, J. Chem. Theory Comput.,
     2021, 17, 4250-4261. DOI: 10.1021/acs.jctc.1c00471
   
   for DFT-D4:
   * E. Caldeweyher, C. Bannwarth and S. Grimme, J. Chem. Phys., 2017,
     147, 034112. DOI: 10.1063/1.4993215
   * E. Caldeweyher, S. Ehlert, A. Hansen, H. Neugebauer, S. Spicher,
     C. Bannwarth and S. Grimme, J. Chem. Phys., 2019, 150, 154122.
     DOI: 10.1063/1.5090222
   * E. Caldeweyher, J.-M. Mewes, S. Ehlert and S. Grimme, Phys. Chem. Chem. Phys.
     2020, 22, 8499-8512. DOI: 10.1039/D0CP00502A
   
   for sTDA-xTB:
   * S. Grimme and C. Bannwarth, J. Chem. Phys., 2016, 145, 054103.
     DOI: 10.1063/1.4959605
   
   in the mass-spec context:
   * V. Asgeirsson, C. Bauer and S. Grimme, Chem. Sci., 2017, 8, 4879.
     DOI: 10.1039/c7sc00601b
   * J. Koopman and S. Grimme, ACS Omega 2019, 4, 12, 15120-15133.
     DOI: 10.1021/acsomega.9b02011
   
   for metadynamics refer to:
   * S. Grimme, J. Chem. Theory Comput., 2019, 155, 2847-2862
     DOI: 10.1021/acs.jctc.9b00143
   
   for SPH calculations refer to:
   * S. Spicher and S. Grimme, J. Chem. Theory Comput., 2021, 17, 1701-1714
     DOI: 10.1021/acs.jctc.0c01306
   
   with help from (in alphabetical order)
   P. Atkinson, C. Bannwarth, F. Bohle, G. Brandenburg, E. Caldeweyher
   M. Checinski, S. Dohm, S. Ehlert, S. Ehrlich, I. Gerasimov, C. Hölzer
   A. Katbashev, J. Koopman, C. Lavigne, S. Lehtola, F. März, M. Müller,
   F. Musil, H. Neugebauer, J. Pisarek, C. Plett, P. Pracht, F. Pultar,
   J. Seibert, P. Shushkov, S. Spicher, M. Stahn, M. Steiner, T. Strunk,
   J. Stückrath, T. Rose, and J. Unsleber
   
 * started run on 2026/07/23 at 16:40:25.912     

           -------------------------------------------------
          |                Calculation Setup                |
           -------------------------------------------------

          program call               : xtb /home/selva/covalent_quantum_benchmark/data/quantum/erbB_xyz/ERBB2__CHEMBL175840__state01.xyz --gfn2 --chrg 0 --uhf 0 --iterations 300
          coordinate file            : /home/selva/covalent_quantum_benchmark/data/quantum/erbB_xyz/ERBB2__CHEMBL175840__state01.xyz
          omp threads                :                    24

   ID    Z sym.   atoms
    1    6 C      1, 2, 4-6, 8-10, 12, 14-17, 19, 20, 22, 23, 25, 26, 28-31,
                  33, 35-37, 39, 40
    2    8 O      3, 18, 34
    3    7 N      7, 11, 13, 21, 24, 32, 38
    4   17 Cl     27

           -------------------------------------------------
          |                 G F N 2 - x T B                 |
           -------------------------------------------------

        Reference                      10.1021/acs.jctc.8b01176
      * Hamiltonian:
        H0-scaling (s, p, d)           1.850000    2.230000    2.230000
        zeta-weighting                 0.500000
      * Dispersion:
        s8                             2.700000
        a1                             0.520000
        a2                             5.000000
        s9                             5.000000
      * Repulsion:
        kExp                           1.500000    1.000000
        rExp                           1.000000
      * Coulomb:
        alpha                          2.000000
        third order                    shell-resolved
        anisotropic                    true
        a3                             3.000000
        a5                             4.000000
        cn-shift                       1.200000
        cn-exp                         4.000000
        max-rad                        5.000000


          ...................................................
          :                      SETUP                      :
          :.................................................:
          :  # basis functions                 166          :
          :  # atomic orbitals                 165          :
          :  # shells                           81          :
          :  # electrons                       176          :
          :  max. iterations                   300          :
          :  Hamiltonian                  GFN2-xTB          :
          :  restarted?                      false          :
          :  GBSA solvation                  false          :
          :  PC potential                    false          :
          :  electronic temp.          300.0000000     K    :
          :  accuracy                    1.0000000          :
          :  -> integral cutoff          0.2500000E+02      :
          :  -> integral neglect         0.1000000E-07      :
          :  -> SCF convergence          0.1000000E-05 Eh   :
          :  -> wf. convergence          0.1000000E-03 e    :
          :  Broyden damping             0.4000000          :
          ...................................................

 iter      E             dE          RMSdq      gap      omega  full diag
   1    -96.3879572 -0.963880E+02  0.957E+00    0.23       0.0  T
   2    -72.5135975  0.238744E+02  0.137E+01    0.03       1.0  T
   3    -71.8933514  0.620246E+00  0.125E+01    0.02       1.0  T
   4    -78.9445318 -0.705118E+01  0.107E+01    0.16       1.0  T
   5    -89.1724595 -0.102279E+02  0.812E+00    0.17       1.0  T
   6    -92.3166387 -0.314418E+01  0.778E+00    0.07       1.0  T
   7    -94.8459898 -0.252935E+01  0.612E+00    0.14       1.0  T
   8    -94.8201660  0.258238E-01  0.562E+00    0.05       1.0  T
   9    -97.0126672 -0.219250E+01  0.442E+00    0.06       1.0  T
  10    -97.4541632 -0.441496E+00  0.345E+00    0.04       1.0  T
  11    -96.5926570  0.861506E+00  0.457E+00    0.07       1.0  T
  12    -97.4615721 -0.868915E+00  0.306E+00    0.03       1.0  T
  13    -97.2292356  0.232336E+00  0.370E+00    0.05       1.0  T
  14    -97.4666345 -0.237399E+00  0.305E+00    0.02       1.0  T
  15    -96.8523143  0.614320E+00  0.392E+00    0.15       1.0  T
  16    -97.4573563 -0.605042E+00  0.311E+00    0.08       1.0  T
  17    -97.9777179 -0.520362E+00  0.250E+00    0.05       1.0  T
  18    -98.0836247 -0.105907E+00  0.202E+00    0.04       1.0  T
  19    -97.9381994  0.145425E+00  0.224E+00    0.06       1.0  T
  20    -98.0279897 -0.897903E-01  0.211E+00    0.02       1.0  T
  21    -97.7818970  0.246093E+00  0.248E+00    0.03       1.0  T
  22    -97.8236612 -0.417642E-01  0.227E+00    0.02       1.0  T
  23    -98.2038179 -0.380157E+00  0.132E+00    0.03       1.0  T
  24    -98.1679110  0.359070E-01  0.138E+00    0.02       1.0  T
  25    -98.2160280 -0.481170E-01  0.117E+00    0.05       1.0  T
  26    -98.1927398  0.232881E-01  0.124E+00    0.05       1.0  T
  27    -98.2134601 -0.207203E-01  0.114E+00    0.05       1.0  T
  28    -98.2029684  0.104918E-01  0.119E+00    0.03       1.0  T
  29    -98.1953272  0.764120E-02  0.120E+00    0.02       1.0  T
  30    -98.2208661 -0.255389E-01  0.104E+00    0.02       1.0  T
  31    -98.2526760 -0.318099E-01  0.816E-01    0.02       1.0  T
  32    -98.2782124 -0.255364E-01  0.501E-01    0.02       1.0  T
  33    -98.2866422 -0.842977E-02  0.323E-01    0.04       1.0  T
  34    -98.2796804  0.696175E-02  0.399E-01    0.03       1.0  T
  35    -98.2914091 -0.117287E-01  0.247E-01    0.03       1.0  T
  36    -98.2704577  0.209514E-01  0.509E-01    0.02       1.0  T
  37    -98.2861470 -0.156893E-01  0.343E-01    0.03       1.0  T
  38    -98.2948245 -0.867746E-02  0.185E-01    0.03       1.0  T
  39    -98.2965403 -0.171581E-02  0.126E-01    0.03       1.0  T
  40    -98.2972324 -0.692070E-03  0.963E-02    0.03       1.0  T
  41    -98.2973098 -0.773970E-04  0.893E-02    0.03       1.0  T
  42    -98.2972883  0.214463E-04  0.839E-02    0.03       1.0  T
  43    -98.2973444 -0.560264E-04  0.807E-02    0.03       1.0  T
  44    -98.2977143 -0.369939E-03  0.657E-02    0.03       1.0  T
  45    -98.2979140 -0.199718E-03  0.409E-02    0.03       1.0  T
  46    -98.2979844 -0.703736E-04  0.295E-02    0.03       1.0  T
  47    -98.2980233 -0.389544E-04  0.188E-02    0.03       1.0  T
  48    -98.2980477 -0.243080E-04  0.983E-03    0.03       1.6  T
  49    -98.2980488 -0.116255E-05  0.843E-03    0.03       1.9  T
  50    -98.2980498 -0.102908E-05  0.674E-03    0.03       2.3  T
  51    -98.2980507 -0.864966E-06  0.569E-03    0.03       2.8  T
  52    -98.2980513 -0.550220E-06  0.454E-03    0.03       3.5  T
  53    -98.2980523 -0.100875E-05  0.321E-03    0.03       4.9  T
  54    -98.2980526 -0.368419E-06  0.252E-03    0.03       6.3  T
  55    -98.2980532 -0.606973E-06  0.775E-04    0.03      20.4  T
  56    -98.2980532  0.928296E-07  0.130E-03    0.03      12.1  T
  57    -98.2980533 -0.134210E-06  0.263E-04    0.03      60.2  T

   *** convergence criteria satisfied after 57 iterations ***

         #    Occupation            Energy/Eh            Energy/eV
      -------------------------------------------------------------
         1        2.0000           -1.0964788             -29.8367
       ...           ...                  ...                  ...
        82        2.0000           -0.4412636             -12.0074
        83        2.0000           -0.4380417             -11.9197
        84        1.9995           -0.4346648             -11.8278
        85        1.9987           -0.4337603             -11.8032
        86        1.9778           -0.4310244             -11.7288
        87        1.7100           -0.4284440             -11.6586
        88        1.1645           -0.4270736             -11.6213 (HOMO)
        89        0.6175           -0.4259924             -11.5918 (LUMO)
        90        0.4734           -0.4256459             -11.5824
        91        0.0575           -0.4234140             -11.5217
        92        0.0009           -0.4194641             -11.4142
        93        0.0000           -0.4154206             -11.3042
       ...           ...                  ...                  ...
       165                          1.0449731              28.4352
      -------------------------------------------------------------
                  HL-Gap            0.0010812 Eh            0.0294 eV
             Fermi-level           -0.4267581 Eh          -11.6127 eV

 SCC (total)                   0 d,  0 h,  0 min,  1.274 sec
 SCC setup                      ...        0 min,  0.001 sec (  0.041%)
 Dispersion                     ...        0 min,  0.002 sec (  0.162%)
 classical contributions        ...        0 min,  0.001 sec (  0.069%)
 integral evaluation            ...        0 min,  0.013 sec (  1.005%)
 iterations                     ...        0 min,  1.212 sec ( 95.100%)
 molecular gradient             ...        0 min,  0.042 sec (  3.328%)
 printout                       ...        0 min,  0.004 sec (  0.281%)

         :::::::::::::::::::::::::::::::::::::::::::::::::::::
         ::                     SUMMARY                     ::
         :::::::::::::::::::::::::::::::::::::::::::::::::::::
         :: total energy             -97.248572293769 Eh    ::
         :: gradient norm              0.548039051353 Eh/a0 ::
         :: HOMO-LUMO gap              0.029420053919 eV    ::
         ::.................................................::
         :: SCC energy               -98.298053286943 Eh    ::
         :: -> isotropic ES            0.005427146226 Eh    ::
         :: -> anisotropic ES          0.009519130033 Eh    ::
         :: -> anisotropic XC          0.058011006559 Eh    ::
         :: -> dispersion             -0.062312801665 Eh    ::
         :: repulsion energy           1.048543095984 Eh    ::
         :: add. restraining           0.000000000000 Eh    ::
         :: total charge               0.000000000001 e     ::
         :::::::::::::::::::::::::::::::::::::::::::::::::::::

           -------------------------------------------------
          |                Property Printout                |
           -------------------------------------------------

    * Orbital Energies and Occupations

         #    Occupation            Energy/Eh            Energy/eV
      -------------------------------------------------------------
         1        2.0000           -1.0964788             -29.8367
       ...           ...                  ...                  ...
        76        2.0000           -0.4549640             -12.3802
        77        2.0000           -0.4506609             -12.2631
        78        2.0000           -0.4494414             -12.2299
        79        2.0000           -0.4470920             -12.1660
        80        2.0000           -0.4440494             -12.0832
        81        2.0000           -0.4427645             -12.0482
        82        2.0000           -0.4412636             -12.0074
        83        2.0000           -0.4380417             -11.9197
        84        1.9995           -0.4346648             -11.8278
        85        1.9987           -0.4337603             -11.8032
        86        1.9778           -0.4310244             -11.7288
        87        1.7100           -0.4284440             -11.6586
        88        1.1645           -0.4270736             -11.6213 (HOMO)
        89        0.6175           -0.4259924             -11.5918 (LUMO)
        90        0.4734           -0.4256459             -11.5824
        91        0.0575           -0.4234140             -11.5217
        92        0.0009           -0.4194641             -11.4142
        93        0.0000           -0.4154206             -11.3042
        94                         -0.4092926             -11.1374
        95                         -0.4021417             -10.9428
        96                         -0.3974101             -10.8141
        97                         -0.3944617             -10.7338
        98                         -0.3920381             -10.6679
        99                         -0.3740281             -10.1778
       ...                                ...                  ...
       165                          1.0449731              28.4352
      -------------------------------------------------------------
                  HL-Gap            0.0010812 Eh            0.0294 eV
             Fermi-level           -0.4267581 Eh          -11.6127 eV

     #   Z          covCN         q      C6AA      α(0)
     1   6 C        0.976    -0.086    38.608    10.434
     2   6 C        1.852     0.097    28.724     8.657
     3   8 O        1.703    -0.122    16.160     5.428
     4   6 C        2.868     0.156    24.613     8.132
     5   6 C        1.989    -0.067    32.861     9.258
     6   6 C        2.915     0.116    25.444     8.271
     7   7 N        1.831    -0.123    24.436     7.325
     8   6 C        1.934     0.096    28.709     8.653
     9   6 C        2.952     0.028    27.379     8.582
    10   6 C        1.907     0.127    28.001     8.546
    11   7 N        0.911    -0.169    24.656     7.182
    12   6 C        2.900     0.137    25.015     8.201
    13   7 N        1.836    -0.111    24.181     7.287
    14   6 C        2.913     0.127    25.226     8.236
    15   6 C        1.993    -0.031    31.872     9.117
    16   6 C        1.986    -0.045    32.268     9.174
    17   6 C        2.903     0.154    24.673     8.144
    18   8 O        1.702    -0.160    16.713     5.520
    19   6 C        1.862     0.036    30.215     8.879
    20   6 C        3.127     0.162    24.342     8.078
    21   7 N        1.900    -0.140    24.817     7.386
    22   6 C        2.194     0.061    28.989     8.711
    23   6 C        2.056    -0.040    32.028     9.141
    24   7 N        2.860     0.108    19.375     6.537
    25   6 C        0.915    -0.078    37.886    10.303
    26   6 C        2.876     0.087    26.062     8.369
    27  17 Cl       0.959    -0.070   101.329    15.400
    28   6 C        2.034    -0.094    33.596     9.361
    29   6 C        2.963     0.011    27.763     8.643
    30   6 C        1.994    -0.068    32.876     9.260
    31   6 C        2.935     0.103    25.725     8.318
    32   7 N        1.833    -0.157    25.178     7.436
    33   6 C        2.792     0.296    21.989     7.681
    34   8 O        0.860    -0.369    21.069     6.154
    35   6 C        1.964    -0.023    31.691     9.091
    36   6 C        1.965     0.044    29.958     8.839
    37   6 C        1.914    -0.028    31.862     9.116
    38   7 N        2.722     0.186    18.151     6.328
    39   6 C        0.936    -0.086    38.308    10.372
    40   6 C        0.940    -0.063    37.580    10.275

 Mol. C6AA /au·bohr⁶  :      45714.258163
 Mol. C8AA /au·bohr⁸  :    1269833.296095
 Mol. α(0) /au        :        339.825341


Wiberg/Mayer (AO) data.
largest (>0.10) Wiberg bond orders for each atom

 ---------------------------------------------------------------------------
     #   Z sym  total        # sym  WBO       # sym  WBO       # sym  WBO
 ---------------------------------------------------------------------------
     1   6 C    2.250 --     2 C    2.056
     2   6 C    3.324 --     1 C    2.056     3 O    1.129
     3   8 O    2.387 --     2 C    1.129     4 C    1.055
     4   6 C    3.899 --     5 C    1.465    31 C    1.136     3 O    1.055
     5   6 C    3.638 --     4 C    1.465     6 C    1.387    30 C    0.450
     6   6 C    3.889 --     5 C    1.387     7 N    1.165    29 C    1.116
     7   7 N    3.173 --     8 C    1.672     6 C    1.165
     8   6 C    3.717 --     7 N    1.672     9 C    1.582    13 N    0.118
     9   6 C    3.866 --     8 C    1.582    10 C    1.099    12 C    0.984
    10   6 C    3.946 --    11 N    2.794     9 C    1.099
    11   7 N    2.982 --    10 C    2.794
    12   6 C    3.944 --    13 N    1.666    29 C    1.031     9 C    0.984
    13   7 N    3.247 --    12 C    1.666    14 C    1.096     8 C    0.118
    14   6 C    3.925 --    28 C    1.327    15 C    1.294    13 N    1.096
    15   6 C    3.633 --    16 C    1.684    14 C    1.294    28 C    0.259
                            26 C    0.104
    16   6 C    3.557 --    15 C    1.684    17 C    1.367    28 C    0.197
    17   6 C    3.866 --    16 C    1.367    26 C    1.248    18 O    0.967
    18   8 O    2.349 --    19 C    1.097    17 C    0.967
    19   6 C    3.089 --    20 C    1.120    18 O    1.097    23 C    0.238
                            22 C    0.164    25 C    0.103
    20   6 C    3.885 --    21 N    1.460    19 C    1.120    24 N    1.022
                            23 C    0.120
    21   7 N    3.248 --    20 C    1.460    22 C    1.393    25 C    0.140
    22   6 C    3.694 --    23 C    1.621    21 N    1.393    25 C    0.384
                            19 C    0.164
    23   6 C    3.310 --    22 C    1.621    24 N    1.095    19 C    0.238
Note: The following floating-point exceptions are signalling: IEEE_UNDERFLOW_FLAG IEEE_DENORMAL
normal termination of xtb
                            20 C    0.120
    24   7 N    3.737 --    25 C    1.496    23 C    1.095    20 C    1.022
    25   6 C    2.395 --    24 N    1.496    22 C    0.384    21 N    0.140
                            19 C    0.103
    26   6 C    3.896 --    28 C    1.444    17 C    1.248    27 Cl   1.007
                            15 C    0.104
    27  17 Cl   1.194 --    26 C    1.007
    28   6 C    3.573 --    26 C    1.444    14 C    1.327    15 C    0.259
                            16 C    0.197
    29   6 C    3.923 --    30 C    1.510     6 C    1.116    12 C    1.031
    30   6 C    3.748 --    29 C    1.510    31 C    1.367     5 C    0.450
    31   6 C    3.924 --    30 C    1.367    32 N    1.186     4 C    1.136
    32   7 N    3.201 --    33 C    1.481    31 C    1.186    34 O    0.197
    33   6 C    3.940 --    32 N    1.481    34 O    1.400    35 C    0.967
    34   8 O    1.968 --    33 C    1.400    32 N    0.197    35 C    0.119
    35   6 C    3.694 --    36 C    2.231    33 C    0.967    37 C    0.152
                            34 O    0.119
    36   6 C    3.818 --    35 C    2.231    37 C    1.368
    37   6 C    3.166 --    36 C    1.368    38 N    1.033    39 C    0.419
                            35 C    0.152
    38   7 N    3.674 --    39 C    1.301    40 C    1.301    37 C    1.033
    39   6 C    2.322 --    38 N    1.301    40 C    0.441    37 C    0.419
    40   6 C    1.884 --    38 N    1.301    39 C    0.441
 ---------------------------------------------------------------------------

Topologies differ in total number of bonds
Writing topology from bond orders to xtbtopo.mol

molecular dipole:
                 x           y           z       tot (Debye)
 q only:        1.937       0.452       0.354
   full:        1.102       0.303       0.767       3.497
molecular quadrupole (traceless):
                xx          xy          yy          xz          yz          zz
 q only:      -15.614      -6.356       6.554     -11.115       3.907       9.060
  q+dip:      -17.679     -16.560       8.357     -14.799       3.326       9.322
   full:      -19.342     -17.546       6.808     -13.052       3.596      12.533


           -------------------------------------------------
          | TOTAL ENERGY              -97.248572293769 Eh   |
          | GRADIENT NORM               0.548039051353 Eh/α |
          | HOMO-LUMO GAP               0.029420053919 eV   |
           -------------------------------------------------

------------------------------------------------------------------------
 * finished run on 2026/07/23 at 16:40:27.219     
------------------------------------------------------------------------
 total:
 * wall-time:     0 d,  0 h,  0 min,  1.307 sec
 *  cpu-time:     0 d,  0 h,  0 min,  1.243 sec
 * ratio c/w:     0.951 speedup
 SCF:
 * wall-time:     0 d,  0 h,  0 min,  1.275 sec
 *  cpu-time:     0 d,  0 h,  0 min,  1.211 sec
 * ratio c/w:     0.950 speedup

