      -----------------------------------------------------------      
     |                   =====================                   |     
     |                           x T B                           |     
     |                   =====================                   |     
     |                         S. Grimme                         |     
     |          Mulliken Center for Theoretical Chemistry        |     
     |                    University of Bonn                     |     
      -----------------------------------------------------------      

   * xtb version 6.6.1 (unknown) compiled by 'builduser@buildhost' on 2023-08-07

   xtb is free software: you can redistribute it and/or modify it under
   the terms of the GNU Lesser General Public License as published by
   the Free Software Foundation, either version 3 of the License, or
   (at your option) any later version.
   
   xtb is distributed in the hope that it will be useful,
   but WITHOUT ANY WARRANTY; without even the implied warranty of
   MERCHANTABILITY or FITNESS FOR A PARTICULAR PURPOSE.  See the
   GNU Lesser General Public License for more details.
   
   Cite this work as:
   * C. Bannwarth, E. Caldeweyher, S. Ehlert, A. Hansen, P. Pracht,
     J. Seibert, S. Spicher, S. Grimme, WIREs Comput. Mol. Sci., 2020, 11,
     e01493. DOI: 10.1002/wcms.1493
   
   for GFN2-xTB:
   * C. Bannwarth, S. Ehlert and S. Grimme., J. Chem. Theory Comput., 2019,
     15, 1652-1671. DOI: 10.1021/acs.jctc.8b01176
   for GFN1-xTB:
   * S. Grimme, C. Bannwarth, P. Shushkov, J. Chem. Theory Comput., 2017,
     13, 1989-2009. DOI: 10.1021/acs.jctc.7b00118
   for GFN0-xTB:
   * P. Pracht, E. Caldeweyher, S. Ehlert, S. Grimme, ChemRxiv, 2019, preprint.
     DOI: 10.26434/chemrxiv.8326202.v1
   for GFN-FF:
   * S. Spicher and S. Grimme, Angew. Chem. Int. Ed., 2020, 59, 15665-15673.
     DOI: 10.1002/anie.202004239
   
   for ALPB and GBSA implicit solvation:
   * S. Ehlert, M. Stahn, S. Spicher, S. Grimme, J. Chem. Theory Comput.,
     2021, 17, 4250-4261. DOI: 10.1021/acs.jctc.1c00471
   
   for DFT-D4:
   * E. Caldeweyher, C. Bannwarth and S. Grimme, J. Chem. Phys., 2017,
     147, 034112. DOI: 10.1063/1.4993215
   * E. Caldeweyher, S. Ehlert, A. Hansen, H. Neugebauer, S. Spicher,
     C. Bannwarth and S. Grimme, J. Chem. Phys., 2019, 150, 154122.
     DOI: 10.1063/1.5090222
   * E. Caldeweyher, J.-M. Mewes, S. Ehlert and S. Grimme, Phys. Chem. Chem. Phys.
     2020, 22, 8499-8512. DOI: 10.1039/D0CP00502A
   
   for sTDA-xTB:
   * S. Grimme and C. Bannwarth, J. Chem. Phys., 2016, 145, 054103.
     DOI: 10.1063/1.4959605
   
   in the mass-spec context:
   * V. Asgeirsson, C. Bauer and S. Grimme, Chem. Sci., 2017, 8, 4879.
     DOI: 10.1039/c7sc00601b
   * J. Koopman and S. Grimme, ACS Omega 2019, 4, 12, 15120-15133.
     DOI: 10.1021/acsomega.9b02011
   
   for metadynamics refer to:
   * S. Grimme, J. Chem. Theory Comput., 2019, 155, 2847-2862
     DOI: 10.1021/acs.jctc.9b00143
   
   for SPH calculations refer to:
   * S. Spicher and S. Grimme, J. Chem. Theory Comput., 2021, 17, 1701-1714
     DOI: 10.1021/acs.jctc.0c01306
   
   with help from (in alphabetical order)
   P. Atkinson, C. Bannwarth, F. Bohle, G. Brandenburg, E. Caldeweyher
   M. Checinski, S. Dohm, S. Ehlert, S. Ehrlich, I. Gerasimov, C. Hölzer
   A. Katbashev, J. Koopman, C. Lavigne, S. Lehtola, F. März, M. Müller,
   F. Musil, H. Neugebauer, J. Pisarek, C. Plett, P. Pracht, F. Pultar,
   J. Seibert, P. Shushkov, S. Spicher, M. Stahn, M. Steiner, T. Strunk,
   J. Stückrath, T. Rose, and J. Unsleber
   
 * started run on 2026/07/23 at 16:39:33.767     

           -------------------------------------------------
          |                Calculation Setup                |
           -------------------------------------------------

          program call               : xtb /home/selva/covalent_quantum_benchmark/data/quantum/erbB_xyz/EGFR__CHEMBL94068__state02.xyz --gfn2 --chrg 0 --uhf 0 --iterations 300
          coordinate file            : /home/selva/covalent_quantum_benchmark/data/quantum/erbB_xyz/EGFR__CHEMBL94068__state02.xyz
          omp threads                :                    24

   ID    Z sym.   atoms
    1    8 O      1
    2    6 C      2-5, 7-11, 13-16, 18, 20, 22-26, 28-30
    3    7 N      6, 12, 17, 19, 21
    4   35 Br     27

           -------------------------------------------------
          |                 G F N 2 - x T B                 |
           -------------------------------------------------

        Reference                      10.1021/acs.jctc.8b01176
      * Hamiltonian:
        H0-scaling (s, p, d)           1.850000    2.230000    2.230000
        zeta-weighting                 0.500000
      * Dispersion:
        s8                             2.700000
        a1                             0.520000
        a2                             5.000000
        s9                             5.000000
      * Repulsion:
        kExp                           1.500000    1.000000
        rExp                           1.000000
      * Coulomb:
        alpha                          2.000000
        third order                    shell-resolved
        anisotropic                    true
        a3                             3.000000
        a5                             4.000000
        cn-shift                       1.200000
        cn-exp                         4.000000
        max-rad                        5.000000


          ...................................................
          :                      SETUP                      :
          :.................................................:
          :  # basis functions                 126          :
          :  # atomic orbitals                 125          :
          :  # shells                           61          :
          :  # electrons                       130          :
          :  max. iterations                   300          :
          :  Hamiltonian                  GFN2-xTB          :
          :  restarted?                      false          :
          :  GBSA solvation                  false          :
          :  PC potential                    false          :
          :  electronic temp.          300.0000000     K    :
          :  accuracy                    1.0000000          :
          :  -> integral cutoff          0.2500000E+02      :
          :  -> integral neglect         0.1000000E-07      :
          :  -> SCF convergence          0.1000000E-05 Eh   :
          :  -> wf. convergence          0.1000000E-03 e    :
          :  Broyden damping             0.4000000          :
          ...................................................

 iter      E             dE          RMSdq      gap      omega  full diag
   1    -70.7718192 -0.707718E+02  0.838E+00    0.15       0.0  T
   2    -65.6779934  0.509383E+01  0.939E+00    0.17       1.0  T
   3    -61.3732379  0.430476E+01  0.981E+00    0.11       1.0  T
   4    -51.3922351  0.998100E+01  0.121E+01    0.19       1.0  T
   5    -55.2223480 -0.383011E+01  0.102E+01    0.03       1.0  T
   6    -60.8469452 -0.562460E+01  0.829E+00    0.03       1.0  T
   7    -70.4051999 -0.955825E+01  0.356E+00    0.15       1.0  T
   8    -70.6527830 -0.247583E+00  0.285E+00    0.07       1.0  T
   9    -70.6894650 -0.366820E-01  0.258E+00    0.07       1.0  T
  10    -71.1369082 -0.447443E+00  0.217E+00    0.05       1.0  T
  11    -70.9303358  0.206572E+00  0.198E+00    0.09       1.0  T
  12    -70.8404418  0.898940E-01  0.236E+00    0.01       1.0  T
  13    -71.2148143 -0.374373E+00  0.163E+00    0.06       1.0  T
  14    -71.1737062  0.411081E-01  0.157E+00    0.05       1.0  T
  15    -71.2372843 -0.635781E-01  0.136E+00    0.06       1.0  T
  16    -71.2788610 -0.415766E-01  0.111E+00    0.01       1.0  T
  17    -71.2688149  0.100460E-01  0.103E+00    0.04       1.0  T
  18    -71.2332768  0.355381E-01  0.113E+00    0.03       1.0  T
  19    -71.2585031 -0.252262E-01  0.837E-01    0.01       1.0  T
  20    -71.2635264 -0.502332E-02  0.100E+00    0.04       1.0  T
  21    -71.2863387 -0.228124E-01  0.554E-01    0.02       1.0  T
  22    -71.2968684 -0.105297E-01  0.342E-01    0.01       1.0  T
  23    -71.3040619 -0.719353E-02  0.344E-01    0.03       1.0  T
  24    -71.3097667 -0.570477E-02  0.140E-01    0.02       1.0  T
  25    -71.3095471  0.219653E-03  0.114E-01    0.01       1.0  T
  26    -71.3050982  0.444884E-02  0.278E-01    0.03       1.0  T
  27    -71.3079755 -0.287726E-02  0.204E-01    0.03       1.0  T
  28    -71.3098118 -0.183633E-02  0.956E-02    0.02       1.0  T
  29    -71.3102090 -0.397195E-03  0.518E-02    0.02       1.0  T
  30    -71.3103032 -0.941891E-04  0.398E-02    0.02       1.0  T
  31    -71.3102839  0.193271E-04  0.270E-02    0.02       1.0  T
  32    -71.3103112 -0.273370E-04  0.316E-02    0.02       1.0  T
  33    -71.3102342  0.770004E-04  0.412E-02    0.02       1.0  T
  34    -71.3103424 -0.108191E-03  0.115E-02    0.02       1.6  T
  35    -71.3103500 -0.755477E-05  0.615E-03    0.02       3.0  T
  36    -71.3103412  0.874459E-05  0.107E-02    0.02       1.7  T
  37    -71.3103507 -0.948279E-05  0.231E-03    0.02       7.9  T
  38    -71.3103508 -0.140810E-06  0.100E-03    0.02      18.2  T
  39    -71.3103508  0.308608E-07  0.136E-03    0.02      13.4  T
  40    -71.3103509 -0.854541E-07  0.293E-04    0.02      62.2  T
  41    -71.3103509  0.113803E-08  0.246E-04    0.02      74.2  T

   *** convergence criteria satisfied after 41 iterations ***

         #    Occupation            Energy/Eh            Energy/eV
      -------------------------------------------------------------
         1        2.0000           -0.8653912             -23.5485
       ...           ...                  ...                  ...
        59        2.0000           -0.4317762             -11.7492
        60        2.0000           -0.4268239             -11.6145
        61        2.0000           -0.4249687             -11.5640
        62        1.9838           -0.4178160             -11.3694
        63        1.9450           -0.4166380             -11.3373
        64        1.6574           -0.4147486             -11.2859
        65        1.3449           -0.4139343             -11.2637 (HOMO)
        66        1.0381           -0.4133233             -11.2471 (LUMO)
        67        0.0308           -0.4093017             -11.1377
        68        0.0000           -0.4030811             -10.9684
        69                         -0.3949630             -10.7475
        70                         -0.3918651             -10.6632
       ...                                ...                  ...
       125                          0.6148544              16.7310
      -------------------------------------------------------------
                  HL-Gap            0.0006109 Eh            0.0166 eV
             Fermi-level           -0.4132509 Eh          -11.2451 eV

 SCC (total)                   0 d,  0 h,  0 min,  0.358 sec
 SCC setup                      ...        0 min,  0.000 sec (  0.079%)
 Dispersion                     ...        0 min,  0.004 sec (  1.078%)
 classical contributions        ...        0 min,  0.001 sec (  0.171%)
 integral evaluation            ...        0 min,  0.007 sec (  1.987%)
 iterations                     ...        0 min,  0.325 sec ( 90.713%)
 molecular gradient             ...        0 min,  0.020 sec (  5.537%)
 printout                       ...        0 min,  0.002 sec (  0.427%)

         :::::::::::::::::::::::::::::::::::::::::::::::::::::
         ::                     SUMMARY                     ::
         :::::::::::::::::::::::::::::::::::::::::::::::::::::
         :: total energy             -70.530260366175 Eh    ::
         :: gradient norm              0.503213989352 Eh/a0 ::
         :: HOMO-LUMO gap              0.016624262257 eV    ::
         ::.................................................::
         :: SCC energy               -71.310350884390 Eh    ::
         :: -> isotropic ES            0.038671324633 Eh    ::
         :: -> anisotropic ES          0.007561872580 Eh    ::
         :: -> anisotropic XC          0.040019872928 Eh    ::
         :: -> dispersion             -0.042569924459 Eh    ::
         :: repulsion energy           0.779533080192 Eh    ::
         :: add. restraining           0.000000000000 Eh    ::
         :: total charge               0.000000000355 e     ::
         :::::::::::::::::::::::::::::::::::::::::::::::::::::

           -------------------------------------------------
          |                Property Printout                |
           -------------------------------------------------

    * Orbital Energies and Occupations

         #    Occupation            Energy/Eh            Energy/eV
      -------------------------------------------------------------
         1        2.0000           -0.8653912             -23.5485
       ...           ...                  ...                  ...
        53        2.0000           -0.4530800             -12.3289
        54        2.0000           -0.4455116             -12.1230
        55        2.0000           -0.4394024             -11.9567
        56        2.0000           -0.4391083             -11.9487
        57        2.0000           -0.4381964             -11.9239
        58        2.0000           -0.4327014             -11.7744
        59        2.0000           -0.4317762             -11.7492
        60        2.0000           -0.4268239             -11.6145
        61        2.0000           -0.4249687             -11.5640
        62        1.9838           -0.4178160             -11.3694
        63        1.9450           -0.4166380             -11.3373
        64        1.6574           -0.4147486             -11.2859
        65        1.3449           -0.4139343             -11.2637 (HOMO)
        66        1.0381           -0.4133233             -11.2471 (LUMO)
        67        0.0308           -0.4093017             -11.1377
        68        0.0000           -0.4030811             -10.9684
        69                         -0.3949630             -10.7475
        70                         -0.3918651             -10.6632
        71                         -0.3870410             -10.5319
        72                         -0.3539902              -9.6326
        73                         -0.3478804              -9.4663
        74                         -0.3442346              -9.3671
        75                         -0.3347351              -9.1086
        76                         -0.3139153              -8.5421
       ...                                ...                  ...
       125                          0.6148544              16.7310
      -------------------------------------------------------------
                  HL-Gap            0.0006109 Eh            0.0166 eV
             Fermi-level           -0.4132509 Eh          -11.2451 eV

     #   Z          covCN         q      C6AA      α(0)
     1   8 O        0.858    -0.333    20.385     6.053
     2   6 C        2.751     0.323    21.513     7.595
     3   6 C        1.970     0.001    31.049     8.999
     4   6 C        1.965     0.023    30.474     8.915
     5   6 C        1.908     0.000    31.100     9.006
     6   7 N        2.725     0.090    19.683     6.589
     7   6 C        1.904    -0.016    31.546     9.071
     8   6 C        1.954    -0.003    31.161     9.015
     9   6 C        1.955     0.026    30.401     8.904
    10   6 C        1.953     0.001    31.042     8.997
    11   6 C        1.898    -0.032    31.976     9.133
    12   7 N        1.835    -0.214    26.498     7.628
    13   6 C        2.896     0.151    24.732     8.154
    14   6 C        1.987    -0.020    31.581     9.075
    15   6 C        1.992    -0.014    31.409     9.051
    16   6 C        2.952     0.123    25.306     8.251
    17   7 N        1.832    -0.152    25.071     7.420
    18   6 C        1.889     0.166    27.112     8.410
    19   7 N        1.849    -0.165    25.378     7.466
    20   6 C        2.832     0.199    23.778     7.991
    21   7 N        1.848    -0.160    25.248     7.447
    22   6 C        2.912     0.128    25.195     8.231
    23   6 C        1.992     0.006    30.900     8.977
    24   6 C        1.986    -0.023    31.673     9.089
    25   6 C        2.062     0.003    30.887     8.977
    26   6 C        2.906     0.113    25.519     8.283
    27  35 Br       1.069    -0.073   187.013    22.050
    28   6 C        2.065    -0.088    33.358     9.330
    29   6 C        2.964    -0.001    28.039     8.685
    30   6 C        1.994    -0.059    32.632     9.225

 Mol. C6AA /au·bohr⁶  :      27832.991518
 Mol. C8AA /au·bohr⁸  :     831194.037990
 Mol. α(0) /au        :        266.016382


Wiberg/Mayer (AO) data.
largest (>0.10) Wiberg bond orders for each atom

 ---------------------------------------------------------------------------
     #   Z sym  total        # sym  WBO       # sym  WBO       # sym  WBO
 ---------------------------------------------------------------------------
     1   8 O    2.007 --     2 C    1.673    12 N    0.102
     2   6 C    3.923 --     1 O    1.673    12 N    1.200     3 C    0.971
     3   6 C    3.715 --     4 C    2.311     2 C    0.971     5 C    0.169
     4   6 C    3.822 --     3 C    2.311     5 C    1.327
     5   6 C    3.188 --     4 C    1.327     6 N    1.148    11 C    0.170
                             3 C    0.169
     6   7 N    3.609 --     5 C    1.148     7 C    1.135    11 C    1.100
     7   6 C    3.246 --     8 C    1.523     6 N    1.135    10 C    0.246
                             9 C    0.160
     8   6 C    3.596 --     9 C    1.530     7 C    1.523    11 C    0.262
                            10 C    0.143
     9   6 C    3.654 --    10 C    1.637     8 C    1.530     7 C    0.160
                            11 C    0.158
    10   6 C    3.578 --     9 C    1.637    11 C    1.445     7 C    0.246
                             8 C    0.143
    11   6 C    3.283 --    10 C    1.445     6 N    1.100     8 C    0.262
                             5 C    0.170     9 C    0.158
    12   7 N    2.850 --    13 C    1.248     2 C    1.200    15 C    0.109
                             1 O    0.102
    13   6 C    3.884 --    30 C    1.251    12 N    1.248    14 C    1.226
    14   6 C    3.660 --    15 C    1.766    13 C    1.226    30 C    0.161
                            18 C    0.124
    15   6 C    3.559 --    14 C    1.766    16 C    1.312    30 C    0.150
                            12 N    0.109
    16   6 C    3.840 --    15 C    1.312    29 C    1.179    17 N    1.090
    17   7 N    3.075 --    18 C    1.681    16 C    1.090
    18   6 C    3.818 --    17 N    1.681    19 N    1.652    14 C    0.124
    19   7 N    3.218 --    18 C    1.652    20 C    1.181
    20   6 C    3.952 --    21 N    1.573    19 N    1.181    29 C    1.006
    21   7 N    3.141 --    20 C    1.573    22 C    1.116
    22   6 C    3.950 --    28 C    1.340    23 C    1.309    21 N    1.116
    23   6 C    3.732 --    24 C    1.624    22 C    1.309    25 C    0.388
                            28 C    0.157
    24   6 C    3.752 --    25 C    1.631    23 C    1.624    28 C    0.387
    25   6 C    3.748 --    24 C    1.631    26 C    1.363    23 C    0.388
                            28 C    0.158
    26   6 C    3.925 --    28 C    1.419    25 C    1.363    27 Br   0.992
    27  35 Br   1.191 --    26 C    0.992
    28   6 C    3.591 --    26 C    1.419    22 C    1.340    24 C    0.387
                            25 C    0.158    23 C    0.157
    29   6 C    3.941 --    30 C    1.476    16 C    1.179    20 C    1.006
    30   6 C    3.355 --    29 C    1.476    13 C    1.251    14 C    0.161
                            15 C    0.150
 ---------------------------------------------------------------------------

Topologies differ in total number of bonds
Writing topology from bond orders to xtbtopo.mol

molecular dipole:
                 x           y           z       tot (Debye)
 q only:       -0.684       0.313      -0.831
   full:       -0.405       1.108      -0.810       3.638
molecular quadrupole (traceless):
                xx          xy          yy          xz          yz          zz
 q only:       14.645       0.237       2.796      -5.186      -0.619     -17.440
  q+dip:       28.191      -6.536      -3.999      -3.452      -1.530     -24.192
   full:       23.284      -6.409       1.074      -5.561      -0.095     -24.358
Note: The following floating-point exceptions are signalling: IEEE_UNDERFLOW_FLAG IEEE_DENORMAL
normal termination of xtb


           -------------------------------------------------
          | TOTAL ENERGY              -70.530260366175 Eh   |
          | GRADIENT NORM               0.503213989352 Eh/α |
          | HOMO-LUMO GAP               0.016624262257 eV   |
           -------------------------------------------------

------------------------------------------------------------------------
 * finished run on 2026/07/23 at 16:39:34.145     
------------------------------------------------------------------------
 total:
 * wall-time:     0 d,  0 h,  0 min,  0.378 sec
 *  cpu-time:     0 d,  0 h,  0 min,  0.364 sec
 * ratio c/w:     0.962 speedup
 SCF:
 * wall-time:     0 d,  0 h,  0 min,  0.358 sec
 *  cpu-time:     0 d,  0 h,  0 min,  0.345 sec
 * ratio c/w:     0.962 speedup

