      -----------------------------------------------------------      
     |                   =====================                   |     
     |                           x T B                           |     
     |                   =====================                   |     
     |                         S. Grimme                         |     
     |          Mulliken Center for Theoretical Chemistry        |     
     |                    University of Bonn                     |     
      -----------------------------------------------------------      

   * xtb version 6.6.1 (unknown) compiled by 'builduser@buildhost' on 2023-08-07

   xtb is free software: you can redistribute it and/or modify it under
   the terms of the GNU Lesser General Public License as published by
   the Free Software Foundation, either version 3 of the License, or
   (at your option) any later version.
   
   xtb is distributed in the hope that it will be useful,
   but WITHOUT ANY WARRANTY; without even the implied warranty of
   MERCHANTABILITY or FITNESS FOR A PARTICULAR PURPOSE.  See the
   GNU Lesser General Public License for more details.
   
   Cite this work as:
   * C. Bannwarth, E. Caldeweyher, S. Ehlert, A. Hansen, P. Pracht,
     J. Seibert, S. Spicher, S. Grimme, WIREs Comput. Mol. Sci., 2020, 11,
     e01493. DOI: 10.1002/wcms.1493
   
   for GFN2-xTB:
   * C. Bannwarth, S. Ehlert and S. Grimme., J. Chem. Theory Comput., 2019,
     15, 1652-1671. DOI: 10.1021/acs.jctc.8b01176
   for GFN1-xTB:
   * S. Grimme, C. Bannwarth, P. Shushkov, J. Chem. Theory Comput., 2017,
     13, 1989-2009. DOI: 10.1021/acs.jctc.7b00118
   for GFN0-xTB:
   * P. Pracht, E. Caldeweyher, S. Ehlert, S. Grimme, ChemRxiv, 2019, preprint.
     DOI: 10.26434/chemrxiv.8326202.v1
   for GFN-FF:
   * S. Spicher and S. Grimme, Angew. Chem. Int. Ed., 2020, 59, 15665-15673.
     DOI: 10.1002/anie.202004239
   
   for ALPB and GBSA implicit solvation:
   * S. Ehlert, M. Stahn, S. Spicher, S. Grimme, J. Chem. Theory Comput.,
     2021, 17, 4250-4261. DOI: 10.1021/acs.jctc.1c00471
   
   for DFT-D4:
   * E. Caldeweyher, C. Bannwarth and S. Grimme, J. Chem. Phys., 2017,
     147, 034112. DOI: 10.1063/1.4993215
   * E. Caldeweyher, S. Ehlert, A. Hansen, H. Neugebauer, S. Spicher,
     C. Bannwarth and S. Grimme, J. Chem. Phys., 2019, 150, 154122.
     DOI: 10.1063/1.5090222
   * E. Caldeweyher, J.-M. Mewes, S. Ehlert and S. Grimme, Phys. Chem. Chem. Phys.
     2020, 22, 8499-8512. DOI: 10.1039/D0CP00502A
   
   for sTDA-xTB:
   * S. Grimme and C. Bannwarth, J. Chem. Phys., 2016, 145, 054103.
     DOI: 10.1063/1.4959605
   
   in the mass-spec context:
   * V. Asgeirsson, C. Bauer and S. Grimme, Chem. Sci., 2017, 8, 4879.
     DOI: 10.1039/c7sc00601b
   * J. Koopman and S. Grimme, ACS Omega 2019, 4, 12, 15120-15133.
     DOI: 10.1021/acsomega.9b02011
   
   for metadynamics refer to:
   * S. Grimme, J. Chem. Theory Comput., 2019, 155, 2847-2862
     DOI: 10.1021/acs.jctc.9b00143
   
   for SPH calculations refer to:
   * S. Spicher and S. Grimme, J. Chem. Theory Comput., 2021, 17, 1701-1714
     DOI: 10.1021/acs.jctc.0c01306
   
   with help from (in alphabetical order)
   P. Atkinson, C. Bannwarth, F. Bohle, G. Brandenburg, E. Caldeweyher
   M. Checinski, S. Dohm, S. Ehlert, S. Ehrlich, I. Gerasimov, C. Hölzer
   A. Katbashev, J. Koopman, C. Lavigne, S. Lehtola, F. März, M. Müller,
   F. Musil, H. Neugebauer, J. Pisarek, C. Plett, P. Pracht, F. Pultar,
   J. Seibert, P. Shushkov, S. Spicher, M. Stahn, M. Steiner, T. Strunk,
   J. Stückrath, T. Rose, and J. Unsleber
   
 * started run on 2026/07/23 at 16:38:36.200     

           -------------------------------------------------
          |                Calculation Setup                |
           -------------------------------------------------

          program call               : xtb /home/selva/covalent_quantum_benchmark/data/quantum/erbB_xyz/EGFR__CHEMBL357161__state01.xyz --gfn2 --chrg 0 --uhf 0 --iterations 300
          coordinate file            : /home/selva/covalent_quantum_benchmark/data/quantum/erbB_xyz/EGFR__CHEMBL357161__state01.xyz
          omp threads                :                    24

   ID    Z sym.   atoms
    1    7 N      1, 15, 23, 28
    2    6 C      2-7, 9, 11-13, 16-22, 24, 26, 27, 29-33, 35, 37, 38
    3    8 O      8, 10, 14, 25, 34, 36

           -------------------------------------------------
          |                 G F N 2 - x T B                 |
           -------------------------------------------------

        Reference                      10.1021/acs.jctc.8b01176
      * Hamiltonian:
        H0-scaling (s, p, d)           1.850000    2.230000    2.230000
        zeta-weighting                 0.500000
      * Dispersion:
        s8                             2.700000
        a1                             0.520000
        a2                             5.000000
        s9                             5.000000
      * Repulsion:
        kExp                           1.500000    1.000000
        rExp                           1.000000
      * Coulomb:
        alpha                          2.000000
        third order                    shell-resolved
        anisotropic                    true
        a3                             3.000000
        a5                             4.000000
        cn-shift                       1.200000
        cn-exp                         4.000000
        max-rad                        5.000000


          ...................................................
          :                      SETUP                      :
          :.................................................:
          :  # basis functions                 152          :
          :  # atomic orbitals                 152          :
          :  # shells                           76          :
          :  # electrons                       168          :
          :  max. iterations                   300          :
          :  Hamiltonian                  GFN2-xTB          :
          :  restarted?                      false          :
          :  GBSA solvation                  false          :
          :  PC potential                    false          :
          :  electronic temp.          300.0000000     K    :
          :  accuracy                    1.0000000          :
          :  -> integral cutoff          0.2500000E+02      :
          :  -> integral neglect         0.1000000E-07      :
          :  -> SCF convergence          0.1000000E-05 Eh   :
          :  -> wf. convergence          0.1000000E-03 e    :
          :  Broyden damping             0.4000000          :
          ...................................................

 iter      E             dE          RMSdq      gap      omega  full diag
   1    -94.0101116 -0.940101E+02  0.847E+00    0.36       0.0  T
   2    -47.4303830  0.465797E+02  0.148E+01    0.02       1.0  T
   3    -43.3463135  0.408407E+01  0.143E+01    0.07       1.0  T
   4    -75.7944630 -0.324481E+02  0.107E+01    0.10       1.0  T
   5    -87.8825840 -0.120881E+02  0.819E+00    0.02       1.0  T
   6    -90.1297505 -0.224717E+01  0.672E+00    0.08       1.0  T
   7    -93.0239954 -0.289424E+01  0.497E+00    0.08       1.0  T
   8    -92.0025650  0.102143E+01  0.477E+00    0.26       1.0  T
   9    -93.9066317 -0.190407E+01  0.367E+00    0.28       1.0  T
  10    -93.8396929  0.669388E-01  0.317E+00    0.08       1.0  T
  11    -94.2066576 -0.366965E+00  0.290E+00    0.29       1.0  T
  12    -94.3192077 -0.112550E+00  0.262E+00    0.23       1.0  T
  13    -94.6713463 -0.352139E+00  0.213E+00    0.09       1.0  T
  14    -94.8585774 -0.187231E+00  0.193E+00    0.05       1.0  T
  15    -94.6432574  0.215320E+00  0.210E+00    0.10       1.0  T
  16    -94.7611938 -0.117936E+00  0.301E+00    0.12       1.0  T
  17    -94.9325206 -0.171327E+00  0.240E+00    0.03       1.0  T
  18    -95.0262668 -0.937462E-01  0.214E+00    0.05       1.0  T
  19    -94.3580257  0.668241E+00  0.322E+00    0.11       1.0  T
  20    -94.3675187 -0.949298E-02  0.320E+00    0.11       1.0  T
  21    -94.4638771 -0.963584E-01  0.306E+00    0.11       1.0  T
  22    -94.9178264 -0.453949E+00  0.216E+00    0.03       1.0  T
  23    -95.1505558 -0.232729E+00  0.120E+00    0.05       1.0  T
  24    -95.2208502 -0.702944E-01  0.904E-01    0.06       1.0  T
  25    -95.2001160  0.207342E-01  0.889E-01    0.06       1.0  T
  26    -95.2249135 -0.247975E-01  0.871E-01    0.08       1.0  T
  27    -95.2405887 -0.156752E-01  0.680E-01    0.08       1.0  T
  28    -95.2519754 -0.113866E-01  0.686E-01    0.13       1.0  T
  29    -95.2551753 -0.319992E-02  0.628E-01    0.13       1.0  T
  30    -95.2562969 -0.112165E-02  0.605E-01    0.13       1.0  T
  31    -95.2581615 -0.186458E-02  0.566E-01    0.14       1.0  T
  32    -95.2574332  0.728280E-03  0.533E-01    0.10       1.0  T
  33    -95.2545840  0.284922E-02  0.563E-01    0.09       1.0  T
  34    -95.2566498 -0.206575E-02  0.522E-01    0.10       1.0  T
  35    -95.2601168 -0.346702E-02  0.454E-01    0.10       1.0  T
  36    -95.2629642 -0.284745E-02  0.400E-01    0.10       1.0  T
  37    -95.2685829 -0.561864E-02  0.318E-01    0.12       1.0  T
  38    -95.2688520 -0.269108E-03  0.295E-01    0.12       1.0  T
  39    -95.2710527 -0.220071E-02  0.224E-01    0.13       1.0  T
  40    -95.2708214  0.231275E-03  0.220E-01    0.13       1.0  T
  41    -95.2706861  0.135320E-03  0.189E-01    0.14       1.0  T
  42    -95.2715428 -0.856679E-03  0.141E-01    0.14       1.0  T
  43    -95.2720259 -0.483109E-03  0.102E-01    0.14       1.0  T
  44    -95.2725144 -0.488493E-03  0.736E-02    0.14       1.0  T
  45    -95.2727406 -0.226195E-03  0.566E-02    0.14       1.0  T
  46    -95.2728099 -0.693410E-04  0.545E-02    0.13       1.0  T
  47    -95.2729195 -0.109641E-03  0.277E-02    0.13       1.0  T
  48    -95.2729314 -0.118523E-04  0.215E-02    0.13       1.0  T
  49    -95.2729468 -0.154426E-04  0.113E-02    0.13       1.4  T
  50    -95.2729499 -0.309259E-05  0.824E-03    0.13       2.0  T
  51    -95.2729513 -0.140442E-05  0.710E-03    0.13       2.3  T
  52    -95.2729529 -0.152191E-05  0.254E-03    0.13       6.4  T
  53    -95.2729530 -0.118885E-06  0.167E-03    0.13       9.7  T
  54    -95.2729529  0.904814E-07  0.223E-03    0.13       7.3  T
  55    -95.2729530 -0.143439E-06  0.154E-03    0.13      10.5  T
  56    -95.2729531 -0.396347E-07  0.112E-03    0.13      14.5  T
  57    -95.2729531 -0.457418E-07  0.616E-04    0.13      26.3  T
  58    -95.2729531  0.120012E-08  0.585E-04    0.13      27.7  T

   *** convergence criteria satisfied after 58 iterations ***

         #    Occupation            Energy/Eh            Energy/eV
      -------------------------------------------------------------
         1        2.0000           -0.7808020             -21.2467
       ...           ...                  ...                  ...
        78        2.0000           -0.4610656             -12.5462
        79        2.0000           -0.4494972             -12.2314
        80        1.9999           -0.4473293             -12.1724
        81        1.9987           -0.4450577             -12.1106
        82        1.9571           -0.4417222             -12.0199
        83        1.9186           -0.4410940             -12.0028
        84        1.8999           -0.4408887             -11.9972 (HOMO)
        85        0.1897           -0.4359492             -11.8628 (LUMO)
        86        0.0358           -0.4342868             -11.8175
        87        0.0002           -0.4293009             -11.6819
        88        0.0001           -0.4288034             -11.6683
        89        0.0000           -0.4227675             -11.5041
       ...           ...                  ...                  ...
       152                          1.0291719              28.0052
      -------------------------------------------------------------
                  HL-Gap            0.0049395 Eh            0.1344 eV
             Fermi-level           -0.4380921 Eh          -11.9211 eV

 SCC (total)                   0 d,  0 h,  0 min,  1.056 sec
 SCC setup                      ...        0 min,  0.000 sec (  0.041%)
 Dispersion                     ...        0 min,  0.002 sec (  0.143%)
 classical contributions        ...        0 min,  0.001 sec (  0.056%)
 integral evaluation            ...        0 min,  0.008 sec (  0.716%)
 iterations                     ...        0 min,  1.018 sec ( 96.406%)
 molecular gradient             ...        0 min,  0.026 sec (  2.434%)
 printout                       ...        0 min,  0.002 sec (  0.199%)

         :::::::::::::::::::::::::::::::::::::::::::::::::::::
         ::                     SUMMARY                     ::
         :::::::::::::::::::::::::::::::::::::::::::::::::::::
         :: total energy             -94.228161974140 Eh    ::
         :: gradient norm              0.667637453797 Eh/a0 ::
         :: HOMO-LUMO gap              0.134411063943 eV    ::
         ::.................................................::
         :: SCC energy               -95.272953108441 Eh    ::
         :: -> isotropic ES            0.142800538705 Eh    ::
         :: -> anisotropic ES          0.000319705319 Eh    ::
         :: -> anisotropic XC          0.059955611568 Eh    ::
         :: -> dispersion             -0.051070898071 Eh    ::
         :: repulsion energy           1.044613575731 Eh    ::
         :: add. restraining           0.000000000000 Eh    ::
         :: total charge               0.000000000001 e     ::
         :::::::::::::::::::::::::::::::::::::::::::::::::::::

           -------------------------------------------------
          |                Property Printout                |
           -------------------------------------------------

    * Orbital Energies and Occupations

         #    Occupation            Energy/Eh            Energy/eV
      -------------------------------------------------------------
         1        2.0000           -0.7808020             -21.2467
       ...           ...                  ...                  ...
        72        2.0000           -0.4797455             -13.0545
        73        2.0000           -0.4737553             -12.8915
        74        2.0000           -0.4697390             -12.7822
        75        2.0000           -0.4670841             -12.7100
        76        2.0000           -0.4643604             -12.6359
        77        2.0000           -0.4619533             -12.5704
        78        2.0000           -0.4610656             -12.5462
        79        2.0000           -0.4494972             -12.2314
        80        1.9999           -0.4473293             -12.1724
        81        1.9987           -0.4450577             -12.1106
        82        1.9571           -0.4417222             -12.0199
        83        1.9186           -0.4410940             -12.0028
        84        1.8999           -0.4408887             -11.9972 (HOMO)
        85        0.1897           -0.4359492             -11.8628 (LUMO)
        86        0.0358           -0.4342868             -11.8175
        87        0.0002           -0.4293009             -11.6819
        88        0.0001           -0.4288034             -11.6683
        89        0.0000           -0.4227675             -11.5041
        90                         -0.4176144             -11.3639
        91                         -0.4152152             -11.2986
        92                         -0.3929346             -10.6923
        93                         -0.3868740             -10.5274
        94                         -0.3760958             -10.2341
        95                         -0.3626187              -9.8674
       ...                                ...                  ...
       152                          1.0291719              28.0052
      -------------------------------------------------------------
                  HL-Gap            0.0049395 Eh            0.1344 eV
             Fermi-level           -0.4380921 Eh          -11.9211 eV

     #   Z          covCN         q      C6AA      α(0)
     1   7 N        0.911    -0.138    23.991     7.084
     2   6 C        1.904     0.141    27.669     8.495
     3   6 C        2.948     0.030    27.328     8.574
     4   6 C        1.998     0.044    29.912     8.833
     5   6 C        2.951     0.090    25.990     8.362
     6   6 C        1.994    -0.047    32.305     9.179
     7   6 C        2.805     0.194    23.865     8.003
     8   8 O        0.850    -0.274    19.324     5.894
     9   6 C        2.820     0.257    22.684     7.804
    10   8 O        0.857    -0.223    18.439     5.757
    11   6 C        1.967    -0.047    32.333     9.183
    12   6 C        1.984    -0.003    31.126     9.010
    13   6 C        2.764     0.324    21.498     7.593
    14   8 O        0.858    -0.317    20.087     6.009
    15   7 N        1.826    -0.124    24.466     7.329
    16   6 C        1.892     0.074    29.253     8.735
    17   6 C        2.927     0.078    26.250     8.402
    18   6 C        1.955     0.012    30.767     8.958
    19   6 C        1.954    -0.013    31.417     9.052
    20   6 C        1.955     0.012    30.761     8.957
    21   6 C        2.926     0.078    26.261     8.404
    22   6 C        1.890     0.076    29.200     8.727
    23   7 N        1.823    -0.138    24.767     7.374
    24   6 C        2.760     0.317    21.621     7.615
    25   8 O        0.858    -0.346    20.635     6.090
    26   6 C        2.944     0.033    27.261     8.563
    27   6 C        1.903     0.137    27.765     8.510
    28   7 N        0.911    -0.140    24.043     7.092
    29   6 C        1.989     0.061    29.512     8.773
    30   6 C        2.966     0.091    25.985     8.361
    31   6 C        1.992    -0.013    31.386     9.047
    32   6 C        1.985    -0.012    31.383     9.047
    33   6 C        2.843     0.227    23.240     7.901
    34   8 O        0.854    -0.273    19.299     5.890
    35   6 C        2.843     0.221    23.351     7.919
    36   8 O        0.855    -0.265    19.157     5.868
    37   6 C        1.993    -0.051    32.421     9.195
    38   6 C        1.956    -0.074    33.077     9.288

 Mol. C6AA /au·bohr⁶  :      37563.758267
 Mol. C8AA /au·bohr⁸  :    1011446.095587
 Mol. α(0) /au        :        304.877096


Wiberg/Mayer (AO) data.
largest (>0.10) Wiberg bond orders for each atom

 ---------------------------------------------------------------------------
     #   Z sym  total        # sym  WBO       # sym  WBO       # sym  WBO
 ---------------------------------------------------------------------------
     1   7 N    3.085 --     2 C    2.793     4 C    0.155
     2   6 C    3.939 --     1 N    2.793     3 C    1.051
     3   6 C    3.960 --     4 C    1.776     2 C    1.051    13 C    0.926
     4   6 C    3.804 --     3 C    1.776     5 C    1.206    11 C    0.214
                            12 C    0.180     1 N    0.155
     5   6 C    3.961 --     6 C    1.537     4 C    1.206    12 C    1.026
     6   6 C    3.528 --     5 C    1.537     7 C    1.161    12 C    0.264
                            11 C    0.245
     7   6 C    3.861 --     8 O    1.668     6 C    1.161     9 C    0.873
     8   8 O    2.065 --     7 C    1.668
     9   6 C    3.909 --    10 O    1.846    11 C    1.028     7 C    0.873
    10   8 O    2.227 --     9 C    1.846    12 C    0.149
    11   6 C    3.696 --    12 C    2.007     9 C    1.028     6 C    0.245
                             4 C    0.214
    12   6 C    3.833 --    11 C    2.007     5 C    1.026     6 C    0.264
                             4 C    0.180    10 O    0.149
    13   6 C    3.920 --    14 O    1.740    15 N    1.143     3 C    0.926
    14   8 O    2.081 --    13 C    1.740
    15   7 N    3.252 --    16 C    1.680    13 C    1.143
    16   6 C    3.461 --    15 N    1.680    17 C    1.268
    17   6 C    3.856 --    16 C    1.268    18 C    1.191    38 C    1.159
    18   6 C    3.587 --    19 C    1.594    17 C    1.191    20 C    0.426
                            38 C    0.124
    19   6 C    3.614 --    18 C    1.594    20 C    1.579    38 C    0.260
    20   6 C    3.572 --    19 C    1.579    21 C    1.172    18 C    0.426
                            38 C    0.129
    21   6 C    3.841 --    22 C    1.250    38 C    1.180    20 C    1.172
    22   6 C    3.491 --    23 N    1.692    21 C    1.250
    23   7 N    3.192 --    22 C    1.692    24 C    1.160
    24   6 C    3.916 --    25 O    1.695    23 N    1.160    26 C    0.943
Note: The following floating-point exceptions are signalling: IEEE_UNDERFLOW_FLAG IEEE_DENORMAL
normal termination of xtb
    25   8 O    2.085 --    24 C    1.695
    26   6 C    3.957 --    29 C    1.762    27 C    1.052    24 C    0.943
    27   6 C    3.938 --    28 N    2.793    26 C    1.052
    28   7 N    3.082 --    27 C    2.793    29 C    0.152
    29   6 C    3.746 --    26 C    1.762    30 C    1.217    32 C    0.258
                            28 N    0.152    31 C    0.131
    30   6 C    3.961 --    37 C    1.406    29 C    1.217    31 C    1.135
    31   6 C    3.773 --    32 C    1.735    30 C    1.135    37 C    0.370
                            34 O    0.192    29 C    0.131
    32   6 C    3.777 --    31 C    1.735    33 C    1.227    37 C    0.275
                            29 C    0.258    36 O    0.113
    33   6 C    3.940 --    34 O    1.592    32 C    1.227    35 C    0.972
    34   8 O    2.078 --    33 C    1.592    31 C    0.192    36 O    0.146
    35   6 C    3.938 --    36 O    1.569    37 C    1.260    33 C    0.972
    36   8 O    2.054 --    35 C    1.569    34 O    0.146    32 C    0.113
    37   6 C    3.579 --    30 C    1.406    35 C    1.260    31 C    0.370
                            32 C    0.275
    38   6 C    3.220 --    21 C    1.180    17 C    1.159    19 C    0.260
                            20 C    0.129    18 C    0.124
 ---------------------------------------------------------------------------

Topologies differ in total number of bonds
Writing topology from bond orders to xtbtopo.mol

molecular dipole:
                 x           y           z       tot (Debye)
 q only:        3.059      -1.848       0.646
   full:        3.481      -1.763       0.755      10.101
molecular quadrupole (traceless):
                xx          xy          yy          xz          yz          zz
 q only:      -17.227      18.929      -5.944       3.668       4.960      23.171
  q+dip:      -12.688      13.537       3.371       4.202       4.756       9.317
   full:      -11.470      17.711       3.664       2.108       4.381       7.806


           -------------------------------------------------
          | TOTAL ENERGY              -94.228161974140 Eh   |
          | GRADIENT NORM               0.667637453797 Eh/α |
          | HOMO-LUMO GAP               0.134411063943 eV   |
           -------------------------------------------------

------------------------------------------------------------------------
 * finished run on 2026/07/23 at 16:38:37.274     
------------------------------------------------------------------------
 total:
 * wall-time:     0 d,  0 h,  0 min,  1.074 sec
 *  cpu-time:     0 d,  0 h,  0 min,  1.037 sec
 * ratio c/w:     0.966 speedup
 SCF:
 * wall-time:     0 d,  0 h,  0 min,  1.056 sec
 *  cpu-time:     0 d,  0 h,  0 min,  1.016 sec
 * ratio c/w:     0.962 speedup

