      -----------------------------------------------------------      
     |                   =====================                   |     
     |                           x T B                           |     
     |                   =====================                   |     
     |                         S. Grimme                         |     
     |          Mulliken Center for Theoretical Chemistry        |     
     |                    University of Bonn                     |     
      -----------------------------------------------------------      

   * xtb version 6.6.1 (unknown) compiled by 'builduser@buildhost' on 2023-08-07

   xtb is free software: you can redistribute it and/or modify it under
   the terms of the GNU Lesser General Public License as published by
   the Free Software Foundation, either version 3 of the License, or
   (at your option) any later version.
   
   xtb is distributed in the hope that it will be useful,
   but WITHOUT ANY WARRANTY; without even the implied warranty of
   MERCHANTABILITY or FITNESS FOR A PARTICULAR PURPOSE.  See the
   GNU Lesser General Public License for more details.
   
   Cite this work as:
   * C. Bannwarth, E. Caldeweyher, S. Ehlert, A. Hansen, P. Pracht,
     J. Seibert, S. Spicher, S. Grimme, WIREs Comput. Mol. Sci., 2020, 11,
     e01493. DOI: 10.1002/wcms.1493
   
   for GFN2-xTB:
   * C. Bannwarth, S. Ehlert and S. Grimme., J. Chem. Theory Comput., 2019,
     15, 1652-1671. DOI: 10.1021/acs.jctc.8b01176
   for GFN1-xTB:
   * S. Grimme, C. Bannwarth, P. Shushkov, J. Chem. Theory Comput., 2017,
     13, 1989-2009. DOI: 10.1021/acs.jctc.7b00118
   for GFN0-xTB:
   * P. Pracht, E. Caldeweyher, S. Ehlert, S. Grimme, ChemRxiv, 2019, preprint.
     DOI: 10.26434/chemrxiv.8326202.v1
   for GFN-FF:
   * S. Spicher and S. Grimme, Angew. Chem. Int. Ed., 2020, 59, 15665-15673.
     DOI: 10.1002/anie.202004239
   
   for ALPB and GBSA implicit solvation:
   * S. Ehlert, M. Stahn, S. Spicher, S. Grimme, J. Chem. Theory Comput.,
     2021, 17, 4250-4261. DOI: 10.1021/acs.jctc.1c00471
   
   for DFT-D4:
   * E. Caldeweyher, C. Bannwarth and S. Grimme, J. Chem. Phys., 2017,
     147, 034112. DOI: 10.1063/1.4993215
   * E. Caldeweyher, S. Ehlert, A. Hansen, H. Neugebauer, S. Spicher,
     C. Bannwarth and S. Grimme, J. Chem. Phys., 2019, 150, 154122.
     DOI: 10.1063/1.5090222
   * E. Caldeweyher, J.-M. Mewes, S. Ehlert and S. Grimme, Phys. Chem. Chem. Phys.
     2020, 22, 8499-8512. DOI: 10.1039/D0CP00502A
   
   for sTDA-xTB:
   * S. Grimme and C. Bannwarth, J. Chem. Phys., 2016, 145, 054103.
     DOI: 10.1063/1.4959605
   
   in the mass-spec context:
   * V. Asgeirsson, C. Bauer and S. Grimme, Chem. Sci., 2017, 8, 4879.
     DOI: 10.1039/c7sc00601b
   * J. Koopman and S. Grimme, ACS Omega 2019, 4, 12, 15120-15133.
     DOI: 10.1021/acsomega.9b02011
   
   for metadynamics refer to:
   * S. Grimme, J. Chem. Theory Comput., 2019, 155, 2847-2862
     DOI: 10.1021/acs.jctc.9b00143
   
   for SPH calculations refer to:
   * S. Spicher and S. Grimme, J. Chem. Theory Comput., 2021, 17, 1701-1714
     DOI: 10.1021/acs.jctc.0c01306
   
   with help from (in alphabetical order)
   P. Atkinson, C. Bannwarth, F. Bohle, G. Brandenburg, E. Caldeweyher
   M. Checinski, S. Dohm, S. Ehlert, S. Ehrlich, I. Gerasimov, C. Hölzer
   A. Katbashev, J. Koopman, C. Lavigne, S. Lehtola, F. März, M. Müller,
   F. Musil, H. Neugebauer, J. Pisarek, C. Plett, P. Pracht, F. Pultar,
   J. Seibert, P. Shushkov, S. Spicher, M. Stahn, M. Steiner, T. Strunk,
   J. Stückrath, T. Rose, and J. Unsleber
   
 * started run on 2026/07/23 at 16:39:35.942     

           -------------------------------------------------
          |                Calculation Setup                |
           -------------------------------------------------

          program call               : xtb /home/selva/covalent_quantum_benchmark/data/quantum/erbB_xyz/EGFR__CHEMBL95774__state01.xyz --gfn2 --chrg 0 --uhf 0 --iterations 300
          coordinate file            : /home/selva/covalent_quantum_benchmark/data/quantum/erbB_xyz/EGFR__CHEMBL95774__state01.xyz
          omp threads                :                    24

   ID    Z sym.   atoms
    1    6 C      1-3, 6-9, 11-14, 16, 18-20, 22, 24-26, 28-30, 32, 33, 35, 36
    2    8 O      4, 27, 34
    3    7 N      5, 10, 21, 23, 31
    4    9 F      15
    5   17 Cl     17

           -------------------------------------------------
          |                 G F N 2 - x T B                 |
           -------------------------------------------------

        Reference                      10.1021/acs.jctc.8b01176
      * Hamiltonian:
        H0-scaling (s, p, d)           1.850000    2.230000    2.230000
        zeta-weighting                 0.500000
      * Dispersion:
        s8                             2.700000
        a1                             0.520000
        a2                             5.000000
        s9                             5.000000
      * Repulsion:
        kExp                           1.500000    1.000000
        rExp                           1.000000
      * Coulomb:
        alpha                          2.000000
        third order                    shell-resolved
        anisotropic                    true
        a3                             3.000000
        a5                             4.000000
        cn-shift                       1.200000
        cn-exp                         4.000000
        max-rad                        5.000000


          ...................................................
          :                      SETUP                      :
          :.................................................:
          :  # basis functions                 150          :
          :  # atomic orbitals                 149          :
          :  # shells                           73          :
          :  # electrons                       161          :
          :  max. iterations                   300          :
          :  Hamiltonian                  GFN2-xTB          :
          :  restarted?                      false          :
          :  GBSA solvation                  false          :
          :  PC potential                    false          :
          :  electronic temp.          300.0000000     K    :
          :  accuracy                    1.0000000          :
          :  -> integral cutoff          0.2500000E+02      :
          :  -> integral neglect         0.1000000E-07      :
          :  -> SCF convergence          0.1000000E-05 Eh   :
          :  -> wf. convergence          0.1000000E-03 e    :
          :  Broyden damping             0.4000000          :
          ...................................................

 iter      E             dE          RMSdq      gap      omega  full diag
   1    -90.4287300 -0.904287E+02  0.792E+00    0.34       0.0  T
   2    -76.9498554  0.134789E+02  0.101E+01    0.16       1.0  T
   3    -64.9656153  0.119842E+02  0.127E+01    0.25       1.0  T
   4    -58.4125329  0.655308E+01  0.130E+01    0.20       1.0  T
   5    -83.4411667 -0.250286E+02  0.772E+00    0.27       1.0  T
   6    -88.3160646 -0.487490E+01  0.517E+00    0.06       1.0  T
   7    -87.5438232  0.772241E+00  0.555E+00    0.07       1.0  T
   8    -87.6905869 -0.146764E+00  0.520E+00    0.21       1.0  T
   9    -89.9059168 -0.221533E+01  0.345E+00    0.14       1.0  T
  10    -90.6039549 -0.698038E+00  0.298E+00    0.19       1.0  T
  11    -90.8971604 -0.293205E+00  0.201E+00    0.10       1.0  T
  12    -90.6781431  0.219017E+00  0.245E+00    0.07       1.0  T
  13    -90.6598870  0.182561E-01  0.235E+00    0.06       1.0  T
  14    -90.7913796 -0.131493E+00  0.197E+00    0.11       1.0  T
  15    -90.5915812  0.199798E+00  0.242E+00    0.11       1.0  T
  16    -90.9290325 -0.337451E+00  0.141E+00    0.15       1.0  T
  17    -90.8133051  0.115727E+00  0.174E+00    0.04       1.0  T
  18    -90.9132532 -0.999480E-01  0.143E+00    0.02       1.0  T
  19    -91.0342341 -0.120981E+00  0.754E-01    0.07       1.0  T
  20    -91.0590304 -0.247963E-01  0.455E-01    0.11       1.0  T
  21    -90.9649017  0.941287E-01  0.107E+00    0.03       1.0  T
  22    -90.9549907  0.991105E-02  0.107E+00    0.03       1.0  T
  23    -91.0649261 -0.109935E+00  0.240E-01    0.11       1.0  T
  24    -91.0681483 -0.322223E-02  0.143E-01    0.10       1.0  T
  25    -91.0677542  0.394132E-03  0.124E-01    0.11       1.0  T
  26    -91.0687753 -0.102112E-02  0.926E-02    0.10       1.0  T
  27    -91.0685096  0.265709E-03  0.999E-02    0.11       1.0  T
  28    -91.0679896  0.519994E-03  0.123E-01    0.11       1.0  T
  29    -91.0686533 -0.663635E-03  0.907E-02    0.11       1.0  T
  30    -91.0690584 -0.405147E-03  0.588E-02    0.10       1.0  T
  31    -91.0691721 -0.113747E-03  0.424E-02    0.10       1.0  T
  32    -91.0692599 -0.877311E-04  0.298E-02    0.10       1.0  T
  33    -91.0692484  0.115025E-04  0.296E-02    0.10       1.0  T
  34    -91.0693065 -0.581652E-04  0.107E-02    0.10       1.6  T
  35    -91.0693097 -0.313048E-05  0.874E-03    0.10       1.9  T
  36    -91.0693085  0.121053E-05  0.893E-03    0.10       1.9  T
  37    -91.0693121 -0.368717E-05  0.603E-03    0.10       2.8  T
  38    -91.0693142 -0.209642E-05  0.375E-03    0.10       4.4  T
  39    -91.0693148 -0.536247E-06  0.230E-03    0.10       7.2  T
  40    -91.0693147  0.445360E-07  0.219E-03    0.10       7.6  T
  41    -91.0693143  0.422982E-06  0.277E-03    0.10       6.0  T
  42    -91.0693146 -0.318049E-06  0.206E-03    0.10       8.1  T
  43    -91.0693147 -0.874915E-07  0.181E-03    0.10       9.2  T
  44    -91.0693149 -0.229213E-06  0.796E-04    0.10      20.9  T
  45    -91.0693150 -0.350809E-07  0.451E-04    0.10      36.9  T

   *** convergence criteria satisfied after 45 iterations ***

         #    Occupation            Energy/Eh            Energy/eV
      -------------------------------------------------------------
         1        2.0000           -1.0872559             -29.5857
       ...           ...                  ...                  ...
        75        1.9999           -0.4344653             -11.8224
        76        1.9999           -0.4337368             -11.8026
        77        1.9998           -0.4333360             -11.7917
        78        1.9952           -0.4303542             -11.7105
        79        1.9864           -0.4293660             -11.6836
        80        1.7251           -0.4262500             -11.5989
        81        1.1517           -0.4242967             -11.5457 (HOMO)
        82        0.1397           -0.4205903             -11.4448 (LUMO)
        83        0.0023           -0.4165665             -11.3354
        84        0.0000           -0.4110986             -11.1866
        85                         -0.3903917             -10.6231
        86                         -0.3858027             -10.4982
       ...                                ...                  ...
       149                          1.0420673              28.3561
      -------------------------------------------------------------
                  HL-Gap            0.0037064 Eh            0.1009 eV
             Fermi-level           -0.4238121 Eh          -11.5325 eV

 SCC (total)                   0 d,  0 h,  0 min,  0.589 sec
 SCC setup                      ...        0 min,  0.000 sec (  0.063%)
 Dispersion                     ...        0 min,  0.001 sec (  0.187%)
 classical contributions        ...        0 min,  0.001 sec (  0.094%)
 integral evaluation            ...        0 min,  0.005 sec (  0.883%)
 iterations                     ...        0 min,  0.557 sec ( 94.485%)
 molecular gradient             ...        0 min,  0.019 sec (  3.149%)
 printout                       ...        0 min,  0.007 sec (  1.133%)

         :::::::::::::::::::::::::::::::::::::::::::::::::::::
         ::                     SUMMARY                     ::
         :::::::::::::::::::::::::::::::::::::::::::::::::::::
         :: total energy             -90.148486424100 Eh    ::
         :: gradient norm              0.515280674386 Eh/a0 ::
         :: HOMO-LUMO gap              0.100855259805 eV    ::
         ::.................................................::
         :: SCC energy               -91.069314983805 Eh    ::
         :: -> isotropic ES            0.048685854072 Eh    ::
         :: -> anisotropic ES          0.009715008813 Eh    ::
         :: -> anisotropic XC          0.048408341200 Eh    ::
         :: -> dispersion             -0.053000521611 Eh    ::
         :: repulsion energy           0.921139988841 Eh    ::
         :: add. restraining           0.000000000000 Eh    ::
         :: total charge               0.000000000094 e     ::
         :::::::::::::::::::::::::::::::::::::::::::::::::::::

           -------------------------------------------------
          |                Property Printout                |
           -------------------------------------------------

    * Orbital Energies and Occupations

         #    Occupation            Energy/Eh            Energy/eV
      -------------------------------------------------------------
         1        2.0000           -1.0872559             -29.5857
       ...           ...                  ...                  ...
        69        2.0000           -0.4583832             -12.4732
        70        2.0000           -0.4522708             -12.3069
        71        2.0000           -0.4507014             -12.2642
        72        2.0000           -0.4441002             -12.0846
        73        2.0000           -0.4367426             -11.8844
        74        2.0000           -0.4355524             -11.8520
        75        1.9999           -0.4344653             -11.8224
        76        1.9999           -0.4337368             -11.8026
        77        1.9998           -0.4333360             -11.7917
        78        1.9952           -0.4303542             -11.7105
        79        1.9864           -0.4293660             -11.6836
        80        1.7251           -0.4262500             -11.5989
        81        1.1517           -0.4242967             -11.5457 (HOMO)
        82        0.1397           -0.4205903             -11.4448 (LUMO)
        83        0.0023           -0.4165665             -11.3354
        84        0.0000           -0.4110986             -11.1866
        85                         -0.3903917             -10.6231
        86                         -0.3858027             -10.4982
        87                         -0.3756778             -10.2227
        88                         -0.3627398              -9.8707
        89                         -0.3544539              -9.6452
        90                         -0.3515921              -9.5673
        91                         -0.3353992              -9.1267
        92                         -0.3275117              -8.9120
       ...                                ...                  ...
       149                          1.0420673              28.3561
      -------------------------------------------------------------
                  HL-Gap            0.0037064 Eh            0.1009 eV
             Fermi-level           -0.4238121 Eh          -11.5325 eV

     #   Z          covCN         q      C6AA      α(0)
     1   6 C        0.984    -0.055    37.646    10.307
     2   6 C        1.966     0.013    30.733     8.953
     3   6 C        2.750     0.335    21.306     7.558
     4   8 O        0.858    -0.306    19.891     5.980
     5   7 N        1.833    -0.221    26.665     7.652
     6   6 C        2.894     0.124    25.283     8.244
     7   6 C        1.989    -0.035    31.974     9.132
     8   6 C        2.972     0.014    27.708     8.634
     9   6 C        2.898     0.130    25.148     8.222
    10   7 N        1.837    -0.086    23.670     7.210
    11   6 C        2.916     0.119    25.382     8.262
    12   6 C        1.993    -0.046    32.267     9.174
    13   6 C        1.987    -0.017    31.491     9.062
    14   6 C        2.806     0.186    24.015     8.029
    15   9 F        0.787    -0.161    10.836     3.888
    16   6 C        2.878     0.091    25.979     8.356
    17  17 Cl       0.962    -0.063   101.123    15.385
    18   6 C        2.030    -0.081    33.229     9.310
    19   6 C        2.944     0.019    27.574     8.612
    20   6 C        1.914     0.120    28.140     8.567
    21   7 N        0.911    -0.187    25.059     7.240
    22   6 C        1.938     0.087    28.915     8.684
    23   7 N        1.832    -0.126    24.503     7.335
    24   6 C        2.912     0.123    25.308     8.249
    25   6 C        1.988    -0.076    33.110     9.293
    26   6 C        2.895     0.163    24.478     8.112
    27   8 O        1.701    -0.129    16.250     5.443
    28   6 C        1.871     0.036    30.217     8.879
    29   6 C        1.949     0.008    30.876     8.973
    30   6 C        1.898    -0.013    31.470     9.060
    31   7 N        2.719     0.094    19.626     6.580
    32   6 C        1.907    -0.020    31.634     9.083
    33   6 C        1.850     0.040    30.115     8.865
    34   8 O        1.696    -0.091    15.714     5.352
    35   6 C        1.850     0.035    30.251     8.885
    36   6 C        1.903    -0.025    31.767     9.103

 Mol. C6AA /au·bohr⁶  :      36012.888634
 Mol. C8AA /au·bohr⁸  :     999977.711477
 Mol. α(0) /au        :        299.670521


Wiberg/Mayer (AO) data.
largest (>0.10) Wiberg bond orders for each atom

 ---------------------------------------------------------------------------
     #   Z sym  total        # sym  WBO       # sym  WBO       # sym  WBO
 ---------------------------------------------------------------------------
     1   6 C    3.033 --     2 C    2.561     4 O    0.201     5 N    0.109
     2   6 C    3.664 --     1 C    2.561     3 C    0.936
     3   6 C    3.917 --     4 O    1.663     5 N    1.192     2 C    0.936
     4   8 O    2.128 --     3 C    1.663     1 C    0.201     5 N    0.115
     5   7 N    2.972 --     6 C    1.297     3 C    1.192     4 O    0.115
                             1 C    0.109
     6   6 C    3.937 --     7 C    1.343     5 N    1.297    26 C    1.088
     7   6 C    3.756 --     8 C    1.517     6 C    1.343    25 C    0.473
     8   6 C    3.938 --     7 C    1.517    24 C    1.123     9 C    1.050
     9   6 C    3.941 --    10 N    1.676     8 C    1.050    19 C    0.964
    10   7 N    3.365 --     9 C    1.676    11 C    1.113    22 C    0.206
    11   6 C    3.938 --    18 C    1.330    12 C    1.283    10 N    1.113
    12   6 C    3.690 --    13 C    1.698    11 C    1.283    18 C    0.362
                            16 C    0.109
    13   6 C    3.448 --    12 C    1.698    14 C    1.377    18 C    0.187
    14   6 C    3.830 --    13 C    1.377    16 C    1.267    15 F    0.998
    15   9 F    1.154 --    14 C    0.998
    16   6 C    3.898 --    18 C    1.436    14 C    1.267    17 Cl   1.006
                            12 C    0.109
    17  17 Cl   1.195 --    16 C    1.006
    18   6 C    3.511 --    16 C    1.436    11 C    1.330    12 C    0.362
                            13 C    0.187
    19   6 C    3.877 --    22 C    1.582    20 C    1.104     9 C    0.964
    20   6 C    3.946 --    21 N    2.779    19 C    1.104
    21   7 N    2.976 --    20 C    2.779
    22   6 C    3.771 --    23 N    1.597    19 C    1.582    10 N    0.206
    23   7 N    3.156 --    22 C    1.597    24 C    1.218
    24   6 C    3.872 --    25 C    1.333    23 N    1.218     8 C    1.123
    25   6 C    3.688 --    26 C    1.559    24 C    1.333     7 C    0.473
    26   6 C    3.905 --    25 C    1.559     6 C    1.088    27 O    1.017
    27   8 O    2.451 --    28 C    1.194    26 C    1.017
    28   6 C    3.044 --    29 C    1.381    27 O    1.194    30 C    0.241
    29   6 C    3.618 --    30 C    1.740    28 C    1.381    32 C    0.105
    30   6 C    3.466 --    29 C    1.740    31 N    1.183    28 C    0.241
    31   7 N    3.591 --    30 C    1.183    32 C    1.071    36 C    1.068
    32   6 C    3.377 --    33 C    1.506    31 N    1.071    35 C    0.327
                            36 C    0.175    29 C    0.105
    33   6 C    3.333 --    32 C    1.506    34 O    1.128    36 C    0.330
                            35 C    0.194
    34   8 O    2.548 --    33 C    1.128    35 C    1.125
    35   6 C    3.358 --    36 C    1.487    34 O    1.125    32 C    0.327
                            33 C    0.194
Note: The following floating-point exceptions are signalling: IEEE_UNDERFLOW_FLAG IEEE_DENORMAL
normal termination of xtb
    36   6 C    3.375 --    35 C    1.487    31 N    1.068    33 C    0.330
                            32 C    0.175
 ---------------------------------------------------------------------------

Topologies differ in total number of bonds
Writing topology from bond orders to xtbtopo.mol

molecular dipole:
                 x           y           z       tot (Debye)
 q only:        0.148      -1.224      -0.454
   full:        0.023      -0.922       0.009       2.346
molecular quadrupole (traceless):
                xx          xy          yy          xz          yz          zz
 q only:        1.185      -8.665      -6.417     -15.291      -5.410       5.232
  q+dip:       -4.775      -1.596      -5.472     -11.794      -1.172      10.248
   full:       -6.702      -5.337      -7.409     -17.535      -2.848      14.111


           -------------------------------------------------
          | TOTAL ENERGY              -90.148486424100 Eh   |
          | GRADIENT NORM               0.515280674386 Eh/α |
          | HOMO-LUMO GAP               0.100855259805 eV   |
           -------------------------------------------------

------------------------------------------------------------------------
 * finished run on 2026/07/23 at 16:39:36.553     
------------------------------------------------------------------------
 total:
 * wall-time:     0 d,  0 h,  0 min,  0.611 sec
 *  cpu-time:     0 d,  0 h,  0 min,  0.569 sec
 * ratio c/w:     0.932 speedup
 SCF:
 * wall-time:     0 d,  0 h,  0 min,  0.590 sec
 *  cpu-time:     0 d,  0 h,  0 min,  0.551 sec
 * ratio c/w:     0.935 speedup

