      -----------------------------------------------------------      
     |                   =====================                   |     
     |                           x T B                           |     
     |                   =====================                   |     
     |                         S. Grimme                         |     
     |          Mulliken Center for Theoretical Chemistry        |     
     |                    University of Bonn                     |     
      -----------------------------------------------------------      

   * xtb version 6.6.1 (unknown) compiled by 'builduser@buildhost' on 2023-08-07

   xtb is free software: you can redistribute it and/or modify it under
   the terms of the GNU Lesser General Public License as published by
   the Free Software Foundation, either version 3 of the License, or
   (at your option) any later version.
   
   xtb is distributed in the hope that it will be useful,
   but WITHOUT ANY WARRANTY; without even the implied warranty of
   MERCHANTABILITY or FITNESS FOR A PARTICULAR PURPOSE.  See the
   GNU Lesser General Public License for more details.
   
   Cite this work as:
   * C. Bannwarth, E. Caldeweyher, S. Ehlert, A. Hansen, P. Pracht,
     J. Seibert, S. Spicher, S. Grimme, WIREs Comput. Mol. Sci., 2020, 11,
     e01493. DOI: 10.1002/wcms.1493
   
   for GFN2-xTB:
   * C. Bannwarth, S. Ehlert and S. Grimme., J. Chem. Theory Comput., 2019,
     15, 1652-1671. DOI: 10.1021/acs.jctc.8b01176
   for GFN1-xTB:
   * S. Grimme, C. Bannwarth, P. Shushkov, J. Chem. Theory Comput., 2017,
     13, 1989-2009. DOI: 10.1021/acs.jctc.7b00118
   for GFN0-xTB:
   * P. Pracht, E. Caldeweyher, S. Ehlert, S. Grimme, ChemRxiv, 2019, preprint.
     DOI: 10.26434/chemrxiv.8326202.v1
   for GFN-FF:
   * S. Spicher and S. Grimme, Angew. Chem. Int. Ed., 2020, 59, 15665-15673.
     DOI: 10.1002/anie.202004239
   
   for ALPB and GBSA implicit solvation:
   * S. Ehlert, M. Stahn, S. Spicher, S. Grimme, J. Chem. Theory Comput.,
     2021, 17, 4250-4261. DOI: 10.1021/acs.jctc.1c00471
   
   for DFT-D4:
   * E. Caldeweyher, C. Bannwarth and S. Grimme, J. Chem. Phys., 2017,
     147, 034112. DOI: 10.1063/1.4993215
   * E. Caldeweyher, S. Ehlert, A. Hansen, H. Neugebauer, S. Spicher,
     C. Bannwarth and S. Grimme, J. Chem. Phys., 2019, 150, 154122.
     DOI: 10.1063/1.5090222
   * E. Caldeweyher, J.-M. Mewes, S. Ehlert and S. Grimme, Phys. Chem. Chem. Phys.
     2020, 22, 8499-8512. DOI: 10.1039/D0CP00502A
   
   for sTDA-xTB:
   * S. Grimme and C. Bannwarth, J. Chem. Phys., 2016, 145, 054103.
     DOI: 10.1063/1.4959605
   
   in the mass-spec context:
   * V. Asgeirsson, C. Bauer and S. Grimme, Chem. Sci., 2017, 8, 4879.
     DOI: 10.1039/c7sc00601b
   * J. Koopman and S. Grimme, ACS Omega 2019, 4, 12, 15120-15133.
     DOI: 10.1021/acsomega.9b02011
   
   for metadynamics refer to:
   * S. Grimme, J. Chem. Theory Comput., 2019, 155, 2847-2862
     DOI: 10.1021/acs.jctc.9b00143
   
   for SPH calculations refer to:
   * S. Spicher and S. Grimme, J. Chem. Theory Comput., 2021, 17, 1701-1714
     DOI: 10.1021/acs.jctc.0c01306
   
   with help from (in alphabetical order)
   P. Atkinson, C. Bannwarth, F. Bohle, G. Brandenburg, E. Caldeweyher
   M. Checinski, S. Dohm, S. Ehlert, S. Ehrlich, I. Gerasimov, C. Hölzer
   A. Katbashev, J. Koopman, C. Lavigne, S. Lehtola, F. März, M. Müller,
   F. Musil, H. Neugebauer, J. Pisarek, C. Plett, P. Pracht, F. Pultar,
   J. Seibert, P. Shushkov, S. Spicher, M. Stahn, M. Steiner, T. Strunk,
   J. Stückrath, T. Rose, and J. Unsleber
   
 * started run on 2026/07/23 at 16:40:50.051     

           -------------------------------------------------
          |                Calculation Setup                |
           -------------------------------------------------

          program call               : xtb /home/selva/covalent_quantum_benchmark/data/quantum/erbB_xyz/ERBB2__CHEMBL179310__state01.xyz --gfn2 --chrg 0 --uhf 0 --iterations 300
          coordinate file            : /home/selva/covalent_quantum_benchmark/data/quantum/erbB_xyz/ERBB2__CHEMBL179310__state01.xyz
          omp threads                :                    24

   ID    Z sym.   atoms
    1    6 C      1, 2, 4-6, 8-10, 12, 14-21, 23-32, 34, 36-38, 40, 41
    2    8 O      3, 35
    3    7 N      7, 11, 13, 22, 33, 39

           -------------------------------------------------
          |                 G F N 2 - x T B                 |
           -------------------------------------------------

        Reference                      10.1021/acs.jctc.8b01176
      * Hamiltonian:
        H0-scaling (s, p, d)           1.850000    2.230000    2.230000
        zeta-weighting                 0.500000
      * Dispersion:
        s8                             2.700000
        a1                             0.520000
        a2                             5.000000
        s9                             5.000000
      * Repulsion:
        kExp                           1.500000    1.000000
        rExp                           1.000000
      * Coulomb:
        alpha                          2.000000
        third order                    shell-resolved
        anisotropic                    true
        a3                             3.000000
        a5                             4.000000
        cn-shift                       1.200000
        cn-exp                         4.000000
        max-rad                        5.000000


          ...................................................
          :                      SETUP                      :
          :.................................................:
          :  # basis functions                 164          :
          :  # atomic orbitals                 164          :
          :  # shells                           82          :
          :  # electrons                       174          :
          :  max. iterations                   300          :
          :  Hamiltonian                  GFN2-xTB          :
          :  restarted?                      false          :
          :  GBSA solvation                  false          :
          :  PC potential                    false          :
          :  electronic temp.          300.0000000     K    :
          :  accuracy                    1.0000000          :
          :  -> integral cutoff          0.2500000E+02      :
          :  -> integral neglect         0.1000000E-07      :
          :  -> SCF convergence          0.1000000E-05 Eh   :
          :  -> wf. convergence          0.1000000E-03 e    :
          :  Broyden damping             0.4000000          :
          ...................................................

 iter      E             dE          RMSdq      gap      omega  full diag
   1    -93.3703179 -0.933703E+02  0.907E+00    0.07       0.0  T
   2    -65.8206641  0.275497E+02  0.138E+01    0.15       1.0  T
   3    -60.9516891  0.486897E+01  0.129E+01    0.12       1.0  T
   4    -70.3348402 -0.938315E+01  0.118E+01    0.32       1.0  T
   5    -83.9122424 -0.135774E+02  0.943E+00    0.19       1.0  T
   6    -89.1320835 -0.521984E+01  0.750E+00    0.11       1.0  T
   7    -92.2113917 -0.307931E+01  0.560E+00    0.20       1.0  T
   8    -93.2308443 -0.101945E+01  0.496E+00    0.13       1.0  T
   9    -92.1807801  0.105006E+01  0.472E+00    0.01       1.0  T
  10    -94.2479764 -0.206720E+01  0.351E+00    0.11       1.0  T
  11    -94.5247235 -0.276747E+00  0.348E+00    0.08       1.0  T
  12    -94.4974605  0.272630E-01  0.302E+00    0.07       1.0  T
  13    -94.8551542 -0.357694E+00  0.262E+00    0.02       1.0  T
  14    -94.7684875  0.866667E-01  0.288E+00    0.05       1.0  T
  15    -94.5703336  0.198154E+00  0.299E+00    0.09       1.0  T
  16    -94.5839116 -0.135779E-01  0.276E+00    0.04       1.0  T
  17    -94.1929256  0.390986E+00  0.304E+00    0.04       1.0  T
  18    -94.8232331 -0.630308E+00  0.214E+00    0.08       1.0  T
  19    -94.9501899 -0.126957E+00  0.171E+00    0.06       1.0  T
  20    -93.7245619  0.122563E+01  0.364E+00    0.02       1.0  T
  21    -94.7285856 -0.100402E+01  0.213E+00    0.02       1.0  T
  22    -94.6979155  0.306701E-01  0.225E+00    0.01       1.0  T
  23    -94.7785994 -0.806839E-01  0.206E+00    0.01       1.0  T
  24    -94.8731791 -0.945797E-01  0.190E+00    0.01       1.0  T
  25    -94.4817540  0.391425E+00  0.229E+00    0.01       1.0  T
  26    -94.8438667 -0.362113E+00  0.164E+00    0.01       1.0  T
  27    -95.0938921 -0.250025E+00  0.993E-01    0.02       1.0  T
  28    -95.1890775 -0.951853E-01  0.646E-01    0.01       1.0  T
  29    -95.2093806 -0.203031E-01  0.473E-01    0.03       1.0  T
  30    -95.2054677  0.391285E-02  0.422E-01    0.01       1.0  T
  31    -95.2110313 -0.556355E-02  0.301E-01    0.02       1.0  T
  32    -95.2125205 -0.148920E-02  0.268E-01    0.02       1.0  T
  33    -95.2035434  0.897713E-02  0.387E-01    0.03       1.0  T
  34    -95.2037899 -0.246506E-03  0.383E-01    0.03       1.0  T
  35    -95.2067351 -0.294528E-02  0.335E-01    0.03       1.0  T
  36    -95.2111415 -0.440635E-02  0.245E-01    0.03       1.0  T
  37    -95.2135325 -0.239101E-02  0.160E-01    0.02       1.0  T
  38    -95.2136112 -0.787090E-04  0.154E-01    0.02       1.0  T
  39    -95.2147038 -0.109258E-02  0.106E-01    0.02       1.0  T
  40    -95.2148637 -0.159916E-03  0.100E-01    0.02       1.0  T
  41    -95.2135158  0.134795E-02  0.132E-01    0.02       1.0  T
  42    -95.2141585 -0.642745E-03  0.112E-01    0.02       1.0  T
  43    -95.2147763 -0.617842E-03  0.745E-02    0.02       1.0  T
  44    -95.2149049 -0.128604E-03  0.632E-02    0.02       1.0  T
  45    -95.2148521  0.528733E-04  0.653E-02    0.02       1.0  T
  46    -95.2151305 -0.278476E-03  0.505E-02    0.02       1.0  T
  47    -95.2152468 -0.116269E-03  0.408E-02    0.02       1.0  T
  48    -95.2153698 -0.122962E-03  0.270E-02    0.02       1.0  T
  49    -95.2153817 -0.119585E-04  0.247E-02    0.02       1.0  T
  50    -95.2153993 -0.175126E-04  0.201E-02    0.02       1.0  T
  51    -95.2154257 -0.264262E-04  0.138E-02    0.02       1.1  T
  52    -95.2154201  0.557562E-05  0.148E-02    0.02       1.1  T
  53    -95.2154311 -0.109813E-04  0.107E-02    0.02       1.5  T
  54    -95.2154421 -0.110125E-04  0.541E-03    0.02       2.9  T
  55    -95.2154449 -0.281333E-05  0.223E-03    0.02       7.0  T
  56    -95.2154453 -0.364890E-06  0.107E-03    0.02      14.6  T
  57    -95.2154452  0.267234E-07  0.109E-03    0.02      14.3  T
  58    -95.2154453 -0.147963E-07  0.975E-04    0.02      16.0  T
  59    -95.2154453 -0.287009E-07  0.668E-04    0.02      23.4  T

   *** convergence criteria satisfied after 59 iterations ***

         #    Occupation            Energy/Eh            Energy/eV
      -------------------------------------------------------------
         1        2.0000           -0.7850373             -21.3620
       ...           ...                  ...                  ...
        81        1.9998           -0.4290063             -11.6739
        82        1.9993           -0.4275932             -11.6354
        83        1.9868           -0.4248291             -11.5602
        84        1.8390           -0.4223765             -11.4934
        85        1.7715           -0.4220080             -11.4834
        86        1.6259           -0.4214581             -11.4685
        87        1.4331           -0.4209435             -11.4545 (HOMO)
        88        1.0629           -0.4201820             -11.4337 (LUMO)
        89        0.1489           -0.4176683             -11.3653
        90        0.1292           -0.4175233             -11.3614
        91        0.0023           -0.4136398             -11.2557
        92        0.0011           -0.4129299             -11.2364
       ...           ...                  ...                  ...
       164                          1.0471402              28.4941
      -------------------------------------------------------------
                  HL-Gap            0.0007615 Eh            0.0207 eV
             Fermi-level           -0.4200623 Eh          -11.4305 eV

 SCC (total)                   0 d,  0 h,  0 min,  1.220 sec
 SCC setup                      ...        0 min,  0.001 sec (  0.041%)
 Dispersion                     ...        0 min,  0.003 sec (  0.208%)
 classical contributions        ...        0 min,  0.001 sec (  0.104%)
 integral evaluation            ...        0 min,  0.010 sec (  0.824%)
 iterations                     ...        0 min,  1.177 sec ( 96.488%)
 molecular gradient             ...        0 min,  0.025 sec (  2.045%)
 printout                       ...        0 min,  0.003 sec (  0.282%)

         :::::::::::::::::::::::::::::::::::::::::::::::::::::
         ::                     SUMMARY                     ::
         :::::::::::::::::::::::::::::::::::::::::::::::::::::
         :: total energy             -94.071411390789 Eh    ::
         :: gradient norm              0.563345183772 Eh/a0 ::
         :: HOMO-LUMO gap              0.020721849995 eV    ::
         ::.................................................::
         :: SCC energy               -95.215445289650 Eh    ::
         :: -> isotropic ES            0.006961030982 Eh    ::
         :: -> anisotropic ES          0.004187736986 Eh    ::
         :: -> anisotropic XC          0.067152413435 Eh    ::
         :: -> dispersion             -0.064016506667 Eh    ::
         :: repulsion energy           1.143182039703 Eh    ::
         :: add. restraining           0.000000000000 Eh    ::
         :: total charge              -0.000000000002 e     ::
         :::::::::::::::::::::::::::::::::::::::::::::::::::::

           -------------------------------------------------
          |                Property Printout                |
           -------------------------------------------------

    * Orbital Energies and Occupations

         #    Occupation            Energy/Eh            Energy/eV
      -------------------------------------------------------------
         1        2.0000           -0.7850373             -21.3620
       ...           ...                  ...                  ...
        75        2.0000           -0.4457254             -12.1288
        76        2.0000           -0.4453047             -12.1174
        77        2.0000           -0.4432951             -12.0627
        78        2.0000           -0.4378919             -11.9156
        79        2.0000           -0.4326196             -11.7722
        80        2.0000           -0.4324467             -11.7675
        81        1.9998           -0.4290063             -11.6739
        82        1.9993           -0.4275932             -11.6354
        83        1.9868           -0.4248291             -11.5602
        84        1.8390           -0.4223765             -11.4934
        85        1.7715           -0.4220080             -11.4834
        86        1.6259           -0.4214581             -11.4685
        87        1.4331           -0.4209435             -11.4545 (HOMO)
        88        1.0629           -0.4201820             -11.4337 (LUMO)
        89        0.1489           -0.4176683             -11.3653
        90        0.1292           -0.4175233             -11.3614
        91        0.0023           -0.4136398             -11.2557
        92        0.0011           -0.4129299             -11.2364
        93                         -0.3973773             -10.8132
        94                         -0.3898615             -10.6087
        95                         -0.3891240             -10.5886
        96                         -0.3847267             -10.4689
        97                         -0.3688202             -10.0361
        98                         -0.3673986              -9.9974
       ...                                ...                  ...
       164                          1.0471402              28.4941
      -------------------------------------------------------------
                  HL-Gap            0.0007615 Eh            0.0207 eV
             Fermi-level           -0.4200623 Eh          -11.4305 eV

     #   Z          covCN         q      C6AA      α(0)
     1   6 C        0.976    -0.096    38.915    10.475
     2   6 C        1.851     0.086    28.991     8.698
     3   8 O        1.703    -0.113    16.020     5.404
     4   6 C        2.866     0.162    24.508     8.115
     5   6 C        1.990    -0.064    32.792     9.248
     6   6 C        2.915     0.115    25.468     8.275
     7   7 N        1.831    -0.122    24.425     7.324
     8   6 C        1.934     0.092    28.794     8.666
     9   6 C        2.952     0.025    27.439     8.592
    10   6 C        1.907     0.126    28.016     8.548
    11   7 N        0.911    -0.176    24.809     7.204
    12   6 C        2.901     0.136    25.029     8.203
    13   7 N        1.835    -0.122    24.419     7.323
    14   6 C        2.917     0.132    25.104     8.216
    15   6 C        1.994    -0.026    31.743     9.099
    16   6 C        1.986    -0.061    32.701     9.235
    17   6 C        3.007     0.096    25.860     8.342
    18   6 C        3.033     0.057    26.683     8.473
    19   6 C        1.987    -0.068    32.883     9.261
    20   6 C        1.984    -0.030    31.859     9.115
    21   6 C        2.005    -0.010    31.293     9.034
    22   7 N        2.743     0.055    20.287     6.690
    23   6 C        1.897    -0.006    31.283     9.033
    24   6 C        2.959     0.078    26.259     8.405
    25   6 C        1.989    -0.038    32.057     9.144
    26   6 C        1.985    -0.007    31.227     9.024
    27   6 C        1.987     0.038    30.090     8.859
    28   6 C        1.985    -0.005    31.175     9.017
    29   6 C        1.990    -0.023    31.663     9.087
    30   6 C        2.963     0.012    27.741     8.639
    31   6 C        1.995    -0.073    33.028     9.281
    32   6 C        2.927     0.124    25.284     8.246
    33   7 N        1.830    -0.192    25.985     7.554
    34   6 C        2.788     0.299    21.934     7.672
    35   8 O        0.859    -0.429    22.277     6.328
    36   6 C        1.969     0.005    30.942     8.983
    37   6 C        1.969     0.014    30.694     8.947
    38   6 C        1.913    -0.015    31.507     9.065
    39   7 N        2.721     0.179    18.260     6.346
    40   6 C        0.941    -0.067    37.719    10.295
    41   6 C        0.936    -0.088    38.378    10.381

 Mol. C6AA /au·bohr⁶  :      47298.492052
 Mol. C8AA /au·bohr⁸  :    1305226.067074
 Mol. α(0) /au        :        347.843744


Wiberg/Mayer (AO) data.
largest (>0.10) Wiberg bond orders for each atom

 ---------------------------------------------------------------------------
     #   Z sym  total        # sym  WBO       # sym  WBO       # sym  WBO
 ---------------------------------------------------------------------------
     1   6 C    2.251 --     2 C    2.046
     2   6 C    3.328 --     1 C    2.046     3 O    1.135
     3   8 O    2.398 --     2 C    1.135     4 C    1.066
     4   6 C    3.898 --     5 C    1.454    32 C    1.135     3 O    1.066
     5   6 C    3.633 --     4 C    1.454     6 C    1.390    31 C    0.435
     6   6 C    3.894 --     5 C    1.390     7 N    1.164    30 C    1.113
     7   7 N    3.199 --     8 C    1.690     6 C    1.164
     8   6 C    3.736 --     7 N    1.690     9 C    1.574    13 N    0.105
     9   6 C    3.879 --     8 C    1.574    10 C    1.099    12 C    0.999
    10   6 C    3.946 --    11 N    2.793     9 C    1.099
    11   7 N    2.983 --    10 C    2.793
    12   6 C    3.938 --    13 N    1.645    30 C    1.037     9 C    0.999
    13   7 N    3.227 --    12 C    1.645    14 C    1.126     8 C    0.105
    14   6 C    3.924 --    19 C    1.311    15 C    1.278    13 N    1.126
    15   6 C    3.692 --    16 C    1.654    14 C    1.278    19 C    0.232
                            21 C    0.153
    16   6 C    3.710 --    15 C    1.654    17 C    1.404    19 C    0.217
                            20 C    0.197
    17   6 C    3.906 --    16 C    1.404    18 C    1.111    22 N    1.052
    18   6 C    3.935 --    19 C    1.395    20 C    1.154    17 C    1.111
    19   6 C    3.488 --    18 C    1.395    14 C    1.311    15 C    0.232
                            16 C    0.217
    20   6 C    3.098 --    21 C    1.435    18 C    1.154    16 C    0.197
    21   6 C    3.043 --    20 C    1.435    22 N    1.121    15 C    0.153
Note: The following floating-point exceptions are signalling: IEEE_UNDERFLOW_FLAG IEEE_DENORMAL
normal termination of xtb
    22   7 N    3.549 --    23 C    1.179    21 C    1.121    17 C    1.052
    23   6 C    3.017 --    24 C    1.221    22 N    1.179
    24   6 C    3.909 --    29 C    1.251    25 C    1.249    23 C    1.221
    25   6 C    3.474 --    26 C    1.596    24 C    1.249    28 C    0.251
                            27 C    0.180
    26   6 C    3.604 --    25 C    1.596    27 C    1.590    29 C    0.231
    27   6 C    3.747 --    28 C    1.612    26 C    1.590    29 C    0.190
                            25 C    0.180
    28   6 C    3.614 --    27 C    1.612    29 C    1.611    25 C    0.251
    29   6 C    3.492 --    28 C    1.611    24 C    1.251    26 C    0.231
                            27 C    0.190
    30   6 C    3.922 --    31 C    1.507     6 C    1.113    12 C    1.037
    31   6 C    3.725 --    30 C    1.507    32 C    1.364     5 C    0.435
    32   6 C    3.914 --    31 C    1.364    33 N    1.185     4 C    1.135
    33   7 N    3.115 --    34 C    1.444    32 C    1.185    35 O    0.170
    34   6 C    3.928 --    33 N    1.444    35 O    1.386    36 C    1.001
    35   8 O    1.824 --    34 C    1.386    33 N    0.170
    36   6 C    3.776 --    37 C    2.304    34 C    1.001    41 C    0.159
                            38 C    0.132
    37   6 C    3.816 --    36 C    2.304    38 C    1.298
    38   6 C    3.198 --    37 C    1.298    39 N    1.075    41 C    0.454
                            36 C    0.132    40 C    0.127
    39   7 N    3.682 --    41 C    1.279    40 C    1.277    38 C    1.075
    40   6 C    2.054 --    39 N    1.277    41 C    0.545    38 C    0.127
    41   6 C    2.469 --    39 N    1.279    40 C    0.545    38 C    0.454
                            36 C    0.159
 ---------------------------------------------------------------------------

Topologies differ in total number of bonds
Writing topology from bond orders to xtbtopo.mol

molecular dipole:
                 x           y           z       tot (Debye)
 q only:        1.229       0.854       0.214
   full:        1.402       0.845       0.284       4.223
molecular quadrupole (traceless):
                xx          xy          yy          xz          yz          zz
 q only:        1.684     -13.256      -2.679       1.372      -4.274       0.995
  q+dip:       16.959      -9.131     -12.563       1.744     -11.139      -4.396
   full:       14.041      -9.528     -13.975       3.388     -13.133      -0.067


           -------------------------------------------------
          | TOTAL ENERGY              -94.071411390789 Eh   |
          | GRADIENT NORM               0.563345183772 Eh/α |
          | HOMO-LUMO GAP               0.020721849995 eV   |
           -------------------------------------------------

------------------------------------------------------------------------
 * finished run on 2026/07/23 at 16:40:51.307     
------------------------------------------------------------------------
 total:
 * wall-time:     0 d,  0 h,  0 min,  1.255 sec
 *  cpu-time:     0 d,  0 h,  0 min,  1.282 sec
 * ratio c/w:     1.021 speedup
 SCF:
 * wall-time:     0 d,  0 h,  0 min,  1.221 sec
 *  cpu-time:     0 d,  0 h,  0 min,  1.249 sec
 * ratio c/w:     1.023 speedup

