      -----------------------------------------------------------      
     |                   =====================                   |     
     |                           x T B                           |     
     |                   =====================                   |     
     |                         S. Grimme                         |     
     |          Mulliken Center for Theoretical Chemistry        |     
     |                    University of Bonn                     |     
      -----------------------------------------------------------      

   * xtb version 6.6.1 (unknown) compiled by 'builduser@buildhost' on 2023-08-07

   xtb is free software: you can redistribute it and/or modify it under
   the terms of the GNU Lesser General Public License as published by
   the Free Software Foundation, either version 3 of the License, or
   (at your option) any later version.
   
   xtb is distributed in the hope that it will be useful,
   but WITHOUT ANY WARRANTY; without even the implied warranty of
   MERCHANTABILITY or FITNESS FOR A PARTICULAR PURPOSE.  See the
   GNU Lesser General Public License for more details.
   
   Cite this work as:
   * C. Bannwarth, E. Caldeweyher, S. Ehlert, A. Hansen, P. Pracht,
     J. Seibert, S. Spicher, S. Grimme, WIREs Comput. Mol. Sci., 2020, 11,
     e01493. DOI: 10.1002/wcms.1493
   
   for GFN2-xTB:
   * C. Bannwarth, S. Ehlert and S. Grimme., J. Chem. Theory Comput., 2019,
     15, 1652-1671. DOI: 10.1021/acs.jctc.8b01176
   for GFN1-xTB:
   * S. Grimme, C. Bannwarth, P. Shushkov, J. Chem. Theory Comput., 2017,
     13, 1989-2009. DOI: 10.1021/acs.jctc.7b00118
   for GFN0-xTB:
   * P. Pracht, E. Caldeweyher, S. Ehlert, S. Grimme, ChemRxiv, 2019, preprint.
     DOI: 10.26434/chemrxiv.8326202.v1
   for GFN-FF:
   * S. Spicher and S. Grimme, Angew. Chem. Int. Ed., 2020, 59, 15665-15673.
     DOI: 10.1002/anie.202004239
   
   for ALPB and GBSA implicit solvation:
   * S. Ehlert, M. Stahn, S. Spicher, S. Grimme, J. Chem. Theory Comput.,
     2021, 17, 4250-4261. DOI: 10.1021/acs.jctc.1c00471
   
   for DFT-D4:
   * E. Caldeweyher, C. Bannwarth and S. Grimme, J. Chem. Phys., 2017,
     147, 034112. DOI: 10.1063/1.4993215
   * E. Caldeweyher, S. Ehlert, A. Hansen, H. Neugebauer, S. Spicher,
     C. Bannwarth and S. Grimme, J. Chem. Phys., 2019, 150, 154122.
     DOI: 10.1063/1.5090222
   * E. Caldeweyher, J.-M. Mewes, S. Ehlert and S. Grimme, Phys. Chem. Chem. Phys.
     2020, 22, 8499-8512. DOI: 10.1039/D0CP00502A
   
   for sTDA-xTB:
   * S. Grimme and C. Bannwarth, J. Chem. Phys., 2016, 145, 054103.
     DOI: 10.1063/1.4959605
   
   in the mass-spec context:
   * V. Asgeirsson, C. Bauer and S. Grimme, Chem. Sci., 2017, 8, 4879.
     DOI: 10.1039/c7sc00601b
   * J. Koopman and S. Grimme, ACS Omega 2019, 4, 12, 15120-15133.
     DOI: 10.1021/acsomega.9b02011
   
   for metadynamics refer to:
   * S. Grimme, J. Chem. Theory Comput., 2019, 155, 2847-2862
     DOI: 10.1021/acs.jctc.9b00143
   
   for SPH calculations refer to:
   * S. Spicher and S. Grimme, J. Chem. Theory Comput., 2021, 17, 1701-1714
     DOI: 10.1021/acs.jctc.0c01306
   
   with help from (in alphabetical order)
   P. Atkinson, C. Bannwarth, F. Bohle, G. Brandenburg, E. Caldeweyher
   M. Checinski, S. Dohm, S. Ehlert, S. Ehrlich, I. Gerasimov, C. Hölzer
   A. Katbashev, J. Koopman, C. Lavigne, S. Lehtola, F. März, M. Müller,
   F. Musil, H. Neugebauer, J. Pisarek, C. Plett, P. Pracht, F. Pultar,
   J. Seibert, P. Shushkov, S. Spicher, M. Stahn, M. Steiner, T. Strunk,
   J. Stückrath, T. Rose, and J. Unsleber
   
 * started run on 2026/07/23 at 16:43:07.853     

           -------------------------------------------------
          |                Calculation Setup                |
           -------------------------------------------------

          program call               : xtb /home/selva/covalent_quantum_benchmark/data/quantum/erbB_xyz/ERBB2__CHEMBL56319__state02.xyz --gfn2 --chrg 0 --uhf 0 --iterations 300
          coordinate file            : /home/selva/covalent_quantum_benchmark/data/quantum/erbB_xyz/ERBB2__CHEMBL56319__state02.xyz
          omp threads                :                    24

   ID    Z sym.   atoms
    1    6 C      1, 2, 4, 6-13, 15, 17, 18, 20-24, 26, 28
    2    8 O      3, 5, 16, 25, 27
    3    7 N      14, 19

           -------------------------------------------------
          |                 G F N 2 - x T B                 |
           -------------------------------------------------

        Reference                      10.1021/acs.jctc.8b01176
      * Hamiltonian:
        H0-scaling (s, p, d)           1.850000    2.230000    2.230000
        zeta-weighting                 0.500000
      * Dispersion:
        s8                             2.700000
        a1                             0.520000
        a2                             5.000000
        s9                             5.000000
      * Repulsion:
        kExp                           1.500000    1.000000
        rExp                           1.000000
      * Coulomb:
        alpha                          2.000000
        third order                    shell-resolved
        anisotropic                    true
        a3                             3.000000
        a5                             4.000000
        cn-shift                       1.200000
        cn-exp                         4.000000
        max-rad                        5.000000


          ...................................................
          :                      SETUP                      :
          :.................................................:
          :  # basis functions                 112          :
          :  # atomic orbitals                 112          :
          :  # shells                           56          :
          :  # electrons                       124          :
          :  max. iterations                   300          :
          :  Hamiltonian                  GFN2-xTB          :
          :  restarted?                      false          :
          :  GBSA solvation                  false          :
          :  PC potential                    false          :
          :  electronic temp.          300.0000000     K    :
          :  accuracy                    1.0000000          :
          :  -> integral cutoff          0.2500000E+02      :
          :  -> integral neglect         0.1000000E-07      :
          :  -> SCF convergence          0.1000000E-05 Eh   :
          :  -> wf. convergence          0.1000000E-03 e    :
          :  Broyden damping             0.4000000          :
          ...................................................

 iter      E             dE          RMSdq      gap      omega  full diag
   1    -69.2976534 -0.692977E+02  0.877E+00    0.08       0.0  T
   2    -42.7064675  0.265912E+02  0.148E+01    0.21       1.0  T
   3    -44.7348430 -0.202838E+01  0.135E+01    0.12       1.0  T
   4    -61.8836144 -0.171488E+02  0.101E+01    0.45       1.0  T
   5    -67.4576873 -0.557407E+01  0.723E+00    0.12       1.0  T
   6    -65.7017868  0.175590E+01  0.757E+00    0.45       1.0  T
   7    -69.8184436 -0.411666E+01  0.444E+00    0.04       1.0  T
   8    -68.7258090  0.109263E+01  0.479E+00    0.10       1.0  T
   9    -69.2419963 -0.516187E+00  0.410E+00    0.15       1.0  T
  10    -69.0164899  0.225506E+00  0.484E+00    0.10       1.0  T
  11    -70.0705925 -0.105410E+01  0.339E+00    0.04       1.0  T
  12    -70.3317336 -0.261141E+00  0.228E+00    0.01       1.0  T
  13    -70.2663529  0.653806E-01  0.253E+00    0.01       1.0  T
  14    -70.2555904  0.107625E-01  0.251E+00    0.04       1.0  T
  15    -70.0401705  0.215420E+00  0.305E+00    0.02       1.0  T
  16    -70.0048338  0.353367E-01  0.270E+00    0.06       1.0  T
  17    -70.0914630 -0.866292E-01  0.274E+00    0.02       1.0  T
  18    -69.6761987  0.415264E+00  0.305E+00    0.01       1.0  T
  19    -70.0704802 -0.394281E+00  0.213E+00    0.02       1.0  T
  20    -70.2082794 -0.137799E+00  0.166E+00    0.02       1.0  T
  21    -70.0294457  0.178834E+00  0.189E+00    0.01       1.0  T
  22    -70.2266601 -0.197214E+00  0.148E+00    0.03       1.0  T
  23    -70.3608111 -0.134151E+00  0.116E+00    0.02       1.0  T
  24    -70.3809233 -0.201123E-01  0.114E+00    0.04       1.0  T
  25    -70.4141505 -0.332272E-01  0.931E-01    0.03       1.0  T
  26    -70.4070703  0.708020E-02  0.975E-01    0.04       1.0  T
  27    -70.4176786 -0.106082E-01  0.852E-01    0.03       1.0  T
  28    -70.4226131 -0.493455E-02  0.698E-01    0.02       1.0  T
  29    -70.4303359 -0.772274E-02  0.627E-01    0.03       1.0  T
  30    -70.4298919  0.443932E-03  0.575E-01    0.02       1.0  T
  31    -70.4361699 -0.627797E-02  0.480E-01    0.02       1.0  T
  32    -70.4380340 -0.186408E-02  0.446E-01    0.02       1.0  T
  33    -70.4423385 -0.430451E-02  0.341E-01    0.02       1.0  T
  34    -70.4456410 -0.330248E-02  0.172E-01    0.02       1.0  T
  35    -70.4448383  0.802642E-03  0.172E-01    0.01       1.0  T
  36    -70.4441087  0.729644E-03  0.195E-01    0.01       1.0  T
  37    -70.4462354 -0.212667E-02  0.607E-02    0.02       1.0  T
  38    -70.4462724 -0.370355E-04  0.469E-02    0.02       1.0  T
  39    -70.4463750 -0.102599E-03  0.253E-02    0.02       1.0  T
  40    -70.4462352  0.139785E-03  0.470E-02    0.02       1.0  T
  41    -70.4463797 -0.144471E-03  0.200E-02    0.02       1.0  T
  42    -70.4463917 -0.119790E-04  0.120E-02    0.02       1.6  T
  43    -70.4463937 -0.202048E-05  0.907E-03    0.02       2.1  T
  44    -70.4463939 -0.187654E-06  0.770E-03    0.02       2.5  T
  45    -70.4463970 -0.315991E-05  0.342E-03    0.02       5.5  T
  46    -70.4463970  0.468562E-07  0.314E-03    0.02       6.0  T
  47    -70.4463972 -0.218613E-06  0.204E-03    0.02       9.3  T
  48    -70.4463974 -0.184465E-06  0.791E-04    0.02      23.9  T
  49    -70.4463974  0.129374E-08  0.657E-04    0.02      28.8  T

   *** convergence criteria satisfied after 49 iterations ***

         #    Occupation            Energy/Eh            Energy/eV
      -------------------------------------------------------------
         1        2.0000           -0.8140569             -22.1516
       ...           ...                  ...                  ...
        56        2.0000           -0.4588318             -12.4854
        57        2.0000           -0.4539149             -12.3517
        58        2.0000           -0.4484750             -12.2036
        59        1.9325           -0.4412163             -12.0061
        60        1.8436           -0.4403739             -11.9832
        61        1.4106           -0.4388589             -11.9420
        62        1.3261           -0.4386730             -11.9369 (HOMO)
        63        1.0176           -0.4380634             -11.9203 (LUMO)
        64        0.4696           -0.4369074             -11.8889
        65        0.0000           -0.4258607             -11.5883
        66                         -0.4080490             -11.1036
        67                         -0.3985765             -10.8458
       ...                                ...                  ...
       112                          0.9692260              26.3740
      -------------------------------------------------------------
                  HL-Gap            0.0006096 Eh            0.0166 eV
             Fermi-level           -0.4380298 Eh          -11.9194 eV

 SCC (total)                   0 d,  0 h,  0 min,  0.272 sec
 SCC setup                      ...        0 min,  0.000 sec (  0.087%)
 Dispersion                     ...        0 min,  0.001 sec (  0.254%)
 classical contributions        ...        0 min,  0.001 sec (  0.213%)
 integral evaluation            ...        0 min,  0.006 sec (  2.085%)
 iterations                     ...        0 min,  0.249 sec ( 91.684%)
 molecular gradient             ...        0 min,  0.014 sec (  5.281%)
 printout                       ...        0 min,  0.001 sec (  0.381%)

         :::::::::::::::::::::::::::::::::::::::::::::::::::::
         ::                     SUMMARY                     ::
         :::::::::::::::::::::::::::::::::::::::::::::::::::::
         :: total energy             -69.690901565883 Eh    ::
         :: gradient norm              0.517682797074 Eh/a0 ::
         :: HOMO-LUMO gap              0.016589334333 eV    ::
         ::.................................................::
         :: SCC energy               -70.446397374226 Eh    ::
         :: -> isotropic ES            0.101024333237 Eh    ::
         :: -> anisotropic ES          0.002006040501 Eh    ::
         :: -> anisotropic XC          0.041134516084 Eh    ::
         :: -> dispersion             -0.038379209099 Eh    ::
         :: repulsion energy           0.755173153278 Eh    ::
         :: add. restraining           0.000000000000 Eh    ::
         :: total charge               0.000000000003 e     ::
         :::::::::::::::::::::::::::::::::::::::::::::::::::::

           -------------------------------------------------
          |                Property Printout                |
           -------------------------------------------------

    * Orbital Energies and Occupations

         #    Occupation            Energy/Eh            Energy/eV
      -------------------------------------------------------------
         1        2.0000           -0.8140569             -22.1516
       ...           ...                  ...                  ...
        50        2.0000           -0.4881367             -13.2829
        51        2.0000           -0.4852418             -13.2041
        52        2.0000           -0.4763641             -12.9625
        53        2.0000           -0.4706793             -12.8078
        54        2.0000           -0.4658763             -12.6771
        55        2.0000           -0.4621933             -12.5769
        56        2.0000           -0.4588318             -12.4854
        57        2.0000           -0.4539149             -12.3517
        58        2.0000           -0.4484750             -12.2036
        59        1.9325           -0.4412163             -12.0061
        60        1.8436           -0.4403739             -11.9832
        61        1.4106           -0.4388589             -11.9420
        62        1.3261           -0.4386730             -11.9369 (HOMO)
        63        1.0176           -0.4380634             -11.9203 (LUMO)
        64        0.4696           -0.4369074             -11.8889
        65        0.0000           -0.4258607             -11.5883
        66                         -0.4080490             -11.1036
        67                         -0.3985765             -10.8458
        68                         -0.3850521             -10.4778
        69                         -0.3819016             -10.3921
        70                         -0.3757810             -10.2255
        71                         -0.3655191              -9.9463
        72                         -0.3523374              -9.5876
        73                         -0.3265675              -8.8864
       ...                                ...                  ...
       112                          0.9692260              26.3740
      -------------------------------------------------------------
                  HL-Gap            0.0006096 Eh            0.0166 eV
             Fermi-level           -0.4380298 Eh          -11.9194 eV

     #   Z          covCN         q      C6AA      α(0)
     1   6 C        0.976    -0.079    38.357    10.400
     2   6 C        1.845     0.117    28.271     8.589
     3   8 O        1.702    -0.160    16.719     5.521
     4   6 C        2.709     0.370    20.725     7.452
     5   8 O        0.856    -0.283    19.476     5.917
     6   6 C        2.862     0.103    25.725     8.314
     7   6 C        1.958     0.004    30.967     8.987
     8   6 C        2.960     0.090    25.999     8.363
     9   6 C        1.990    -0.008    31.249     9.028
    10   6 C        1.986     0.028    30.336     8.895
    11   6 C        1.987     0.056    29.639     8.792
    12   6 C        1.986     0.018    30.580     8.930
    13   6 C        1.990    -0.006    31.204     9.021
    14   7 N        1.821    -0.195    26.057     7.564
    15   6 C        2.759     0.298    21.948     7.672
    16   8 O        0.855    -0.380    21.293     6.187
    17   6 C        2.934     0.053    26.806     8.491
    18   6 C        1.906     0.139    27.712     8.502
    19   7 N        0.911    -0.140    24.031     7.090
    20   6 C        1.990     0.038    30.083     8.858
    21   6 C        2.958     0.086    26.088     8.378
    22   6 C        1.985    -0.013    31.392     9.048
    23   6 C        1.970    -0.040    32.127     9.153
    24   6 C        2.827     0.252    22.770     7.819
    25   8 O        0.858    -0.227    18.506     5.768
    26   6 C        2.823     0.206    23.635     7.966
    27   8 O        0.853    -0.276    19.351     5.898
    28   6 C        1.977    -0.052    32.451     9.199

 Mol. C6AA /au·bohr⁶  :      20527.026374
 Mol. C8AA /au·bohr⁸  :     554424.515200
 Mol. α(0) /au        :        225.799446


Wiberg/Mayer (AO) data.
largest (>0.10) Wiberg bond orders for each atom

 ---------------------------------------------------------------------------
     #   Z sym  total        # sym  WBO       # sym  WBO       # sym  WBO
 ---------------------------------------------------------------------------
     1   6 C    2.438 --     2 C    2.212
     2   6 C    3.362 --     1 C    2.212     3 O    1.045
     3   8 O    2.414 --     4 C    1.086     2 C    1.045     5 O    0.150
     4   6 C    3.919 --     5 O    1.764     3 O    1.086     6 C    0.923
     5   8 O    2.205 --     4 C    1.764     3 O    0.150
     6   6 C    3.891 --     7 C    1.281    14 N    1.252     4 C    0.923
     7   6 C    3.215 --     6 C    1.281     8 C    1.060    14 N    0.130
                            13 C    0.110
     8   6 C    3.909 --    13 C    1.309     9 C    1.304     7 C    1.060
     9   6 C    3.573 --    10 C    1.641     8 C    1.304    12 C    0.219
                            11 C    0.196
    10   6 C    3.642 --     9 C    1.641    11 C    1.639    13 C    0.209
    11   6 C    3.768 --    10 C    1.639    12 C    1.594     9 C    0.196
                            13 C    0.157
    12   6 C    3.651 --    13 C    1.647    11 C    1.594     9 C    0.219
    13   6 C    3.544 --    12 C    1.647     8 C    1.309    10 C    0.209
                            11 C    0.157     7 C    0.110
    14   7 N    3.241 --    15 C    1.488     6 C    1.252    16 O    0.183
                             7 C    0.130
    15   6 C    3.931 --    14 N    1.488    16 O    1.437    17 C    0.867
    16   8 O    2.070 --    15 C    1.437    14 N    0.183    20 C    0.115
    17   6 C    3.828 --    20 C    1.653    18 C    1.053    15 C    0.867
    18   6 C    3.935 --    19 N    2.802    17 C    1.053
    19   7 N    3.028 --    18 C    2.802    20 C    0.121
    20   6 C    3.686 --    17 C    1.653    21 C    1.550    19 N    0.121
                            16 O    0.115
    21   6 C    3.939 --    20 C    1.550    28 C    1.192    22 C    1.026
    22   6 C    3.405 --    23 C    1.948    21 C    1.026    28 C    0.162
                            25 O    0.135
    23   6 C    3.432 --    22 C    1.948    24 C    1.064    28 C    0.183
    24   6 C    3.875 --    25 O    1.831    23 C    1.064    26 C    0.849
    25   8 O    2.175 --    24 C    1.831    22 C    0.135
    26   6 C    3.863 --    27 O    1.501    28 C    1.401    24 C    0.849
    27   8 O    1.751 --    26 C    1.501
    28   6 C    3.234 --    26 C    1.401    21 C    1.192    23 C    0.183
                            22 C    0.162
 ---------------------------------------------------------------------------

Topologies differ in total number of bonds
Writing topology from bond orders to xtbtopo.mol

molecular dipole:
                 x           y           z       tot (Debye)
 q only:       -1.707       1.100      -2.019
   full:       -1.407       0.600      -1.898       6.197
molecular quadrupole (traceless):
                xx          xy          yy          xz          yz          zz
 q only:       -5.710       1.132      14.326     -16.210       8.341      -8.617
  q+dip:       -7.872      -2.765      17.269     -15.197      16.468      -9.398
   full:       -5.370       0.127      16.787     -15.785      15.620     -11.417
Note: The following floating-point exceptions are signalling: IEEE_UNDERFLOW_FLAG IEEE_DENORMAL
normal termination of xtb


           -------------------------------------------------
          | TOTAL ENERGY              -69.690901565883 Eh   |
          | GRADIENT NORM               0.517682797074 Eh/α |
          | HOMO-LUMO GAP               0.016589334333 eV   |
           -------------------------------------------------

------------------------------------------------------------------------
 * finished run on 2026/07/23 at 16:43:08.143     
------------------------------------------------------------------------
 total:
 * wall-time:     0 d,  0 h,  0 min,  0.290 sec
 *  cpu-time:     0 d,  0 h,  0 min,  0.302 sec
 * ratio c/w:     1.040 speedup
 SCF:
 * wall-time:     0 d,  0 h,  0 min,  0.272 sec
 *  cpu-time:     0 d,  0 h,  0 min,  0.286 sec
 * ratio c/w:     1.051 speedup

