      -----------------------------------------------------------      
     |                   =====================                   |     
     |                           x T B                           |     
     |                   =====================                   |     
     |                         S. Grimme                         |     
     |          Mulliken Center for Theoretical Chemistry        |     
     |                    University of Bonn                     |     
      -----------------------------------------------------------      

   * xtb version 6.6.1 (unknown) compiled by 'builduser@buildhost' on 2023-08-07

   xtb is free software: you can redistribute it and/or modify it under
   the terms of the GNU Lesser General Public License as published by
   the Free Software Foundation, either version 3 of the License, or
   (at your option) any later version.
   
   xtb is distributed in the hope that it will be useful,
   but WITHOUT ANY WARRANTY; without even the implied warranty of
   MERCHANTABILITY or FITNESS FOR A PARTICULAR PURPOSE.  See the
   GNU Lesser General Public License for more details.
   
   Cite this work as:
   * C. Bannwarth, E. Caldeweyher, S. Ehlert, A. Hansen, P. Pracht,
     J. Seibert, S. Spicher, S. Grimme, WIREs Comput. Mol. Sci., 2020, 11,
     e01493. DOI: 10.1002/wcms.1493
   
   for GFN2-xTB:
   * C. Bannwarth, S. Ehlert and S. Grimme., J. Chem. Theory Comput., 2019,
     15, 1652-1671. DOI: 10.1021/acs.jctc.8b01176
   for GFN1-xTB:
   * S. Grimme, C. Bannwarth, P. Shushkov, J. Chem. Theory Comput., 2017,
     13, 1989-2009. DOI: 10.1021/acs.jctc.7b00118
   for GFN0-xTB:
   * P. Pracht, E. Caldeweyher, S. Ehlert, S. Grimme, ChemRxiv, 2019, preprint.
     DOI: 10.26434/chemrxiv.8326202.v1
   for GFN-FF:
   * S. Spicher and S. Grimme, Angew. Chem. Int. Ed., 2020, 59, 15665-15673.
     DOI: 10.1002/anie.202004239
   
   for ALPB and GBSA implicit solvation:
   * S. Ehlert, M. Stahn, S. Spicher, S. Grimme, J. Chem. Theory Comput.,
     2021, 17, 4250-4261. DOI: 10.1021/acs.jctc.1c00471
   
   for DFT-D4:
   * E. Caldeweyher, C. Bannwarth and S. Grimme, J. Chem. Phys., 2017,
     147, 034112. DOI: 10.1063/1.4993215
   * E. Caldeweyher, S. Ehlert, A. Hansen, H. Neugebauer, S. Spicher,
     C. Bannwarth and S. Grimme, J. Chem. Phys., 2019, 150, 154122.
     DOI: 10.1063/1.5090222
   * E. Caldeweyher, J.-M. Mewes, S. Ehlert and S. Grimme, Phys. Chem. Chem. Phys.
     2020, 22, 8499-8512. DOI: 10.1039/D0CP00502A
   
   for sTDA-xTB:
   * S. Grimme and C. Bannwarth, J. Chem. Phys., 2016, 145, 054103.
     DOI: 10.1063/1.4959605
   
   in the mass-spec context:
   * V. Asgeirsson, C. Bauer and S. Grimme, Chem. Sci., 2017, 8, 4879.
     DOI: 10.1039/c7sc00601b
   * J. Koopman and S. Grimme, ACS Omega 2019, 4, 12, 15120-15133.
     DOI: 10.1021/acsomega.9b02011
   
   for metadynamics refer to:
   * S. Grimme, J. Chem. Theory Comput., 2019, 155, 2847-2862
     DOI: 10.1021/acs.jctc.9b00143
   
   for SPH calculations refer to:
   * S. Spicher and S. Grimme, J. Chem. Theory Comput., 2021, 17, 1701-1714
     DOI: 10.1021/acs.jctc.0c01306
   
   with help from (in alphabetical order)
   P. Atkinson, C. Bannwarth, F. Bohle, G. Brandenburg, E. Caldeweyher
   M. Checinski, S. Dohm, S. Ehlert, S. Ehrlich, I. Gerasimov, C. Hölzer
   A. Katbashev, J. Koopman, C. Lavigne, S. Lehtola, F. März, M. Müller,
   F. Musil, H. Neugebauer, J. Pisarek, C. Plett, P. Pracht, F. Pultar,
   J. Seibert, P. Shushkov, S. Spicher, M. Stahn, M. Steiner, T. Strunk,
   J. Stückrath, T. Rose, and J. Unsleber
   
 * started run on 2026/07/23 at 16:38:05.220     

           -------------------------------------------------
          |                Calculation Setup                |
           -------------------------------------------------

          program call               : xtb /home/selva/covalent_quantum_benchmark/data/quantum/erbB_xyz/EGFR__CHEMBL30973__state03.xyz --gfn2 --chrg 0 --uhf 0 --iterations 300
          coordinate file            : /home/selva/covalent_quantum_benchmark/data/quantum/erbB_xyz/EGFR__CHEMBL30973__state03.xyz
          omp threads                :                    24

   ID    Z sym.   atoms
    1    6 C      1, 3-7, 10-13, 15-17, 19, 21-25, 27-29
    2    7 N      2, 9, 14, 18, 20
    3    8 O      8
    4   35 Br     26

           -------------------------------------------------
          |                 G F N 2 - x T B                 |
           -------------------------------------------------

        Reference                      10.1021/acs.jctc.8b01176
      * Hamiltonian:
        H0-scaling (s, p, d)           1.850000    2.230000    2.230000
        zeta-weighting                 0.500000
      * Dispersion:
        s8                             2.700000
        a1                             0.520000
        a2                             5.000000
        s9                             5.000000
      * Repulsion:
        kExp                           1.500000    1.000000
        rExp                           1.000000
      * Coulomb:
        alpha                          2.000000
        third order                    shell-resolved
        anisotropic                    true
        a3                             3.000000
        a5                             4.000000
        cn-shift                       1.200000
        cn-exp                         4.000000
        max-rad                        5.000000


          ...................................................
          :                      SETUP                      :
          :.................................................:
          :  # basis functions                 122          :
          :  # atomic orbitals                 121          :
          :  # shells                           59          :
          :  # electrons                       126          :
          :  max. iterations                   300          :
          :  Hamiltonian                  GFN2-xTB          :
          :  restarted?                      false          :
          :  GBSA solvation                  false          :
          :  PC potential                    false          :
          :  electronic temp.          300.0000000     K    :
          :  accuracy                    1.0000000          :
          :  -> integral cutoff          0.2500000E+02      :
          :  -> integral neglect         0.1000000E-07      :
          :  -> SCF convergence          0.1000000E-05 Eh   :
          :  -> wf. convergence          0.1000000E-03 e    :
          :  Broyden damping             0.4000000          :
          ...................................................

 iter      E             dE          RMSdq      gap      omega  full diag
   1    -68.1163361 -0.681163E+02  0.944E+00    0.21       0.0  T
   2    -49.9437475  0.181726E+02  0.142E+01    0.49       1.0  T
   3    -50.3430231 -0.399276E+00  0.120E+01    0.12       1.0  T
   4    -52.0060525 -0.166303E+01  0.118E+01    0.23       1.0  T
   5    -66.8617033 -0.148557E+02  0.720E+00    0.18       1.0  T
   6    -64.2309839  0.263072E+01  0.768E+00    0.06       1.0  T
   7    -68.1175130 -0.388653E+01  0.562E+00    0.50       1.0  T
   8    -66.7581682  0.135934E+01  0.570E+00    0.30       1.0  T
   9    -68.5399362 -0.178177E+01  0.448E+00    0.21       1.0  T
  10    -69.0269321 -0.486996E+00  0.321E+00    0.04       1.0  T
  11    -69.0105118  0.164203E-01  0.304E+00    0.13       1.0  T
  12    -68.9959835  0.145283E-01  0.309E+00    0.13       1.0  T
  13    -69.0216248 -0.256413E-01  0.314E+00    0.13       1.0  T
  14    -69.1541267 -0.132502E+00  0.245E+00    0.05       1.0  T
  15    -68.8329672  0.321160E+00  0.260E+00    0.02       1.0  T
  16    -68.7172584  0.115709E+00  0.280E+00    0.05       1.0  T
  17    -68.9085361 -0.191278E+00  0.235E+00    0.07       1.0  T
  18    -69.1165851 -0.208049E+00  0.173E+00    0.08       1.0  T
  19    -68.5221469  0.594438E+00  0.382E+00    0.09       1.0  T
  20    -68.5583976 -0.362507E-01  0.359E+00    0.10       1.0  T
  21    -68.3480750  0.210323E+00  0.422E+00    0.15       1.0  T
  22    -68.3603126 -0.122376E-01  0.402E+00    0.08       1.0  T
  23    -68.8200568 -0.459744E+00  0.320E+00    0.07       1.0  T
  24    -68.1740755  0.645981E+00  0.443E+00    0.09       1.0  T
  25    -68.7420445 -0.567969E+00  0.358E+00    0.05       1.0  T
  26    -68.7007902  0.412543E-01  0.368E+00    0.05       1.0  T
  27    -68.7469377 -0.461475E-01  0.355E+00    0.05       1.0  T
  28    -69.1247475 -0.377810E+00  0.231E+00    0.03       1.0  T
  29    -69.2648536 -0.140106E+00  0.145E+00    0.04       1.0  T
  30    -69.2742158 -0.936225E-02  0.132E+00    0.05       1.0  T
  31    -69.2932567 -0.190408E-01  0.118E+00    0.04       1.0  T
  32    -69.2943834 -0.112671E-02  0.118E+00    0.05       1.0  T
  33    -69.2918556  0.252781E-02  0.992E-01    0.06       1.0  T
  34    -69.2243163  0.675392E-01  0.129E+00    0.07       1.0  T
  35    -69.3013544 -0.770381E-01  0.615E-01    0.08       1.0  T
  36    -69.3203266 -0.189722E-01  0.440E-01    0.06       1.0  T
  37    -69.2997836  0.205430E-01  0.558E-01    0.08       1.0  T
  38    -69.2928784  0.690517E-02  0.616E-01    0.08       1.0  T
  39    -69.3134998 -0.206214E-01  0.414E-01    0.07       1.0  T
  40    -69.3232102 -0.971045E-02  0.225E-01    0.05       1.0  T
  41    -69.3206655  0.254473E-02  0.257E-01    0.06       1.0  T
  42    -69.3222320 -0.156650E-02  0.188E-01    0.05       1.0  T
  43    -69.3205227  0.170929E-02  0.238E-01    0.05       1.0  T
  44    -69.3167795  0.374317E-02  0.324E-01    0.05       1.0  T
  45    -69.3156161  0.116346E-02  0.343E-01    0.04       1.0  T
  46    -69.3151742  0.441864E-03  0.354E-01    0.04       1.0  T
  47    -69.3205294 -0.535517E-02  0.273E-01    0.05       1.0  T
  48    -69.3210848 -0.555362E-03  0.233E-01    0.05       1.0  T
  49    -69.3235490 -0.246426E-02  0.169E-01    0.05       1.0  T
  50    -69.3238043 -0.255257E-03  0.146E-01    0.05       1.0  T
  51    -69.3245137 -0.709402E-03  0.960E-02    0.05       1.0  T
  52    -69.3250210 -0.507365E-03  0.426E-02    0.06       1.0  T
  53    -69.3250518 -0.307490E-04  0.359E-02    0.06       1.0  T
  54    -69.3251010 -0.492134E-04  0.204E-02    0.06       1.0  T
  55    -69.3251050 -0.399599E-05  0.129E-02    0.06       1.4  T
  56    -69.3251057 -0.727227E-06  0.802E-03    0.06       2.3  T
  57    -69.3251071 -0.138781E-05  0.578E-03    0.06       3.2  T
  58    -69.3251099 -0.273606E-05  0.205E-03    0.06       9.1  T
  59    -69.3251100 -0.191327E-06  0.686E-04    0.06      27.1  T
  60    -69.3251100  0.231124E-08  0.568E-04    0.06      32.7  T

   *** convergence criteria satisfied after 60 iterations ***

         #    Occupation            Energy/Eh            Energy/eV
      -------------------------------------------------------------
         1        2.0000           -0.8713019             -23.7093
       ...           ...                  ...                  ...
        57        2.0000           -0.4413285             -12.0092
        58        2.0000           -0.4388250             -11.9410
        59        2.0000           -0.4337036             -11.8017
        60        1.9911           -0.4282702             -11.6538
        61        1.9609           -0.4268530             -11.6153
        62        1.9262           -0.4262320             -11.5984
        63        1.5482           -0.4243027             -11.5459 (HOMO)
        64        0.5259           -0.4221536             -11.4874 (LUMO)
        65        0.0477           -0.4196069             -11.4181
        66                         -0.4063943             -11.0586
        67                         -0.4026335             -10.9562
        68                         -0.3985675             -10.8456
       ...                                ...                  ...
       121                          1.0390365              28.2736
      -------------------------------------------------------------
                  HL-Gap            0.0021492 Eh            0.0585 eV
             Fermi-level           -0.4231327 Eh          -11.5140 eV

 SCC (total)                   0 d,  0 h,  0 min,  0.612 sec
 SCC setup                      ...        0 min,  0.000 sec (  0.052%)
 Dispersion                     ...        0 min,  0.002 sec (  0.340%)
 classical contributions        ...        0 min,  0.001 sec (  0.160%)
 integral evaluation            ...        0 min,  0.005 sec (  0.890%)
 iterations                     ...        0 min,  0.571 sec ( 93.395%)
 molecular gradient             ...        0 min,  0.030 sec (  4.944%)
 printout                       ...        0 min,  0.001 sec (  0.213%)

         :::::::::::::::::::::::::::::::::::::::::::::::::::::
         ::                     SUMMARY                     ::
         :::::::::::::::::::::::::::::::::::::::::::::::::::::
         :: total energy             -68.469531566573 Eh    ::
         :: gradient norm              0.444899158088 Eh/a0 ::
         :: HOMO-LUMO gap              0.058481618285 eV    ::
         ::.................................................::
         :: SCC energy               -69.325110043275 Eh    ::
         :: -> isotropic ES            0.020725032412 Eh    ::
         :: -> anisotropic ES          0.006735583925 Eh    ::
         :: -> anisotropic XC          0.048095231297 Eh    ::
         :: -> dispersion             -0.040469638232 Eh    ::
         :: repulsion energy           0.855514373041 Eh    ::
         :: add. restraining           0.000000000000 Eh    ::
         :: total charge              -0.000000000001 e     ::
         :::::::::::::::::::::::::::::::::::::::::::::::::::::

           -------------------------------------------------
          |                Property Printout                |
           -------------------------------------------------

    * Orbital Energies and Occupations

         #    Occupation            Energy/Eh            Energy/eV
      -------------------------------------------------------------
         1        2.0000           -0.8713019             -23.7093
       ...           ...                  ...                  ...
        51        2.0000           -0.4655320             -12.6678
        52        2.0000           -0.4637221             -12.6185
        53        2.0000           -0.4559014             -12.4057
        54        2.0000           -0.4496545             -12.2357
        55        2.0000           -0.4453733             -12.1192
        56        2.0000           -0.4413844             -12.0107
        57        2.0000           -0.4413285             -12.0092
        58        2.0000           -0.4388250             -11.9410
        59        2.0000           -0.4337036             -11.8017
        60        1.9911           -0.4282702             -11.6538
        61        1.9609           -0.4268530             -11.6153
        62        1.9262           -0.4262320             -11.5984
        63        1.5482           -0.4243027             -11.5459 (HOMO)
        64        0.5259           -0.4221536             -11.4874 (LUMO)
        65        0.0477           -0.4196069             -11.4181
        66                         -0.4063943             -11.0586
        67                         -0.4026335             -10.9562
        68                         -0.3985675             -10.8456
        69                         -0.3910908             -10.6421
        70                         -0.3670807              -9.9888
        71                         -0.3626958              -9.8695
        72                         -0.3588182              -9.7639
        73                         -0.3474178              -9.4537
        74                         -0.3231258              -8.7927
       ...                                ...                  ...
       121                          1.0390365              28.2736
      -------------------------------------------------------------
                  HL-Gap            0.0021492 Eh            0.0585 eV
             Fermi-level           -0.4231327 Eh          -11.5140 eV

     #   Z          covCN         q      C6AA      α(0)
     1   6 C        0.935    -0.084    38.249    10.364
     2   7 N        2.721     0.181    18.234     6.342
     3   6 C        0.941    -0.064    37.632    10.283
     4   6 C        1.913    -0.016    31.526     9.068
     5   6 C        1.968     0.020    30.554     8.927
     6   6 C        1.968     0.012    30.758     8.956
     7   6 C        2.787     0.297    21.959     7.676
     8   8 O        0.858    -0.403    21.747     6.252
     9   7 N        1.831    -0.169    25.455     7.476
    10   6 C        2.928     0.155    24.638     8.140
    11   6 C        1.992    -0.010    31.308     9.036
    12   6 C        2.003    -0.018    31.507     9.065
    13   6 C        2.951     0.124    25.278     8.246
    14   7 N        1.844    -0.114    24.244     7.297
    15   6 C        1.970     0.064    29.457     8.765
    16   6 C        2.958     0.032    27.274     8.566
    17   6 C        1.907     0.123    28.085     8.559
    18   7 N        0.911    -0.180    24.897     7.217
    19   6 C        2.911     0.130    25.145     8.223
    20   7 N        1.828    -0.168    25.435     7.473
    21   6 C        2.893     0.133    25.084     8.211
    22   6 C        1.990    -0.004    31.166     9.016
    23   6 C        1.986    -0.019    31.551     9.071
    24   6 C        2.062     0.025    30.329     8.896
    25   6 C        2.905     0.114    25.484     8.277
    26  35 Br       1.069    -0.053   186.458    22.017
    27   6 C        2.066    -0.068    32.781     9.249
    28   6 C        2.978     0.017    27.615     8.620
    29   6 C        1.996    -0.059    32.626     9.224

 Mol. C6AA /au·bohr⁶  :      26154.162864
 Mol. C8AA /au·bohr⁸  :     781988.003375
 Mol. α(0) /au        :        258.511417


Wiberg/Mayer (AO) data.
largest (>0.10) Wiberg bond orders for each atom

 ---------------------------------------------------------------------------
     #   Z sym  total        # sym  WBO       # sym  WBO       # sym  WBO
 ---------------------------------------------------------------------------
     1   6 C    2.462 --     2 N    1.283     3 C    0.537     4 C    0.450
                             6 C    0.155
     2   7 N    3.683 --     1 C    1.283     3 C    1.272     4 C    1.076
     3   6 C    2.049 --     2 N    1.272     1 C    0.537     4 C    0.129
     4   6 C    3.157 --     5 C    1.271     2 N    1.076     1 C    0.450
                             6 C    0.130     3 C    0.129
     5   6 C    3.824 --     6 C    2.333     4 C    1.271
     6   6 C    3.783 --     5 C    2.333     7 C    1.000     1 C    0.155
                             4 C    0.130
     7   6 C    3.931 --     9 N    1.462     8 O    1.370     6 C    1.000
     8   8 O    1.767 --     7 C    1.370     9 N    0.186
     9   7 N    3.089 --     7 C    1.462    10 C    1.142     8 O    0.186
    10   6 C    3.930 --    29 C    1.347    11 C    1.255     9 N    1.142
    11   6 C    3.691 --    12 C    1.699    10 C    1.255    29 C    0.289
                            15 C    0.122
    12   6 C    3.571 --    11 C    1.699    13 C    1.299    29 C    0.183
    13   6 C    3.920 --    12 C    1.299    14 N    1.239    28 C    1.115
    14   7 N    3.280 --    15 C    1.673    13 C    1.239
    15   6 C    3.749 --    14 N    1.673    16 C    1.391    20 N    0.176
                            11 C    0.122
    16   6 C    3.954 --    15 C    1.391    19 C    1.227    17 C    1.081
    17   6 C    3.945 --    18 N    2.816    16 C    1.081
    18   7 N    2.996 --    17 C    2.816
    19   6 C    3.959 --    16 C    1.227    20 N    1.225    28 C    1.216
    20   7 N    3.140 --    19 C    1.225    21 C    1.223    15 C    0.176
    21   6 C    3.940 --    27 C    1.288    22 C    1.257    20 N    1.223
    22   6 C    3.710 --    23 C    1.637    21 C    1.257    24 C    0.408
                            27 C    0.165
    23   6 C    3.778 --    22 C    1.637    24 C    1.617    27 C    0.409
    24   6 C    3.676 --    23 C    1.617    25 C    1.357    22 C    0.408
                            27 C    0.136
    25   6 C    3.932 --    27 C    1.430    24 C    1.357    26 Br   0.996
    26  35 Br   1.203 --    25 C    0.996
    27   6 C    3.532 --    25 C    1.430    21 C    1.288    23 C    0.409
Note: The following floating-point exceptions are signalling: IEEE_UNDERFLOW_FLAG IEEE_DENORMAL
normal termination of xtb
                            22 C    0.165    24 C    0.136
    28   6 C    3.952 --    29 C    1.343    19 C    1.216    13 C    1.115
    29   6 C    3.543 --    10 C    1.347    28 C    1.343    11 C    0.289
                            12 C    0.183
 ---------------------------------------------------------------------------

Topologies differ in total number of bonds
Writing topology from bond orders to xtbtopo.mol

molecular dipole:
                 x           y           z       tot (Debye)
 q only:        0.459      -0.199      -0.384
   full:        0.922       0.622      -0.144       2.850
molecular quadrupole (traceless):
                xx          xy          yy          xz          yz          zz
 q only:        2.628       5.472      -3.777      -0.091      -4.033       1.150
  q+dip:        2.632       6.177     -14.590      -1.380      -0.889      11.958
   full:        0.656       6.616     -13.635      -2.721       1.106      12.979


           -------------------------------------------------
          | TOTAL ENERGY              -68.469531566573 Eh   |
          | GRADIENT NORM               0.444899158088 Eh/α |
          | HOMO-LUMO GAP               0.058481618285 eV   |
           -------------------------------------------------

------------------------------------------------------------------------
 * finished run on 2026/07/23 at 16:38:05.851     
------------------------------------------------------------------------
 total:
 * wall-time:     0 d,  0 h,  0 min,  0.631 sec
 *  cpu-time:     0 d,  0 h,  0 min,  0.625 sec
 * ratio c/w:     0.990 speedup
 SCF:
 * wall-time:     0 d,  0 h,  0 min,  0.612 sec
 *  cpu-time:     0 d,  0 h,  0 min,  0.601 sec
 * ratio c/w:     0.982 speedup

