      -----------------------------------------------------------      
     |                   =====================                   |     
     |                           x T B                           |     
     |                   =====================                   |     
     |                         S. Grimme                         |     
     |          Mulliken Center for Theoretical Chemistry        |     
     |                    University of Bonn                     |     
      -----------------------------------------------------------      

   * xtb version 6.6.1 (unknown) compiled by 'builduser@buildhost' on 2023-08-07

   xtb is free software: you can redistribute it and/or modify it under
   the terms of the GNU Lesser General Public License as published by
   the Free Software Foundation, either version 3 of the License, or
   (at your option) any later version.
   
   xtb is distributed in the hope that it will be useful,
   but WITHOUT ANY WARRANTY; without even the implied warranty of
   MERCHANTABILITY or FITNESS FOR A PARTICULAR PURPOSE.  See the
   GNU Lesser General Public License for more details.
   
   Cite this work as:
   * C. Bannwarth, E. Caldeweyher, S. Ehlert, A. Hansen, P. Pracht,
     J. Seibert, S. Spicher, S. Grimme, WIREs Comput. Mol. Sci., 2020, 11,
     e01493. DOI: 10.1002/wcms.1493
   
   for GFN2-xTB:
   * C. Bannwarth, S. Ehlert and S. Grimme., J. Chem. Theory Comput., 2019,
     15, 1652-1671. DOI: 10.1021/acs.jctc.8b01176
   for GFN1-xTB:
   * S. Grimme, C. Bannwarth, P. Shushkov, J. Chem. Theory Comput., 2017,
     13, 1989-2009. DOI: 10.1021/acs.jctc.7b00118
   for GFN0-xTB:
   * P. Pracht, E. Caldeweyher, S. Ehlert, S. Grimme, ChemRxiv, 2019, preprint.
     DOI: 10.26434/chemrxiv.8326202.v1
   for GFN-FF:
   * S. Spicher and S. Grimme, Angew. Chem. Int. Ed., 2020, 59, 15665-15673.
     DOI: 10.1002/anie.202004239
   
   for ALPB and GBSA implicit solvation:
   * S. Ehlert, M. Stahn, S. Spicher, S. Grimme, J. Chem. Theory Comput.,
     2021, 17, 4250-4261. DOI: 10.1021/acs.jctc.1c00471
   
   for DFT-D4:
   * E. Caldeweyher, C. Bannwarth and S. Grimme, J. Chem. Phys., 2017,
     147, 034112. DOI: 10.1063/1.4993215
   * E. Caldeweyher, S. Ehlert, A. Hansen, H. Neugebauer, S. Spicher,
     C. Bannwarth and S. Grimme, J. Chem. Phys., 2019, 150, 154122.
     DOI: 10.1063/1.5090222
   * E. Caldeweyher, J.-M. Mewes, S. Ehlert and S. Grimme, Phys. Chem. Chem. Phys.
     2020, 22, 8499-8512. DOI: 10.1039/D0CP00502A
   
   for sTDA-xTB:
   * S. Grimme and C. Bannwarth, J. Chem. Phys., 2016, 145, 054103.
     DOI: 10.1063/1.4959605
   
   in the mass-spec context:
   * V. Asgeirsson, C. Bauer and S. Grimme, Chem. Sci., 2017, 8, 4879.
     DOI: 10.1039/c7sc00601b
   * J. Koopman and S. Grimme, ACS Omega 2019, 4, 12, 15120-15133.
     DOI: 10.1021/acsomega.9b02011
   
   for metadynamics refer to:
   * S. Grimme, J. Chem. Theory Comput., 2019, 155, 2847-2862
     DOI: 10.1021/acs.jctc.9b00143
   
   for SPH calculations refer to:
   * S. Spicher and S. Grimme, J. Chem. Theory Comput., 2021, 17, 1701-1714
     DOI: 10.1021/acs.jctc.0c01306
   
   with help from (in alphabetical order)
   P. Atkinson, C. Bannwarth, F. Bohle, G. Brandenburg, E. Caldeweyher
   M. Checinski, S. Dohm, S. Ehlert, S. Ehrlich, I. Gerasimov, C. Hölzer
   A. Katbashev, J. Koopman, C. Lavigne, S. Lehtola, F. März, M. Müller,
   F. Musil, H. Neugebauer, J. Pisarek, C. Plett, P. Pracht, F. Pultar,
   J. Seibert, P. Shushkov, S. Spicher, M. Stahn, M. Steiner, T. Strunk,
   J. Stückrath, T. Rose, and J. Unsleber
   
 * started run on 2026/07/23 at 16:41:40.549     

           -------------------------------------------------
          |                Calculation Setup                |
           -------------------------------------------------

          program call               : xtb /home/selva/covalent_quantum_benchmark/data/quantum/erbB_xyz/ERBB2__CHEMBL275762__state03.xyz --gfn2 --chrg 0 --uhf 0 --iterations 300
          coordinate file            : /home/selva/covalent_quantum_benchmark/data/quantum/erbB_xyz/ERBB2__CHEMBL275762__state03.xyz
          omp threads                :                    24

   ID    Z sym.   atoms
    1    8 O      1
    2    6 C      2, 3, 6-9, 11, 13, 15-17, 19, 21, 22, 24, 25
    3   17 Cl     4, 18, 20
    4    7 N      5, 10, 12, 14
    5    9 F      23

           -------------------------------------------------
          |                 G F N 2 - x T B                 |
           -------------------------------------------------

        Reference                      10.1021/acs.jctc.8b01176
      * Hamiltonian:
        H0-scaling (s, p, d)           1.850000    2.230000    2.230000
        zeta-weighting                 0.500000
      * Dispersion:
        s8                             2.700000
        a1                             0.520000
        a2                             5.000000
        s9                             5.000000
      * Repulsion:
        kExp                           1.500000    1.000000
        rExp                           1.000000
      * Coulomb:
        alpha                          2.000000
        third order                    shell-resolved
        anisotropic                    true
        a3                             3.000000
        a5                             4.000000
        cn-shift                       1.200000
        cn-exp                         4.000000
        max-rad                        5.000000


          ...................................................
          :                      SETUP                      :
          :.................................................:
          :  # basis functions                 118          :
          :  # atomic orbitals                 115          :
          :  # shells                           53          :
          :  # electrons                       118          :
          :  max. iterations                   300          :
          :  Hamiltonian                  GFN2-xTB          :
          :  restarted?                      false          :
          :  GBSA solvation                  false          :
          :  PC potential                    false          :
          :  electronic temp.          300.0000000     K    :
          :  accuracy                    1.0000000          :
          :  -> integral cutoff          0.2500000E+02      :
          :  -> integral neglect         0.1000000E-07      :
          :  -> SCF convergence          0.1000000E-05 Eh   :
          :  -> wf. convergence          0.1000000E-03 e    :
          :  Broyden damping             0.4000000          :
          ...................................................

 iter      E             dE          RMSdq      gap      omega  full diag
   1    -67.9524593 -0.679525E+02  0.670E+00    0.20       0.0  T
   2    -64.8643778  0.308808E+01  0.909E+00    0.15       1.0  T
   3    -66.6367543 -0.177238E+01  0.615E+00    0.05       1.0  T
   4    -67.0905459 -0.453792E+00  0.568E+00    0.12       1.0  T
   5    -64.9646045  0.212594E+01  0.729E+00    0.24       1.0  T
   6    -65.1566154 -0.192011E+00  0.611E+00    0.19       1.0  T
   7    -67.4877244 -0.233111E+01  0.426E+00    0.09       1.0  T
   8    -68.1673444 -0.679620E+00  0.245E+00    0.18       1.0  T
   9    -68.1832959 -0.159516E-01  0.239E+00    0.07       1.0  T
  10    -68.1730506  0.102454E-01  0.197E+00    0.20       1.0  T
  11    -68.2964515 -0.123401E+00  0.131E+00    0.08       1.0  T
  12    -68.2939886  0.246290E-02  0.128E+00    0.10       1.0  T
  13    -68.3151131 -0.211245E-01  0.864E-01    0.07       1.0  T
  14    -68.3109003  0.421282E-02  0.799E-01    0.10       1.0  T
  15    -68.2414400  0.694603E-01  0.147E+00    0.02       1.0  T
  16    -68.2894603 -0.480203E-01  0.108E+00    0.02       1.0  T
  17    -68.2973548 -0.789455E-02  0.992E-01    0.03       1.0  T
  18    -68.3368137 -0.394589E-01  0.390E-01    0.09       1.0  T
  19    -68.3354836  0.133018E-02  0.435E-01    0.05       1.0  T
  20    -68.3441105 -0.862698E-02  0.100E-01    0.07       1.0  T
  21    -68.3444392 -0.328708E-03  0.384E-02    0.07       1.0  T
  22    -68.3435196  0.919673E-03  0.145E-01    0.08       1.0  T
  23    -68.3433577  0.161861E-03  0.156E-01    0.08       1.0  T
  24    -68.3443593 -0.100161E-02  0.507E-02    0.07       1.0  T
  25    -68.3441529  0.206409E-03  0.834E-02    0.07       1.0  T
  26    -68.3444778 -0.324874E-03  0.138E-02    0.07       1.4  T
  27    -68.3444811 -0.333975E-05  0.109E-02    0.07       1.8  T
  28    -68.3444689  0.122701E-04  0.186E-02    0.07       1.1  T
  29    -68.3444832 -0.143780E-04  0.757E-03    0.07       2.6  T
  30    -68.3444833 -0.234313E-07  0.793E-03    0.07       2.5  T
  31    -68.3444859 -0.269175E-05  0.268E-03    0.07       7.5  T
  32    -68.3444862 -0.266103E-06  0.140E-03    0.07      14.2  T
  33    -68.3444863 -0.663563E-07  0.676E-04    0.07      29.6  T
  34    -68.3444862  0.433541E-07  0.113E-03    0.07      17.7  T
  35    -68.3444863 -0.632139E-07  0.232E-04    0.07      86.4  T

   *** convergence criteria satisfied after 35 iterations ***

         #    Occupation            Energy/Eh            Energy/eV
      -------------------------------------------------------------
         1        2.0000           -1.1080991             -30.1529
       ...           ...                  ...                  ...
        53        2.0000           -0.4330126             -11.7829
        54        2.0000           -0.4307613             -11.7216
        55        2.0000           -0.4235417             -11.5252
        56        1.9997           -0.4181274             -11.3778
        57        1.9989           -0.4169548             -11.3459
        58        1.8665           -0.4123499             -11.2206
        59        1.6399           -0.4112839             -11.1916 (HOMO)
        60        0.4945           -0.4087859             -11.1236 (LUMO)
        61        0.0005           -0.4020367             -10.9400
        62                         -0.3892637             -10.5924
        63                         -0.3822284             -10.4010
        64                         -0.3437591              -9.3542
       ...                                ...                  ...
       115                          0.5763914              15.6844
      -------------------------------------------------------------
                  HL-Gap            0.0024979 Eh            0.0680 eV
             Fermi-level           -0.4098436 Eh          -11.1524 eV

 SCC (total)                   0 d,  0 h,  0 min,  0.269 sec
 SCC setup                      ...        0 min,  0.000 sec (  0.123%)
 Dispersion                     ...        0 min,  0.003 sec (  1.156%)
 classical contributions        ...        0 min,  0.001 sec (  0.318%)
 integral evaluation            ...        0 min,  0.004 sec (  1.557%)
 iterations                     ...        0 min,  0.237 sec ( 88.063%)
 molecular gradient             ...        0 min,  0.022 sec (  8.266%)
 printout                       ...        0 min,  0.001 sec (  0.502%)

         :::::::::::::::::::::::::::::::::::::::::::::::::::::
         ::                     SUMMARY                     ::
         :::::::::::::::::::::::::::::::::::::::::::::::::::::
         :: total energy             -67.682308612741 Eh    ::
         :: gradient norm              0.353163358230 Eh/a0 ::
         :: HOMO-LUMO gap              0.067972611995 eV    ::
         ::.................................................::
         :: SCC energy               -68.344486301881 Eh    ::
         :: -> isotropic ES            0.068842703560 Eh    ::
         :: -> anisotropic ES          0.004195849287 Eh    ::
         :: -> anisotropic XC          0.022706457999 Eh    ::
         :: -> dispersion             -0.036216815406 Eh    ::
         :: repulsion energy           0.662325708645 Eh    ::
         :: add. restraining           0.000000000000 Eh    ::
         :: total charge               0.000000000000 e     ::
         :::::::::::::::::::::::::::::::::::::::::::::::::::::

           -------------------------------------------------
          |                Property Printout                |
           -------------------------------------------------

    * Orbital Energies and Occupations

         #    Occupation            Energy/Eh            Energy/eV
      -------------------------------------------------------------
         1        2.0000           -1.1080991             -30.1529
       ...           ...                  ...                  ...
        47        2.0000           -0.4556668             -12.3993
        48        2.0000           -0.4530887             -12.3292
        49        2.0000           -0.4503338             -12.2542
        50        2.0000           -0.4468071             -12.1582
        51        2.0000           -0.4428920             -12.0517
        52        2.0000           -0.4405368             -11.9876
        53        2.0000           -0.4330126             -11.7829
        54        2.0000           -0.4307613             -11.7216
        55        2.0000           -0.4235417             -11.5252
        56        1.9997           -0.4181274             -11.3778
        57        1.9989           -0.4169548             -11.3459
        58        1.8665           -0.4123499             -11.2206
        59        1.6399           -0.4112839             -11.1916 (HOMO)
        60        0.4945           -0.4087859             -11.1236 (LUMO)
        61        0.0005           -0.4020367             -10.9400
        62                         -0.3892637             -10.5924
        63                         -0.3822284             -10.4010
        64                         -0.3437591              -9.3542
        65                         -0.3153308              -8.5806
        66                         -0.2938947              -7.9973
        67                         -0.2784042              -7.5758
        68                         -0.2735254              -7.4430
        69                         -0.2578507              -7.0165
        70                         -0.2340083              -6.3677
       ...                                ...                  ...
       115                          0.5763914              15.6844
      -------------------------------------------------------------
                  HL-Gap            0.0024979 Eh            0.0680 eV
             Fermi-level           -0.4098436 Eh          -11.1524 eV

     #   Z          covCN         q      C6AA      α(0)
     1   8 O        0.854    -0.398    21.645     6.238
     2   6 C        2.779     0.274    22.378     7.748
     3   6 C        1.880     0.031    30.342     8.897
     4  17 Cl       0.924     0.120    95.650    14.962
     5   7 N        1.832    -0.139    24.789     7.378
     6   6 C        2.893     0.152    24.711     8.150
     7   6 C        1.993    -0.023    31.647     9.085
     8   6 C        1.988    -0.032    31.899     9.121
     9   6 C        2.923     0.141    24.939     8.189
    10   7 N        1.831    -0.169    25.452     7.476
    11   6 C        1.908     0.169    27.056     8.400
    12   7 N        1.831    -0.188    25.899     7.541
    13   6 C        2.910     0.202    23.717     7.986
    14   7 N        1.839    -0.134    24.684     7.363
    15   6 C        2.934     0.095    25.886     8.344
    16   6 C        2.036    -0.057    32.529     9.212
    17   6 C        2.898     0.094    25.908     8.346
    18  17 Cl       0.965    -0.072   101.391    15.405
    19   6 C        2.901     0.096    25.869     8.339
    20  17 Cl       0.966    -0.061   101.051    15.379
    21   6 C        2.031    -0.073    32.989     9.276
    22   6 C        2.777     0.178    24.172     8.053
    23   9 F        0.787    -0.167    10.901     3.900
    24   6 C        2.976     0.005    27.908     8.666
    25   6 C        1.989    -0.043    32.206     9.165

 Mol. C6AA /au·bohr⁶  :      20114.485149
 Mol. C8AA /au·bohr⁸  :     598083.591147
 Mol. α(0) /au        :        222.618624


Wiberg/Mayer (AO) data.
largest (>0.10) Wiberg bond orders for each atom

 ---------------------------------------------------------------------------
     #   Z sym  total        # sym  WBO       # sym  WBO       # sym  WBO
 ---------------------------------------------------------------------------
Note: The following floating-point exceptions are signalling: IEEE_UNDERFLOW_FLAG IEEE_DENORMAL
normal termination of xtb
     1   8 O    1.798 --     2 C    1.258     3 C    0.231     5 N    0.138
     2   6 C    3.919 --     3 C    1.337     1 O    1.258     5 N    1.247
     3   6 C    3.081 --     2 C    1.337     4 Cl   1.242     1 O    0.231
                             5 N    0.112
     4  17 Cl   1.440 --     3 C    1.242
     5   7 N    3.074 --     6 C    1.327     2 C    1.247     1 O    0.138
                             3 C    0.112
     6   6 C    3.946 --     5 N    1.327    25 C    1.244     7 C    1.186
     7   6 C    3.731 --     8 C    1.843     6 C    1.186    25 C    0.184
                            11 C    0.109
     8   6 C    3.543 --     7 C    1.843     9 C    1.285    25 C    0.181
     9   6 C    3.881 --     8 C    1.285    10 N    1.191    24 C    1.155
    10   7 N    3.106 --    11 C    1.556     9 C    1.191
    11   6 C    3.818 --    12 N    1.734    10 N    1.556    14 N    0.146
                             7 C    0.109
    12   7 N    3.165 --    11 C    1.734    13 C    1.086
    13   6 C    3.947 --    14 N    1.599    12 N    1.086    24 C    1.054
    14   7 N    3.271 --    13 C    1.599    15 C    1.103    11 C    0.146
    15   6 C    3.955 --    16 C    1.443    22 C    1.176    14 N    1.103
    16   6 C    3.806 --    17 C    1.489    15 C    1.443    21 C    0.596
    17   6 C    3.909 --    16 C    1.489    19 C    1.230    18 Cl   1.006
    18  17 Cl   1.189 --    17 C    1.006
    19   6 C    3.886 --    21 C    1.468    17 C    1.230    20 Cl   1.010
    20  17 Cl   1.184 --    19 C    1.010
    21   6 C    3.807 --    22 C    1.488    19 C    1.468    16 C    0.596
    22   6 C    3.868 --    21 C    1.488    15 C    1.176    23 F    0.994
    23   9 F    1.154 --    22 C    0.994
    24   6 C    3.942 --    25 C    1.472     9 C    1.155    13 C    1.054
    25   6 C    3.471 --    24 C    1.472     6 C    1.244     7 C    0.184
                             8 C    0.181
 ---------------------------------------------------------------------------

Topologies differ in total number of bonds
Writing topology from bond orders to xtbtopo.mol

molecular dipole:
                 x           y           z       tot (Debye)
 q only:       -1.017      -0.180       0.418
   full:       -0.128      -0.365       0.252       1.172
molecular quadrupole (traceless):
                xx          xy          yy          xz          yz          zz
 q only:        6.636      16.825       6.528      -4.235      -4.799     -13.164
  q+dip:        3.651      16.973      13.491      -2.787      -0.568     -17.142
   full:        0.828      17.194      12.242      -4.428      -0.889     -13.070


           -------------------------------------------------
          | TOTAL ENERGY              -67.682308612741 Eh   |
          | GRADIENT NORM               0.353163358230 Eh/α |
          | HOMO-LUMO GAP               0.067972611995 eV   |
           -------------------------------------------------

------------------------------------------------------------------------
 * finished run on 2026/07/23 at 16:41:40.837     
------------------------------------------------------------------------
 total:
 * wall-time:     0 d,  0 h,  0 min,  0.288 sec
 *  cpu-time:     0 d,  0 h,  0 min,  0.288 sec
 * ratio c/w:     1.000 speedup
 SCF:
 * wall-time:     0 d,  0 h,  0 min,  0.269 sec
 *  cpu-time:     0 d,  0 h,  0 min,  0.271 sec
 * ratio c/w:     1.005 speedup

