      -----------------------------------------------------------      
     |                   =====================                   |     
     |                           x T B                           |     
     |                   =====================                   |     
     |                         S. Grimme                         |     
     |          Mulliken Center for Theoretical Chemistry        |     
     |                    University of Bonn                     |     
      -----------------------------------------------------------      

   * xtb version 6.6.1 (unknown) compiled by 'builduser@buildhost' on 2023-08-07

   xtb is free software: you can redistribute it and/or modify it under
   the terms of the GNU Lesser General Public License as published by
   the Free Software Foundation, either version 3 of the License, or
   (at your option) any later version.
   
   xtb is distributed in the hope that it will be useful,
   but WITHOUT ANY WARRANTY; without even the implied warranty of
   MERCHANTABILITY or FITNESS FOR A PARTICULAR PURPOSE.  See the
   GNU Lesser General Public License for more details.
   
   Cite this work as:
   * C. Bannwarth, E. Caldeweyher, S. Ehlert, A. Hansen, P. Pracht,
     J. Seibert, S. Spicher, S. Grimme, WIREs Comput. Mol. Sci., 2020, 11,
     e01493. DOI: 10.1002/wcms.1493
   
   for GFN2-xTB:
   * C. Bannwarth, S. Ehlert and S. Grimme., J. Chem. Theory Comput., 2019,
     15, 1652-1671. DOI: 10.1021/acs.jctc.8b01176
   for GFN1-xTB:
   * S. Grimme, C. Bannwarth, P. Shushkov, J. Chem. Theory Comput., 2017,
     13, 1989-2009. DOI: 10.1021/acs.jctc.7b00118
   for GFN0-xTB:
   * P. Pracht, E. Caldeweyher, S. Ehlert, S. Grimme, ChemRxiv, 2019, preprint.
     DOI: 10.26434/chemrxiv.8326202.v1
   for GFN-FF:
   * S. Spicher and S. Grimme, Angew. Chem. Int. Ed., 2020, 59, 15665-15673.
     DOI: 10.1002/anie.202004239
   
   for ALPB and GBSA implicit solvation:
   * S. Ehlert, M. Stahn, S. Spicher, S. Grimme, J. Chem. Theory Comput.,
     2021, 17, 4250-4261. DOI: 10.1021/acs.jctc.1c00471
   
   for DFT-D4:
   * E. Caldeweyher, C. Bannwarth and S. Grimme, J. Chem. Phys., 2017,
     147, 034112. DOI: 10.1063/1.4993215
   * E. Caldeweyher, S. Ehlert, A. Hansen, H. Neugebauer, S. Spicher,
     C. Bannwarth and S. Grimme, J. Chem. Phys., 2019, 150, 154122.
     DOI: 10.1063/1.5090222
   * E. Caldeweyher, J.-M. Mewes, S. Ehlert and S. Grimme, Phys. Chem. Chem. Phys.
     2020, 22, 8499-8512. DOI: 10.1039/D0CP00502A
   
   for sTDA-xTB:
   * S. Grimme and C. Bannwarth, J. Chem. Phys., 2016, 145, 054103.
     DOI: 10.1063/1.4959605
   
   in the mass-spec context:
   * V. Asgeirsson, C. Bauer and S. Grimme, Chem. Sci., 2017, 8, 4879.
     DOI: 10.1039/c7sc00601b
   * J. Koopman and S. Grimme, ACS Omega 2019, 4, 12, 15120-15133.
     DOI: 10.1021/acsomega.9b02011
   
   for metadynamics refer to:
   * S. Grimme, J. Chem. Theory Comput., 2019, 155, 2847-2862
     DOI: 10.1021/acs.jctc.9b00143
   
   for SPH calculations refer to:
   * S. Spicher and S. Grimme, J. Chem. Theory Comput., 2021, 17, 1701-1714
     DOI: 10.1021/acs.jctc.0c01306
   
   with help from (in alphabetical order)
   P. Atkinson, C. Bannwarth, F. Bohle, G. Brandenburg, E. Caldeweyher
   M. Checinski, S. Dohm, S. Ehlert, S. Ehrlich, I. Gerasimov, C. Hölzer
   A. Katbashev, J. Koopman, C. Lavigne, S. Lehtola, F. März, M. Müller,
   F. Musil, H. Neugebauer, J. Pisarek, C. Plett, P. Pracht, F. Pultar,
   J. Seibert, P. Shushkov, S. Spicher, M. Stahn, M. Steiner, T. Strunk,
   J. Stückrath, T. Rose, and J. Unsleber
   
 * started run on 2026/07/23 at 16:39:06.506     

           -------------------------------------------------
          |                Calculation Setup                |
           -------------------------------------------------

          program call               : xtb /home/selva/covalent_quantum_benchmark/data/quantum/erbB_xyz/EGFR__CHEMBL67003__state01.xyz --gfn2 --chrg 0 --uhf 0 --iterations 300
          coordinate file            : /home/selva/covalent_quantum_benchmark/data/quantum/erbB_xyz/EGFR__CHEMBL67003__state01.xyz
          omp threads                :                    24

   ID    Z sym.   atoms
    1    6 C      1-5, 8, 9, 11, 12, 14-17, 20, 22, 24, 26-31, 34-42
    2    8 O      6, 10, 18
    3    7 N      7, 13, 19, 21, 23, 25, 32, 33

           -------------------------------------------------
          |                 G F N 2 - x T B                 |
           -------------------------------------------------

        Reference                      10.1021/acs.jctc.8b01176
      * Hamiltonian:
        H0-scaling (s, p, d)           1.850000    2.230000    2.230000
        zeta-weighting                 0.500000
      * Dispersion:
        s8                             2.700000
        a1                             0.520000
        a2                             5.000000
        s9                             5.000000
      * Repulsion:
        kExp                           1.500000    1.000000
        rExp                           1.000000
      * Coulomb:
        alpha                          2.000000
        third order                    shell-resolved
        anisotropic                    true
        a3                             3.000000
        a5                             4.000000
        cn-shift                       1.200000
        cn-exp                         4.000000
        max-rad                        5.000000


          ...................................................
          :                      SETUP                      :
          :.................................................:
          :  # basis functions                 168          :
          :  # atomic orbitals                 168          :
          :  # shells                           84          :
          :  # electrons                       182          :
          :  max. iterations                   300          :
          :  Hamiltonian                  GFN2-xTB          :
          :  restarted?                      false          :
          :  GBSA solvation                  false          :
          :  PC potential                    false          :
          :  electronic temp.          300.0000000     K    :
          :  accuracy                    1.0000000          :
          :  -> integral cutoff          0.2500000E+02      :
          :  -> integral neglect         0.1000000E-07      :
          :  -> SCF convergence          0.1000000E-05 Eh   :
          :  -> wf. convergence          0.1000000E-03 e    :
          :  Broyden damping             0.4000000          :
          ...................................................

 iter      E             dE          RMSdq      gap      omega  full diag
   1    -99.8498161 -0.998498E+02  0.794E+00    0.05       0.0  T
   2    -78.9899372  0.208599E+02  0.121E+01    0.42       1.0  T
   3    -61.2197327  0.177702E+02  0.131E+01    0.10       1.0  T
   4    -78.0058899 -0.167862E+02  0.987E+00    0.23       1.0  T
   5    -83.1405142 -0.513462E+01  0.931E+00    0.34       1.0  T
   6    -97.5371405 -0.143966E+02  0.631E+00    0.04       1.0  T
   7    -98.5541360 -0.101700E+01  0.602E+00    0.17       1.0  T
   8    -98.2642059  0.289930E+00  0.530E+00    0.06       1.0  T
   9    -97.3268759  0.937330E+00  0.569E+00    0.16       1.0  T
  10    -98.6839584 -0.135708E+01  0.476E+00    0.12       1.0  T
  11   -100.6264753 -0.194252E+01  0.340E+00    0.09       1.0  T
  12   -100.6851500 -0.586747E-01  0.311E+00    0.05       1.0  T
  13   -100.6031316  0.820184E-01  0.296E+00    0.06       1.0  T
  14   -100.8604470 -0.257315E+00  0.264E+00    0.07       1.0  T
  15   -100.9467156 -0.862686E-01  0.244E+00    0.09       1.0  T
  16   -100.9473549 -0.639349E-03  0.244E+00    0.10       1.0  T
  17   -100.9611184 -0.137635E-01  0.229E+00    0.06       1.0  T
  18   -101.0383479 -0.772295E-01  0.193E+00    0.02       1.0  T
  19    -99.9231860  0.111516E+01  0.313E+00    0.05       1.0  T
  20   -100.3997710 -0.476585E+00  0.256E+00    0.08       1.0  T
  21   -100.3976644  0.210663E-02  0.257E+00    0.08       1.0  T
  22   -100.4892677 -0.916033E-01  0.245E+00    0.07       1.0  T
  23   -100.4402014  0.490663E-01  0.247E+00    0.06       1.0  T
  24   -101.1085840 -0.668383E+00  0.117E+00    0.02       1.0  T
  25   -100.9762439  0.132340E+00  0.148E+00    0.01       1.0  T
  26   -101.1537885 -0.177545E+00  0.105E+00    0.04       1.0  T
  27   -101.2075076 -0.537191E-01  0.839E-01    0.04       1.0  T
  28   -101.1996330  0.787459E-02  0.813E-01    0.03       1.0  T
  29   -101.2219637 -0.223307E-01  0.597E-01    0.05       1.0  T
  30   -101.2554448 -0.334811E-01  0.355E-01    0.04       1.0  T
  31   -101.2544261  0.101867E-02  0.327E-01    0.05       1.0  T
  32   -101.0737790  0.180647E+00  0.107E+00    0.01       1.0  T
  33   -101.0885567 -0.147778E-01  0.103E+00    0.01       1.0  T
  34   -101.0863332  0.222353E-02  0.104E+00    0.01       1.0  T
  35   -101.0239962  0.623370E-01  0.121E+00    0.00       1.0  T
  36   -101.0312842 -0.728798E-02  0.117E+00    0.01       1.0  T
  37   -101.1543592 -0.123075E+00  0.799E-01    0.02       1.0  T
  38   -101.2469617 -0.926024E-01  0.423E-01    0.05       1.0  T
  39   -101.2571021 -0.101405E-01  0.309E-01    0.05       1.0  T
  40   -101.2583323 -0.123021E-02  0.270E-01    0.05       1.0  T
  41   -101.2586747 -0.342357E-03  0.178E-01    0.05       1.0  T
  42   -101.2601556 -0.148091E-02  0.989E-02    0.05       1.0  T
  43   -101.2604607 -0.305076E-03  0.866E-02    0.04       1.0  T
  44   -101.2608308 -0.370141E-03  0.417E-02    0.04       1.0  T
  45   -101.2602242  0.606620E-03  0.912E-02    0.05       1.0  T
  46   -101.2608809 -0.656713E-03  0.390E-02    0.04       1.0  T
  47   -101.2607306  0.150315E-03  0.444E-02    0.04       1.0  T
  48   -101.2609239 -0.193277E-03  0.221E-02    0.04       1.0  T
  49   -101.2609605 -0.366332E-04  0.130E-02    0.04       1.2  T
  50   -101.2609665 -0.594815E-05  0.115E-02    0.04       1.3  T
  51   -101.2609741 -0.763654E-05  0.508E-03    0.04       3.0  T
  52   -101.2609538  0.203399E-04  0.119E-02    0.04       1.3  T
  53   -101.2609715 -0.177347E-04  0.637E-03    0.04       2.4  T
  54   -101.2609736 -0.213971E-05  0.445E-03    0.04       3.5  T
  55   -101.2609755 -0.191128E-05  0.242E-03    0.04       6.4  T
  56   -101.2609757 -0.187883E-06  0.172E-03    0.04       9.0  T
  57   -101.2609760 -0.254623E-06  0.910E-04    0.04      17.0  T
  58   -101.2609760 -0.624097E-07  0.505E-04    0.04      30.6  T

   *** convergence criteria satisfied after 58 iterations ***

         #    Occupation            Energy/Eh            Energy/eV
      -------------------------------------------------------------
         1        2.0000           -0.7712751             -20.9875
       ...           ...                  ...                  ...
        85        2.0000           -0.4364199             -11.8756
        86        1.9992           -0.4331077             -11.7855
        87        1.9844           -0.4303100             -11.7093
        88        1.8913           -0.4284230             -11.6580
        89        1.8580           -0.4281517             -11.6506
        90        1.7741           -0.4276672             -11.6374
        91        1.3821           -0.4264740             -11.6049 (HOMO)
        92        0.5785           -0.4248551             -11.5609 (LUMO)
        93        0.3801           -0.4243318             -11.5467
        94        0.1476           -0.4233058             -11.5187
        95        0.0048           -0.4199806             -11.4283
        96        0.0000           -0.4124128             -11.2223
       ...           ...                  ...                  ...
       168                          0.6425524              17.4847
      -------------------------------------------------------------
                  HL-Gap            0.0016189 Eh            0.0441 eV
             Fermi-level           -0.4257091 Eh          -11.5841 eV

 SCC (total)                   0 d,  0 h,  0 min,  1.358 sec
 SCC setup                      ...        0 min,  0.000 sec (  0.031%)
 Dispersion                     ...        0 min,  0.002 sec (  0.158%)
 classical contributions        ...        0 min,  0.001 sec (  0.075%)
 integral evaluation            ...        0 min,  0.006 sec (  0.456%)
 iterations                     ...        0 min,  1.315 sec ( 96.813%)
 molecular gradient             ...        0 min,  0.030 sec (  2.239%)
 printout                       ...        0 min,  0.003 sec (  0.222%)

         :::::::::::::::::::::::::::::::::::::::::::::::::::::
         ::                     SUMMARY                     ::
         :::::::::::::::::::::::::::::::::::::::::::::::::::::
         :: total energy            -100.093115124123 Eh    ::
         :: gradient norm              0.508820672727 Eh/a0 ::
         :: HOMO-LUMO gap              0.044052044902 eV    ::
         ::.................................................::
         :: SCC energy              -101.260976044938 Eh    ::
         :: -> isotropic ES            0.068012218993 Eh    ::
         :: -> anisotropic ES          0.013093067505 Eh    ::
         :: -> anisotropic XC          0.062158116687 Eh    ::
         :: -> dispersion             -0.064034518803 Eh    ::
         :: repulsion energy           1.167485286851 Eh    ::
         :: add. restraining           0.000000000000 Eh    ::
         :: total charge               0.000000000028 e     ::
         :::::::::::::::::::::::::::::::::::::::::::::::::::::

           -------------------------------------------------
          |                Property Printout                |
           -------------------------------------------------

    * Orbital Energies and Occupations

         #    Occupation            Energy/Eh            Energy/eV
      -------------------------------------------------------------
         1        2.0000           -0.7712751             -20.9875
       ...           ...                  ...                  ...
        79        2.0000           -0.4588903             -12.4870
        80        2.0000           -0.4494342             -12.2297
        81        2.0000           -0.4481437             -12.1946
        82        2.0000           -0.4449695             -12.1082
        83        2.0000           -0.4435166             -12.0687
        84        2.0000           -0.4367200             -11.8838
        85        2.0000           -0.4364199             -11.8756
        86        1.9992           -0.4331077             -11.7855
        87        1.9844           -0.4303100             -11.7093
        88        1.8913           -0.4284230             -11.6580
        89        1.8580           -0.4281517             -11.6506
        90        1.7741           -0.4276672             -11.6374
        91        1.3821           -0.4264740             -11.6049 (HOMO)
        92        0.5785           -0.4248551             -11.5609 (LUMO)
        93        0.3801           -0.4243318             -11.5467
        94        0.1476           -0.4233058             -11.5187
        95        0.0048           -0.4199806             -11.4283
        96        0.0000           -0.4124128             -11.2223
        97                         -0.4054069             -11.0317
        98                         -0.3997662             -10.8782
        99                         -0.3765589             -10.2467
       100                         -0.3731342             -10.1535
       101                         -0.3704919             -10.0816
       102                         -0.3614147              -9.8346
       ...                                ...                  ...
       168                          0.6425524              17.4847
      -------------------------------------------------------------
                  HL-Gap            0.0016189 Eh            0.0441 eV
             Fermi-level           -0.4257091 Eh          -11.5841 eV

     #   Z          covCN         q      C6AA      α(0)
     1   6 C        0.990    -0.088    38.766    10.463
     2   6 C        3.075     0.074    26.265     8.403
     3   6 C        2.036    -0.017    31.442     9.057
     4   6 C        3.025     0.097    25.829     8.336
     5   6 C        2.758     0.294    22.010     7.683
     6   8 O        0.858    -0.324    20.214     6.028
     7   7 N        2.729     0.028    20.763     6.768
     8   6 C        1.890    -0.063    32.820     9.253
     9   6 C        1.839     0.047    29.948     8.841
    10   8 O        1.695    -0.124    16.184     5.431
    11   6 C        1.839     0.036    30.246     8.885
    12   6 C        1.896    -0.007    31.312     9.037
    13   7 N        1.908    -0.145    24.918     7.401
    14   6 C        2.957     0.128    25.202     8.234
    15   6 C        1.973     0.027    30.376     8.900
    16   6 C        3.096     0.036    27.085     8.529
    17   6 C        2.917     0.284    22.205     7.727
    18   8 O        0.855    -0.331    20.355     6.049
    19   7 N        1.939    -0.217    26.561     7.642
    20   6 C        3.133     0.197    23.639     7.959
    21   7 N        1.828    -0.146    24.953     7.402
    22   6 C        1.985     0.178    26.796     8.360
    23   7 N        1.833    -0.157    25.184     7.437
    24   6 C        2.857     0.184    24.067     8.041
    25   7 N        1.830    -0.175    25.594     7.497
    26   6 C        2.888     0.143    24.886     8.179
    27   6 C        1.999    -0.017    31.493     9.063
    28   6 C        1.977    -0.058    32.627     9.224
    29   6 C        3.053     0.070    26.393     8.425
    30   6 C        3.065     0.030    27.266     8.563
    31   6 C        2.178     0.052    29.276     8.751
    32   7 N        1.950    -0.140    24.805     7.385
    33   7 N        3.043     0.136    18.932     6.462
    34   6 C        1.894    -0.014    31.491     9.063
    35   6 C        2.960     0.075    26.314     8.414
    36   6 C        1.989    -0.021    31.596     9.078
    37   6 C        1.985     0.003    30.976     8.988
    38   6 C        1.987     0.037    30.102     8.860
    39   6 C        1.985    -0.002    31.102     9.006
    40   6 C        1.989    -0.030    31.851     9.114
    41   6 C        1.989    -0.061    32.709     9.236
    42   6 C        3.078    -0.017    28.348     8.729

 Mol. C6AA /au·bohr⁶  :      47527.859494
 Mol. C8AA /au·bohr⁸  :    1286987.737977
 Mol. α(0) /au        :        345.902931


Wiberg/Mayer (AO) data.
largest (>0.10) Wiberg bond orders for each atom

 ---------------------------------------------------------------------------
     #   Z sym  total        # sym  WBO       # sym  WBO       # sym  WBO
 ---------------------------------------------------------------------------
     1   6 C    2.479 --     2 C    1.834    13 N    0.197     3 C    0.164
     2   6 C    3.952 --     1 C    1.834     3 C    1.101    14 C    0.900
     3   6 C    3.181 --     4 C    1.442     2 C    1.101    15 C    0.186
                             1 C    0.164
     4   6 C    3.920 --     3 C    1.442    13 N    1.276     5 C    0.974
     5   6 C    3.947 --     6 O    1.758     7 N    1.101     4 C    0.974
     6   8 O    2.095 --     5 C    1.758     7 N    0.115
     7   7 N    3.634 --     8 C    1.194     5 C    1.101    12 C    1.045
                             6 O    0.115
     8   6 C    3.100 --     9 C    1.341     7 N    1.194    12 C    0.234
                            11 C    0.155
     9   6 C    2.882 --     8 C    1.341    10 O    1.092    11 C    0.203
                            12 C    0.145
    10   8 O    2.495 --    11 C    1.212     9 C    1.092
    11   6 C    3.060 --    12 C    1.375    10 O    1.212     9 C    0.203
                             8 C    0.155
    12   6 C    2.923 --    11 C    1.375     7 N    1.045     8 C    0.234
                             9 C    0.145
    13   7 N    3.033 --    14 C    1.277     4 C    1.276     1 C    0.197
    14   6 C    3.949 --    15 C    1.554    13 N    1.277     2 C    0.900
    15   6 C    3.787 --    14 C    1.554    16 C    1.508     3 C    0.186
                            19 N    0.115    18 O    0.112
    16   6 C    3.941 --    15 C    1.508    42 C    1.177    17 C    1.027
    17   6 C    3.937 --    18 O    1.571    19 N    1.217    16 C    1.027
    18   8 O    1.978 --    17 C    1.571    15 C    0.112
    19   7 N    3.000 --    20 C    1.302    17 C    1.217    15 C    0.115
Note: The following floating-point exceptions are signalling: IEEE_UNDERFLOW_FLAG IEEE_DENORMAL
normal termination of xtb
    20   6 C    3.939 --    19 N    1.302    21 N    1.232    42 C    1.166
    21   7 N    3.148 --    22 C    1.570    20 C    1.232
    22   6 C    3.720 --    23 N    1.707    21 N    1.570    25 N    0.188
    23   7 N    3.200 --    22 C    1.707    24 C    1.158
    24   6 C    3.933 --    25 N    1.332    42 C    1.234    23 N    1.158
    25   7 N    3.167 --    24 C    1.332    26 C    1.244    22 C    0.188
    26   6 C    3.909 --    41 C    1.268    27 C    1.248    25 N    1.244
    27   6 C    3.679 --    28 C    1.691    26 C    1.248    41 C    0.305
    28   6 C    3.667 --    27 C    1.691    29 C    1.334    31 C    0.222
                            41 C    0.197
    29   6 C    3.898 --    28 C    1.334    33 N    1.154    30 C    1.101
    30   6 C    3.922 --    41 C    1.383    31 C    1.234    29 C    1.101
    31   6 C    3.449 --    32 N    1.626    30 C    1.234    28 C    0.222
                            34 C    0.115
    32   7 N    3.019 --    31 C    1.626    33 N    1.110
    33   7 N    3.616 --    29 C    1.154    34 C    1.154    32 N    1.110
    34   6 C    2.986 --    33 N    1.154    35 C    1.116    31 C    0.115
    35   6 C    3.885 --    36 C    1.289    40 C    1.287    34 C    1.116
    36   6 C    3.488 --    37 C    1.600    35 C    1.289    39 C    0.220
                            38 C    0.187
    37   6 C    3.618 --    38 C    1.617    36 C    1.600    40 C    0.229
    38   6 C    3.729 --    37 C    1.617    39 C    1.594    36 C    0.187
                            40 C    0.178
    39   6 C    3.584 --    40 C    1.595    38 C    1.594    36 C    0.220
    40   6 C    3.513 --    39 C    1.595    35 C    1.287    37 C    0.229
                            38 C    0.178
    41   6 C    3.449 --    30 C    1.383    26 C    1.268    27 C    0.305
                            28 C    0.197
    42   6 C    3.909 --    24 C    1.234    16 C    1.177    20 C    1.166
 ---------------------------------------------------------------------------

Topologies differ in total number of bonds
Writing topology from bond orders to xtbtopo.mol

molecular dipole:
                 x           y           z       tot (Debye)
 q only:        2.655      -1.486      -0.344
   full:        2.747      -1.807      -0.345       8.403
molecular quadrupole (traceless):
                xx          xy          yy          xz          yz          zz
 q only:        0.751      15.379       3.973       2.773     -13.910      -4.725
  q+dip:       -0.373      20.740       7.972       8.938     -19.553      -7.599
   full:       -0.267      19.730       7.506       7.031     -24.744      -7.239


           -------------------------------------------------
          | TOTAL ENERGY             -100.093115124123 Eh   |
          | GRADIENT NORM               0.508820672727 Eh/α |
          | HOMO-LUMO GAP               0.044052044902 eV   |
           -------------------------------------------------

------------------------------------------------------------------------
 * finished run on 2026/07/23 at 16:39:07.889     
------------------------------------------------------------------------
 total:
 * wall-time:     0 d,  0 h,  0 min,  1.383 sec
 *  cpu-time:     0 d,  0 h,  0 min,  1.336 sec
 * ratio c/w:     0.966 speedup
 SCF:
 * wall-time:     0 d,  0 h,  0 min,  1.359 sec
 *  cpu-time:     0 d,  0 h,  0 min,  1.300 sec
 * ratio c/w:     0.957 speedup

