      -----------------------------------------------------------      
     |                   =====================                   |     
     |                           x T B                           |     
     |                   =====================                   |     
     |                         S. Grimme                         |     
     |          Mulliken Center for Theoretical Chemistry        |     
     |                    University of Bonn                     |     
      -----------------------------------------------------------      

   * xtb version 6.6.1 (unknown) compiled by 'builduser@buildhost' on 2023-08-07

   xtb is free software: you can redistribute it and/or modify it under
   the terms of the GNU Lesser General Public License as published by
   the Free Software Foundation, either version 3 of the License, or
   (at your option) any later version.
   
   xtb is distributed in the hope that it will be useful,
   but WITHOUT ANY WARRANTY; without even the implied warranty of
   MERCHANTABILITY or FITNESS FOR A PARTICULAR PURPOSE.  See the
   GNU Lesser General Public License for more details.
   
   Cite this work as:
   * C. Bannwarth, E. Caldeweyher, S. Ehlert, A. Hansen, P. Pracht,
     J. Seibert, S. Spicher, S. Grimme, WIREs Comput. Mol. Sci., 2020, 11,
     e01493. DOI: 10.1002/wcms.1493
   
   for GFN2-xTB:
   * C. Bannwarth, S. Ehlert and S. Grimme., J. Chem. Theory Comput., 2019,
     15, 1652-1671. DOI: 10.1021/acs.jctc.8b01176
   for GFN1-xTB:
   * S. Grimme, C. Bannwarth, P. Shushkov, J. Chem. Theory Comput., 2017,
     13, 1989-2009. DOI: 10.1021/acs.jctc.7b00118
   for GFN0-xTB:
   * P. Pracht, E. Caldeweyher, S. Ehlert, S. Grimme, ChemRxiv, 2019, preprint.
     DOI: 10.26434/chemrxiv.8326202.v1
   for GFN-FF:
   * S. Spicher and S. Grimme, Angew. Chem. Int. Ed., 2020, 59, 15665-15673.
     DOI: 10.1002/anie.202004239
   
   for ALPB and GBSA implicit solvation:
   * S. Ehlert, M. Stahn, S. Spicher, S. Grimme, J. Chem. Theory Comput.,
     2021, 17, 4250-4261. DOI: 10.1021/acs.jctc.1c00471
   
   for DFT-D4:
   * E. Caldeweyher, C. Bannwarth and S. Grimme, J. Chem. Phys., 2017,
     147, 034112. DOI: 10.1063/1.4993215
   * E. Caldeweyher, S. Ehlert, A. Hansen, H. Neugebauer, S. Spicher,
     C. Bannwarth and S. Grimme, J. Chem. Phys., 2019, 150, 154122.
     DOI: 10.1063/1.5090222
   * E. Caldeweyher, J.-M. Mewes, S. Ehlert and S. Grimme, Phys. Chem. Chem. Phys.
     2020, 22, 8499-8512. DOI: 10.1039/D0CP00502A
   
   for sTDA-xTB:
   * S. Grimme and C. Bannwarth, J. Chem. Phys., 2016, 145, 054103.
     DOI: 10.1063/1.4959605
   
   in the mass-spec context:
   * V. Asgeirsson, C. Bauer and S. Grimme, Chem. Sci., 2017, 8, 4879.
     DOI: 10.1039/c7sc00601b
   * J. Koopman and S. Grimme, ACS Omega 2019, 4, 12, 15120-15133.
     DOI: 10.1021/acsomega.9b02011
   
   for metadynamics refer to:
   * S. Grimme, J. Chem. Theory Comput., 2019, 155, 2847-2862
     DOI: 10.1021/acs.jctc.9b00143
   
   for SPH calculations refer to:
   * S. Spicher and S. Grimme, J. Chem. Theory Comput., 2021, 17, 1701-1714
     DOI: 10.1021/acs.jctc.0c01306
   
   with help from (in alphabetical order)
   P. Atkinson, C. Bannwarth, F. Bohle, G. Brandenburg, E. Caldeweyher
   M. Checinski, S. Dohm, S. Ehlert, S. Ehrlich, I. Gerasimov, C. Hölzer
   A. Katbashev, J. Koopman, C. Lavigne, S. Lehtola, F. März, M. Müller,
   F. Musil, H. Neugebauer, J. Pisarek, C. Plett, P. Pracht, F. Pultar,
   J. Seibert, P. Shushkov, S. Spicher, M. Stahn, M. Steiner, T. Strunk,
   J. Stückrath, T. Rose, and J. Unsleber
   
 * started run on 2026/07/23 at 16:39:37.143     

           -------------------------------------------------
          |                Calculation Setup                |
           -------------------------------------------------

          program call               : xtb /home/selva/covalent_quantum_benchmark/data/quantum/erbB_xyz/ERBB2__CHEMBL109480__state02.xyz --gfn2 --chrg 0 --uhf 0 --iterations 300
          coordinate file            : /home/selva/covalent_quantum_benchmark/data/quantum/erbB_xyz/ERBB2__CHEMBL109480__state02.xyz
          omp threads                :                    24

   ID    Z sym.   atoms
    1    6 C      1-3, 5, 6, 8, 9, 11, 13-18, 20, 21, 23, 26-31, 33, 35-41
    2    7 N      4, 10, 24
    3    8 O      7, 12, 19, 22, 25, 32, 34, 42

           -------------------------------------------------
          |                 G F N 2 - x T B                 |
           -------------------------------------------------

        Reference                      10.1021/acs.jctc.8b01176
      * Hamiltonian:
        H0-scaling (s, p, d)           1.850000    2.230000    2.230000
        zeta-weighting                 0.500000
      * Dispersion:
        s8                             2.700000
        a1                             0.520000
        a2                             5.000000
        s9                             5.000000
      * Repulsion:
        kExp                           1.500000    1.000000
        rExp                           1.000000
      * Coulomb:
        alpha                          2.000000
        third order                    shell-resolved
        anisotropic                    true
        a3                             3.000000
        a5                             4.000000
        cn-shift                       1.200000
        cn-exp                         4.000000
        max-rad                        5.000000


          ...................................................
          :                      SETUP                      :
          :.................................................:
          :  # basis functions                 168          :
          :  # atomic orbitals                 168          :
          :  # shells                           84          :
          :  # electrons                       187          :
          :  max. iterations                   300          :
          :  Hamiltonian                  GFN2-xTB          :
          :  restarted?                      false          :
          :  GBSA solvation                  false          :
          :  PC potential                    false          :
          :  electronic temp.          300.0000000     K    :
          :  accuracy                    1.0000000          :
          :  -> integral cutoff          0.2500000E+02      :
          :  -> integral neglect         0.1000000E-07      :
          :  -> SCF convergence          0.1000000E-05 Eh   :
          :  -> wf. convergence          0.1000000E-03 e    :
          :  Broyden damping             0.4000000          :
          ...................................................

 iter      E             dE          RMSdq      gap      omega  full diag
   1   -103.5705139 -0.103571E+03  0.108E+01    0.12       0.0  T
   2    -61.5360138  0.420345E+02  0.173E+01    0.14       1.0  T
   3    -33.1303478  0.284057E+02  0.163E+01    0.06       1.0  T
   4    -61.5950072 -0.284647E+02  0.134E+01    0.09       1.0  T
   5    -96.9960700 -0.354011E+02  0.965E+00    0.07       1.0  T
   6   -102.4669977 -0.547093E+01  0.777E+00    0.08       1.0  T
   7   -100.2039101  0.226309E+01  0.814E+00    0.04       1.0  T
   8   -101.5874976 -0.138359E+01  0.685E+00    0.13       1.0  T
   9   -103.5905733 -0.200308E+01  0.583E+00    0.13       1.0  T
  10   -101.8547061  0.173587E+01  0.607E+00    0.12       1.0  T
  11   -102.7306891 -0.875983E+00  0.561E+00    0.09       1.0  T
  12   -102.7312972 -0.608179E-03  0.539E+00    0.23       1.0  T
  13   -101.9358552  0.795442E+00  0.549E+00    0.10       1.0  T
  14   -101.7754468  0.160408E+00  0.581E+00    0.07       1.0  T
  15   -104.3987112 -0.262326E+01  0.374E+00    0.04       1.0  T
  16   -104.1096260  0.289085E+00  0.388E+00    0.06       1.0  T
  17   -105.2136691 -0.110404E+01  0.288E+00    0.07       1.0  T
  18   -104.8742320  0.339437E+00  0.330E+00    0.15       1.0  T
  19   -105.3558576 -0.481626E+00  0.263E+00    0.07       1.0  T
  20   -104.8329761  0.522882E+00  0.329E+00    0.12       1.0  T
  21   -104.8383732 -0.539708E-02  0.328E+00    0.12       1.0  T
  22   -105.4802759 -0.641903E+00  0.239E+00    0.02       1.0  T
  23   -105.5307320 -0.504561E-01  0.227E+00    0.02       1.0  T
  24   -105.5108679  0.198641E-01  0.217E+00    0.03       1.0  T
  25   -105.6147064 -0.103838E+00  0.186E+00    0.00       1.0  T
  26   -105.6099425  0.476389E-02  0.187E+00    0.01       1.0  T
  27   -104.5548446  0.105510E+01  0.377E+00    0.11       1.0  T
  28   -104.3190142  0.235830E+00  0.383E+00    0.04       1.0  T
  29   -104.3583611 -0.393469E-01  0.379E+00    0.04       1.0  T
  30   -103.4343312  0.924030E+00  0.470E+00    0.02       1.0  T
  31   -104.1141662 -0.679835E+00  0.416E+00    0.06       1.0  T
  32   -104.3916661 -0.277500E+00  0.379E+00    0.05       1.0  T
  33   -104.9482527 -0.556587E+00  0.300E+00    0.02       1.0  T
  34   -104.6212768  0.326976E+00  0.338E+00    0.05       1.0  T
  35   -104.9911117 -0.369835E+00  0.275E+00    0.01       1.0  T
  36   -105.2826595 -0.291548E+00  0.220E+00    0.04       1.0  T
  37   -105.3748639 -0.922044E-01  0.201E+00    0.05       1.0  T
  38   -104.6299639  0.744900E+00  0.332E+00    0.06       1.0  T
  39   -104.7806203 -0.150656E+00  0.308E+00    0.05       1.0  T
  40   -104.6757669  0.104853E+00  0.321E+00    0.07       1.0  T
  41   -105.7651368 -0.108937E+01  0.554E-01    0.00       1.0  T
  42   -105.6712017  0.939351E-01  0.903E-01    0.04       1.0  T
  43   -105.7035581 -0.323564E-01  0.766E-01    0.03       1.0  T
  44   -105.7077448 -0.418670E-02  0.776E-01    0.03       1.0  T
  45   -105.7683931 -0.606483E-01  0.298E-01    0.00       1.0  T
  46   -105.7644952  0.389797E-02  0.428E-01    0.02       1.0  T
  47   -105.7596176  0.487761E-02  0.485E-01    0.03       1.0  T
  48   -105.7698910 -0.102734E-01  0.336E-01    0.02       1.0  T
  49   -105.7700620 -0.171039E-03  0.312E-01    0.02       1.0  T
  50   -105.7558320  0.142300E-01  0.492E-01    0.03       1.0  T
  51   -105.7663955 -0.105636E-01  0.362E-01    0.02       1.0  T
  52   -105.7725074 -0.611186E-02  0.213E-01    0.01       1.0  T
  53   -105.7702732  0.223423E-02  0.212E-01    0.00       1.0  T
  54   -105.7652326  0.504055E-02  0.271E-01    0.01       1.0  T
  55   -105.7700325 -0.479983E-02  0.199E-01    0.00       1.0  T
  56   -105.7705319 -0.499423E-03  0.191E-01    0.01       1.0  T
  57   -105.7719506 -0.141871E-02  0.161E-01    0.01       1.0  T
  58   -105.7731066 -0.115605E-02  0.138E-01    0.02       1.0  T
  59   -105.7737414 -0.634726E-03  0.101E-01    0.01       1.0  T
  60   -105.7733887  0.352716E-03  0.103E-01    0.01       1.0  T
  61   -105.7740043 -0.615642E-03  0.772E-02    0.01       1.0  T
  62   -105.7740307 -0.263514E-04  0.728E-02    0.01       1.0  T
  63   -105.7741600 -0.129389E-03  0.575E-02    0.01       1.0  T
  64   -105.7742405 -0.804789E-04  0.480E-02    0.01       1.0  T
  65   -105.7743006 -0.600733E-04  0.346E-02    0.01       1.0  T
  66   -105.7743430 -0.424440E-04  0.252E-02    0.01       1.0  T
  67   -105.7743668 -0.237947E-04  0.165E-02    0.01       1.0  T
  68   -105.7743712 -0.434711E-05  0.147E-02    0.01       1.0  T
  69   -105.7743657  0.545861E-05  0.151E-02    0.01       1.0  T
  70   -105.7743774 -0.116434E-04  0.782E-03    0.01       2.0  T
  71   -105.7743779 -0.587479E-06  0.640E-03    0.01       2.4  T
  72   -105.7743788 -0.899960E-06  0.311E-03    0.01       5.0  T
  73   -105.7743761  0.273121E-05  0.540E-03    0.01       2.9  T
  74   -105.7743769 -0.805127E-06  0.443E-03    0.01       3.5  T
  75   -105.7743785 -0.152968E-05  0.250E-03    0.01       6.2  T
  76   -105.7743789 -0.440991E-06  0.151E-03    0.01      10.2  T
  77   -105.7743790 -0.982616E-07  0.111E-03    0.01      13.9  T
  78   -105.7743791 -0.121254E-06  0.524E-04    0.01      29.5  T
  79   -105.7743791 -0.161128E-07  0.348E-04    0.01      44.3  T

   *** convergence criteria satisfied after 79 iterations ***

         #    Occupation            Energy/Eh            Energy/eV
      -------------------------------------------------------------
         1        2.0000           -0.8388996             -22.8276
       ...           ...                  ...                  ...
        88        2.0000           -0.4616007             -12.5608
        89        2.0000           -0.4596003             -12.5064
        90        1.9993           -0.4564300             -12.4201
        91        1.9944           -0.4543841             -12.3644
        92        1.8666           -0.4512884             -12.2802
        93        1.6280           -0.4501316             -12.2487
        94        0.7870           -0.4480954             -12.1933 (HOMO)
        95        0.5915           -0.4476304             -12.1806 (LUMO)
        96        0.0989           -0.4455328             -12.1236
        97        0.0280           -0.4442846             -12.0896
        98        0.0053           -0.4426920             -12.0463
        99        0.0010           -0.4410619             -12.0019
       ...           ...                  ...                  ...
       168                          0.6107150              16.6184
      -------------------------------------------------------------
                  HL-Gap            0.0004649 Eh            0.0127 eV
             Fermi-level           -0.4485649 Eh          -12.2061 eV

 SCC (total)                   0 d,  0 h,  0 min,  1.575 sec
 SCC setup                      ...        0 min,  0.004 sec (  0.225%)
 Dispersion                     ...        0 min,  0.002 sec (  0.102%)
 classical contributions        ...        0 min,  0.001 sec (  0.039%)
 integral evaluation            ...        0 min,  0.011 sec (  0.730%)
 iterations                     ...        0 min,  1.523 sec ( 96.713%)
 molecular gradient             ...        0 min,  0.025 sec (  1.559%)
 printout                       ...        0 min,  0.010 sec (  0.629%)

         :::::::::::::::::::::::::::::::::::::::::::::::::::::
         ::                     SUMMARY                     ::
         :::::::::::::::::::::::::::::::::::::::::::::::::::::
         :: total energy            -104.931489437660 Eh    ::
         :: gradient norm              0.717216553554 Eh/a0 ::
         :: HOMO-LUMO gap              0.012651849656 eV    ::
         ::.................................................::
         :: SCC energy              -105.774379129694 Eh    ::
         :: -> isotropic ES            0.082909963860 Eh    ::
         :: -> anisotropic ES         -0.006267764139 Eh    ::
         :: -> anisotropic XC          0.057550351527 Eh    ::
         :: -> dispersion             -0.065860621859 Eh    ::
         :: repulsion energy           0.841557792645 Eh    ::
         :: add. restraining           0.000000000000 Eh    ::
         :: total charge              -0.000000000000 e     ::
         :::::::::::::::::::::::::::::::::::::::::::::::::::::

           -------------------------------------------------
          |                Property Printout                |
           -------------------------------------------------

    * Orbital Energies and Occupations

         #    Occupation            Energy/Eh            Energy/eV
      -------------------------------------------------------------
         1        2.0000           -0.8388996             -22.8276
       ...           ...                  ...                  ...
        82        2.0000           -0.4829028             -13.1405
        83        2.0000           -0.4741891             -12.9033
        84        2.0000           -0.4717380             -12.8366
        85        2.0000           -0.4654380             -12.6652
        86        2.0000           -0.4647380             -12.6462
        87        2.0000           -0.4621823             -12.5766
        88        2.0000           -0.4616007             -12.5608
        89        2.0000           -0.4596003             -12.5064
        90        1.9993           -0.4564300             -12.4201
        91        1.9944           -0.4543841             -12.3644
        92        1.8666           -0.4512884             -12.2802
        93        1.6280           -0.4501316             -12.2487
        94        0.7870           -0.4480954             -12.1933 (HOMO)
        95        0.5915           -0.4476304             -12.1806 (LUMO)
        96        0.0989           -0.4455328             -12.1236
        97        0.0280           -0.4442846             -12.0896
        98        0.0053           -0.4426920             -12.0463
        99        0.0010           -0.4410619             -12.0019
       100        0.0000           -0.4379993             -11.9186
       101        0.0000           -0.4363469             -11.8736
       102        0.0000           -0.4359351             -11.8624
       103        0.0000           -0.4342330             -11.8161
       104                         -0.4317101             -11.7474
       105                         -0.4275592             -11.6345
       ...                                ...                  ...
       168                          0.6107150              16.6184
      -------------------------------------------------------------
                  HL-Gap            0.0004649 Eh            0.0127 eV
             Fermi-level           -0.4485649 Eh          -12.2061 eV

     #   Z          covCN         q      C6AA      α(0)
     1   6 C        0.984    -0.078    38.384    10.407
     2   6 C        1.963     0.053    29.722     8.804
     3   6 C        1.901     0.061    29.561     8.781
     4   7 N        1.829    -0.057    23.074     7.118
     5   6 C        2.888     0.099    25.796     8.327
     6   6 C        2.821     0.238    23.022     7.862
     7   8 O        0.858    -0.272    19.276     5.886
     8   6 C        1.988    -0.035    31.972     9.131
     9   6 C        2.922     0.139    24.972     8.195
    10   7 N        1.843    -0.196    26.072     7.567
    11   6 C        2.802     0.310    21.738     7.638
    12   8 O        0.856    -0.392    21.520     6.220
    13   6 C        2.943     0.114    25.495     8.281
    14   6 C        0.980    -0.024    36.648    10.168
    15   6 C        1.989     0.047    29.862     8.825
    16   6 C        1.964     0.039    30.064     8.855
    17   6 C        1.964     0.040    30.037     8.851
    18   6 C        2.813     0.107    25.623     8.293
    19   8 O        1.696    -0.029    14.868     5.206
    20   6 C        0.869     0.008    34.919     9.867
    21   6 C        2.816     0.135    25.038     8.199
    22   8 O        1.706    -0.210    17.490     5.647
    23   6 C        2.643     0.425    19.864     7.291
    24   7 N        0.918    -0.187    25.013     7.229
    25   8 O        0.858    -0.362    20.942     6.136
    26   6 C        2.930     0.112    25.536     8.287
    27   6 C        0.981    -0.038    37.088    10.229
    28   6 C        1.963     0.035    30.183     8.872
    29   6 C        2.921     0.080    26.220     8.397
    30   6 C        0.976    -0.064    37.863    10.333
    31   6 C        2.793     0.180    24.124     8.046
    32   8 O        0.847    -0.331    20.361     6.050
    33   6 C        2.810     0.099    25.798     8.322
    34   8 O        1.696    -0.069    15.409     5.300
    35   6 C        0.867     0.005    35.003     9.878
    36   6 C        1.950    -0.015    31.479     9.061
    37   6 C        2.919     0.099    25.815     8.332
    38   6 C        0.981    -0.028    36.766    10.185
    39   6 C        1.956     0.011    30.784     8.960
    40   6 C        2.947     0.032    27.292     8.568
    41   6 C        2.838     0.221    23.352     7.919
    42   8 O        0.854    -0.301    19.802     5.966

 Mol. C6AA /au·bohr⁶  :      46364.827555
 Mol. C8AA /au·bohr⁸  :    1249082.110267
 Mol. α(0) /au        :        341.488385


Wiberg/Mayer (AO) data.
largest (>0.10) Wiberg bond orders for each atom

 ---------------------------------------------------------------------------
     #   Z sym  total        # sym  WBO       # sym  WBO       # sym  WBO
 ---------------------------------------------------------------------------
     1   6 C    2.537 --     2 C    2.108     3 C    0.313
     2   6 C    3.751 --     1 C    2.108     3 C    1.469
     3   6 C    3.410 --     2 C    1.469     4 N    1.340     1 C    0.313
     4   7 N    3.371 --     5 C    1.648     3 C    1.340
     5   6 C    3.934 --     4 N    1.648    40 C    1.073     6 C    0.856
     6   6 C    3.931 --     7 O    1.774     8 C    1.151     5 C    0.856
     7   8 O    2.155 --     6 C    1.774     8 C    0.111
     8   6 C    3.584 --     9 C    1.635     6 C    1.151    42 O    0.180
                            10 N    0.129     7 O    0.111
     9   6 C    3.951 --     8 C    1.635    10 N    1.223    41 C    0.910
    10   7 N    3.212 --    11 C    1.476     9 C    1.223    12 O    0.168
                             8 C    0.129
    11   6 C    3.939 --    10 N    1.476    12 O    1.459    13 C    0.852
    12   8 O    2.027 --    11 C    1.459    14 C    0.230    10 N    0.168
    13   6 C    3.965 --    14 C    1.571    15 C    1.429    11 C    0.852
    14   6 C    2.344 --    13 C    1.571    12 O    0.230    15 C    0.188
                            16 C    0.130
    15   6 C    3.763 --    16 C    1.818    13 C    1.429    14 C    0.188
    16   6 C    3.835 --    15 C    1.818    17 C    1.740    14 C    0.130
    17   6 C    3.779 --    16 C    1.740    18 C    1.466    20 C    0.166
    18   6 C    3.721 --    17 C    1.466    21 C    1.064    19 O    0.911
    19   8 O    2.655 --    20 C    1.650    18 C    0.911
    20   6 C    2.363 --    19 O    1.650    21 C    0.309    17 C    0.166
    21   6 C    3.768 --    18 C    1.064    22 O    1.053    26 C    0.977
                            20 C    0.309    24 N    0.119
    22   8 O    2.370 --    21 C    1.053    23 C    0.993    25 O    0.125
    23   6 C    3.902 --    25 O    1.560    24 N    1.319    22 O    0.993
    24   7 N    1.738 --    23 C    1.319    25 O    0.208    21 C    0.119
    25   8 O    1.941 --    23 C    1.560    24 N    0.208    22 O    0.125
    26   6 C    3.965 --    28 C    1.492    27 C    1.381    21 C    0.977
    27   6 C    2.420 --    26 C    1.381    28 C    0.446    30 C    0.306
    28   6 C    3.635 --    26 C    1.492    29 C    1.153    27 C    0.446
                            30 C    0.350
    29   6 C    3.889 --    30 C    1.641    28 C    1.153    31 C    0.923
    30   6 C    2.630 --    29 C    1.641    28 C    0.350    27 C    0.306
                            31 C    0.110    32 O    0.105
    31   6 C    3.852 --    32 O    1.631    33 C    0.988    29 C    0.923
                            30 C    0.110
    32   8 O    2.090 --    31 C    1.631    30 C    0.105
    33   6 C    3.705 --    36 C    1.412    31 C    0.988    34 O    0.919
                            35 C    0.155    38 C    0.109
    34   8 O    2.636 --    35 C    1.625    33 C    0.919
    35   6 C    2.535 --    34 O    1.625    36 C    0.481    33 C    0.155
    36   6 C    3.456 --    33 C    1.412    37 C    1.122    35 C    0.481
                            38 C    0.148
    37   6 C    3.877 --    38 C    1.515    39 C    1.138    36 C    1.122
    38   6 C    2.215 --    37 C    1.515    39 C    0.173    36 C    0.148
                            33 C    0.109
    39   6 C    3.230 --    40 C    1.286    37 C    1.138    38 C    0.173
    40   6 C    3.908 --    39 C    1.286    41 C    1.285     5 C    1.073
    41   6 C    3.905 --    42 O    1.531    40 C    1.285     9 C    0.910
    42   8 O    2.034 --    41 C    1.531     8 C    0.180
 ---------------------------------------------------------------------------

Topologies differ in total number of bonds
Writing topology from bond orders to xtbtopo.mol

molecular dipole:
                 x           y           z       tot (Debye)
 q only:        1.937       0.629       1.381
   full:        2.101       1.074       0.565       6.166
molecular quadrupole (traceless):
                xx          xy          yy          xz          yz          zz
 q only:        4.855      -1.555      -5.511     -17.185     -21.070       0.656
  q+dip:        7.381      -5.073       4.005     -13.299     -21.027     -11.386
   full:        9.384      -7.448       5.744     -12.347     -19.389     -15.128


           -------------------------------------------------
          | TOTAL ENERGY             -104.931489437660 Eh   |
Note: The following floating-point exceptions are signalling: IEEE_UNDERFLOW_FLAG IEEE_DENORMAL
normal termination of xtb
          | GRADIENT NORM               0.717216553554 Eh/α |
          | HOMO-LUMO GAP               0.012651849656 eV   |
           -------------------------------------------------

------------------------------------------------------------------------
 * finished run on 2026/07/23 at 16:39:38.736     
------------------------------------------------------------------------
 total:
 * wall-time:     0 d,  0 h,  0 min,  1.593 sec
 *  cpu-time:     0 d,  0 h,  0 min,  1.557 sec
 * ratio c/w:     0.978 speedup
 SCF:
 * wall-time:     0 d,  0 h,  0 min,  1.575 sec
 *  cpu-time:     0 d,  0 h,  0 min,  1.534 sec
 * ratio c/w:     0.974 speedup

