      -----------------------------------------------------------      
     |                   =====================                   |     
     |                           x T B                           |     
     |                   =====================                   |     
     |                         S. Grimme                         |     
     |          Mulliken Center for Theoretical Chemistry        |     
     |                    University of Bonn                     |     
      -----------------------------------------------------------      

   * xtb version 6.6.1 (unknown) compiled by 'builduser@buildhost' on 2023-08-07

   xtb is free software: you can redistribute it and/or modify it under
   the terms of the GNU Lesser General Public License as published by
   the Free Software Foundation, either version 3 of the License, or
   (at your option) any later version.
   
   xtb is distributed in the hope that it will be useful,
   but WITHOUT ANY WARRANTY; without even the implied warranty of
   MERCHANTABILITY or FITNESS FOR A PARTICULAR PURPOSE.  See the
   GNU Lesser General Public License for more details.
   
   Cite this work as:
   * C. Bannwarth, E. Caldeweyher, S. Ehlert, A. Hansen, P. Pracht,
     J. Seibert, S. Spicher, S. Grimme, WIREs Comput. Mol. Sci., 2020, 11,
     e01493. DOI: 10.1002/wcms.1493
   
   for GFN2-xTB:
   * C. Bannwarth, S. Ehlert and S. Grimme., J. Chem. Theory Comput., 2019,
     15, 1652-1671. DOI: 10.1021/acs.jctc.8b01176
   for GFN1-xTB:
   * S. Grimme, C. Bannwarth, P. Shushkov, J. Chem. Theory Comput., 2017,
     13, 1989-2009. DOI: 10.1021/acs.jctc.7b00118
   for GFN0-xTB:
   * P. Pracht, E. Caldeweyher, S. Ehlert, S. Grimme, ChemRxiv, 2019, preprint.
     DOI: 10.26434/chemrxiv.8326202.v1
   for GFN-FF:
   * S. Spicher and S. Grimme, Angew. Chem. Int. Ed., 2020, 59, 15665-15673.
     DOI: 10.1002/anie.202004239
   
   for ALPB and GBSA implicit solvation:
   * S. Ehlert, M. Stahn, S. Spicher, S. Grimme, J. Chem. Theory Comput.,
     2021, 17, 4250-4261. DOI: 10.1021/acs.jctc.1c00471
   
   for DFT-D4:
   * E. Caldeweyher, C. Bannwarth and S. Grimme, J. Chem. Phys., 2017,
     147, 034112. DOI: 10.1063/1.4993215
   * E. Caldeweyher, S. Ehlert, A. Hansen, H. Neugebauer, S. Spicher,
     C. Bannwarth and S. Grimme, J. Chem. Phys., 2019, 150, 154122.
     DOI: 10.1063/1.5090222
   * E. Caldeweyher, J.-M. Mewes, S. Ehlert and S. Grimme, Phys. Chem. Chem. Phys.
     2020, 22, 8499-8512. DOI: 10.1039/D0CP00502A
   
   for sTDA-xTB:
   * S. Grimme and C. Bannwarth, J. Chem. Phys., 2016, 145, 054103.
     DOI: 10.1063/1.4959605
   
   in the mass-spec context:
   * V. Asgeirsson, C. Bauer and S. Grimme, Chem. Sci., 2017, 8, 4879.
     DOI: 10.1039/c7sc00601b
   * J. Koopman and S. Grimme, ACS Omega 2019, 4, 12, 15120-15133.
     DOI: 10.1021/acsomega.9b02011
   
   for metadynamics refer to:
   * S. Grimme, J. Chem. Theory Comput., 2019, 155, 2847-2862
     DOI: 10.1021/acs.jctc.9b00143
   
   for SPH calculations refer to:
   * S. Spicher and S. Grimme, J. Chem. Theory Comput., 2021, 17, 1701-1714
     DOI: 10.1021/acs.jctc.0c01306
   
   with help from (in alphabetical order)
   P. Atkinson, C. Bannwarth, F. Bohle, G. Brandenburg, E. Caldeweyher
   M. Checinski, S. Dohm, S. Ehlert, S. Ehrlich, I. Gerasimov, C. Hölzer
   A. Katbashev, J. Koopman, C. Lavigne, S. Lehtola, F. März, M. Müller,
   F. Musil, H. Neugebauer, J. Pisarek, C. Plett, P. Pracht, F. Pultar,
   J. Seibert, P. Shushkov, S. Spicher, M. Stahn, M. Steiner, T. Strunk,
   J. Stückrath, T. Rose, and J. Unsleber
   
 * started run on 2026/07/23 at 16:41:30.457     

           -------------------------------------------------
          |                Calculation Setup                |
           -------------------------------------------------

          program call               : xtb /home/selva/covalent_quantum_benchmark/data/quantum/erbB_xyz/ERBB2__CHEMBL202621__state03.xyz --gfn2 --chrg 0 --uhf 0 --iterations 300
          coordinate file            : /home/selva/covalent_quantum_benchmark/data/quantum/erbB_xyz/ERBB2__CHEMBL202621__state03.xyz
          omp threads                :                    24

   ID    Z sym.   atoms
    1    8 O      1, 9
    2    6 C      2-5, 7, 8, 10, 11, 13-16, 18, 20, 22-25, 27, 29-31
    3    7 N      6, 12, 17, 19, 21
    4    9 F      26
    5   17 Cl     28

           -------------------------------------------------
          |                 G F N 2 - x T B                 |
           -------------------------------------------------

        Reference                      10.1021/acs.jctc.8b01176
      * Hamiltonian:
        H0-scaling (s, p, d)           1.850000    2.230000    2.230000
        zeta-weighting                 0.500000
      * Dispersion:
        s8                             2.700000
        a1                             0.520000
        a2                             5.000000
        s9                             5.000000
      * Repulsion:
        kExp                           1.500000    1.000000
        rExp                           1.000000
      * Coulomb:
        alpha                          2.000000
        third order                    shell-resolved
        anisotropic                    true
        a3                             3.000000
        a5                             4.000000
        cn-shift                       1.200000
        cn-exp                         4.000000
        max-rad                        5.000000


          ...................................................
          :                      SETUP                      :
          :.................................................:
          :  # basis functions                 130          :
          :  # atomic orbitals                 129          :
          :  # shells                           63          :
          :  # electrons                       139          :
          :  max. iterations                   300          :
          :  Hamiltonian                  GFN2-xTB          :
          :  restarted?                      false          :
          :  GBSA solvation                  false          :
          :  PC potential                    false          :
          :  electronic temp.          300.0000000     K    :
          :  accuracy                    1.0000000          :
          :  -> integral cutoff          0.2500000E+02      :
          :  -> integral neglect         0.1000000E-07      :
          :  -> SCF convergence          0.1000000E-05 Eh   :
          :  -> wf. convergence          0.1000000E-03 e    :
          :  Broyden damping             0.4000000          :
          ...................................................

 iter      E             dE          RMSdq      gap      omega  full diag
   1    -78.1015501 -0.781016E+02  0.785E+00    0.28       0.0  T
   2    -66.8012599  0.113003E+02  0.111E+01    0.08       1.0  T
   3    -59.5395367  0.726172E+01  0.111E+01    0.33       1.0  T
   4    -61.6568277 -0.211729E+01  0.102E+01    0.04       1.0  T
   5    -74.4694353 -0.128126E+02  0.634E+00    0.18       1.0  T
   6    -75.7993043 -0.132987E+01  0.537E+00    0.02       1.0  T
   7    -76.2188475 -0.419543E+00  0.522E+00    0.15       1.0  T
   8    -76.9875920 -0.768745E+00  0.468E+00    0.25       1.0  T
   9    -77.3676632 -0.380071E+00  0.383E+00    0.36       1.0  T
  10    -77.9897926 -0.622129E+00  0.329E+00    0.01       1.0  T
  11    -77.3964587  0.593334E+00  0.333E+00    0.25       1.0  T
  12    -78.0347288 -0.638270E+00  0.286E+00    0.24       1.0  T
  13    -78.0921924 -0.574637E-01  0.255E+00    0.13       1.0  T
  14    -78.1497043 -0.575119E-01  0.268E+00    0.05       1.0  T
  15    -78.3269420 -0.177238E+00  0.228E+00    0.04       1.0  T
  16    -78.5502697 -0.223328E+00  0.185E+00    0.04       1.0  T
  17    -78.4785066  0.717631E-01  0.207E+00    0.08       1.0  T
  18    -78.5738821 -0.953755E-01  0.145E+00    0.03       1.0  T
  19    -78.2896173  0.284265E+00  0.207E+00    0.03       1.0  T
  20    -78.5124885 -0.222871E+00  0.146E+00    0.02       1.0  T
  21    -78.5394221 -0.269336E-01  0.137E+00    0.04       1.0  T
  22    -78.6007348 -0.613127E-01  0.109E+00    0.04       1.0  T
  23    -78.5583702  0.423646E-01  0.136E+00    0.03       1.0  T
  24    -78.5258368  0.325333E-01  0.137E+00    0.03       1.0  T
  25    -78.6700164 -0.144180E+00  0.552E-01    0.03       1.0  T
  26    -78.6757993 -0.578292E-02  0.486E-01    0.02       1.0  T
  27    -78.6874370 -0.116377E-01  0.325E-01    0.02       1.0  T
  28    -78.6771701  0.102669E-01  0.468E-01    0.02       1.0  T
  29    -78.6890884 -0.119183E-01  0.224E-01    0.03       1.0  T
  30    -78.6861555  0.293293E-02  0.309E-01    0.03       1.0  T
  31    -78.6908972 -0.474175E-02  0.198E-01    0.02       1.0  T
  32    -78.6914185 -0.521274E-03  0.165E-01    0.03       1.0  T
  33    -78.6931224 -0.170391E-02  0.983E-02    0.03       1.0  T
  34    -78.6933830 -0.260635E-03  0.811E-02    0.03       1.0  T
  35    -78.6936981 -0.315014E-03  0.434E-02    0.03       1.0  T
  36    -78.6937493 -0.512487E-04  0.344E-02    0.03       1.0  T
  37    -78.6938091 -0.598412E-04  0.201E-02    0.03       1.0  T
  38    -78.6938146 -0.543597E-05  0.186E-02    0.03       1.0  T
  39    -78.6938322 -0.176453E-04  0.964E-03    0.03       1.9  T
  40    -78.6938354 -0.319871E-05  0.619E-03    0.03       2.9  T
  41    -78.6938352  0.269120E-06  0.655E-03    0.03       2.7  T
  42    -78.6938332  0.197937E-05  0.801E-03    0.03       2.2  T
  43    -78.6938302  0.298615E-05  0.964E-03    0.03       1.9  T
  44    -78.6938379 -0.768133E-05  0.221E-03    0.03       8.1  T
  45    -78.6938375  0.415800E-06  0.275E-03    0.03       6.5  T
  46    -78.6938381 -0.607105E-06  0.148E-03    0.03      12.1  T
  47    -78.6938382 -0.980796E-07  0.974E-04    0.03      18.4  T
  48    -78.6938382 -0.205514E-07  0.859E-04    0.03      20.9  T

   *** convergence criteria satisfied after 48 iterations ***

         #    Occupation            Energy/Eh            Energy/eV
      -------------------------------------------------------------
         1        2.0000           -1.0851474             -29.5284
       ...           ...                  ...                  ...
        64        2.0000           -0.4327450             -11.7756
        65        2.0000           -0.4310544             -11.7296
        66        1.9998           -0.4287913             -11.6680
        67        1.9082           -0.4230842             -11.5127
        68        1.7437           -0.4219943             -11.4831
        69        1.5860           -0.4214194             -11.4674
        70        1.0867           -0.4202062             -11.4344 (HOMO)
        71        0.6317           -0.4192102             -11.4073 (LUMO)
        72        0.0438           -0.4162267             -11.3261
        73                         -0.3947769             -10.7424
        74                         -0.3881668             -10.5626
        75                         -0.3699447             -10.0667
       ...                                ...                  ...
       129                          1.3175656              35.8528
      -------------------------------------------------------------
                  HL-Gap            0.0009959 Eh            0.0271 eV
             Fermi-level           -0.4200223 Eh          -11.4294 eV

 SCC (total)                   0 d,  0 h,  0 min,  0.558 sec
 SCC setup                      ...        0 min,  0.000 sec (  0.053%)
 Dispersion                     ...        0 min,  0.001 sec (  0.141%)
 classical contributions        ...        0 min,  0.001 sec (  0.119%)
 integral evaluation            ...        0 min,  0.004 sec (  0.661%)
 iterations                     ...        0 min,  0.528 sec ( 94.723%)
 molecular gradient             ...        0 min,  0.018 sec (  3.274%)
 printout                       ...        0 min,  0.006 sec (  1.024%)

         :::::::::::::::::::::::::::::::::::::::::::::::::::::
         ::                     SUMMARY                     ::
         :::::::::::::::::::::::::::::::::::::::::::::::::::::
         :: total energy             -77.840331810634 Eh    ::
         :: gradient norm              0.438338136995 Eh/a0 ::
         :: HOMO-LUMO gap              0.027100815737 eV    ::
         ::.................................................::
         :: SCC energy               -78.693838184998 Eh    ::
         :: -> isotropic ES            0.060813790450 Eh    ::
         :: -> anisotropic ES          0.006177482981 Eh    ::
         :: -> anisotropic XC          0.036820047132 Eh    ::
         :: -> dispersion             -0.041094877403 Eh    ::
         :: repulsion energy           0.853914710350 Eh    ::
         :: add. restraining           0.000000000000 Eh    ::
         :: total charge               0.000000000032 e     ::
         :::::::::::::::::::::::::::::::::::::::::::::::::::::

           -------------------------------------------------
          |                Property Printout                |
           -------------------------------------------------

    * Orbital Energies and Occupations

         #    Occupation            Energy/Eh            Energy/eV
      -------------------------------------------------------------
         1        2.0000           -1.0851474             -29.5284
       ...           ...                  ...                  ...
        58        2.0000           -0.4530035             -12.3269
        59        2.0000           -0.4501323             -12.2487
        60        2.0000           -0.4468211             -12.1586
        61        2.0000           -0.4400860             -11.9753
        62        2.0000           -0.4378231             -11.9138
        63        2.0000           -0.4364431             -11.8762
        64        2.0000           -0.4327450             -11.7756
        65        2.0000           -0.4310544             -11.7296
        66        1.9998           -0.4287913             -11.6680
        67        1.9082           -0.4230842             -11.5127
        68        1.7437           -0.4219943             -11.4831
        69        1.5860           -0.4214194             -11.4674
        70        1.0867           -0.4202062             -11.4344 (HOMO)
        71        0.6317           -0.4192102             -11.4073 (LUMO)
        72        0.0438           -0.4162267             -11.3261
        73                         -0.3947769             -10.7424
        74                         -0.3881668             -10.5626
        75                         -0.3699447             -10.0667
        76                         -0.3578267              -9.7370
        77                         -0.3543373              -9.6420
        78                         -0.3537337              -9.6256
        79                         -0.3221681              -8.7666
        80                         -0.3117956              -8.4844
        81                         -0.3018478              -8.2137
       ...                                ...                  ...
       129                          1.3175656              35.8528
      -------------------------------------------------------------
                  HL-Gap            0.0009959 Eh            0.0271 eV
             Fermi-level           -0.4200223 Eh          -11.4294 eV

     #   Z          covCN         q      C6AA      α(0)
     1   8 O        0.855    -0.412    21.923     6.278
     2   6 C        2.786     0.304    21.846     7.656
     3   6 C        1.988     0.048    29.833     8.821
     4   6 C        1.964     0.041    30.013     8.847
     5   6 C        1.908     0.009    30.869     8.973
     6   7 N        2.724     0.101    19.510     6.560
     7   6 C        1.909    -0.025    31.761     9.102
     8   6 C        1.855     0.039    30.152     8.870
     9   8 O        1.695    -0.099    15.819     5.370
    10   6 C        1.855     0.039    30.147     8.869
    11   6 C        1.905    -0.046    32.337     9.184
    12   7 N        1.854    -0.160    25.249     7.448
    13   6 C        2.936     0.157    24.598     8.134
    14   6 C        1.992    -0.025    31.710     9.094
    15   6 C        1.989    -0.013    31.399     9.049
    16   6 C        2.923     0.133    25.090     8.214
    17   7 N        1.831    -0.161    25.278     7.450
    18   6 C        1.908     0.169    27.055     8.400
    19   7 N        1.831    -0.175    25.590     7.496
    20   6 C        2.909     0.199    23.780     7.996
    21   7 N        1.839    -0.119    24.366     7.315
    22   6 C        2.934     0.130    25.164     8.227
    23   6 C        1.993    -0.037    32.045     9.142
    24   6 C        1.987    -0.020    31.591     9.077
    25   6 C        2.806     0.180    24.142     8.050
    26   9 F        0.787    -0.167    10.902     3.900
    27   6 C        2.878     0.089    26.016     8.362
    28  17 Cl       0.962    -0.067   101.258    15.395
    29   6 C        2.029    -0.071    32.920     9.267
    30   6 C        2.978     0.008    27.828     8.653
    31   6 C        1.991    -0.048    32.343     9.184

 Mol. C6AA /au·bohr⁶  :      26877.521118
 Mol. C8AA /au·bohr⁸  :     747142.591621
 Mol. α(0) /au        :        258.381926


Wiberg/Mayer (AO) data.
largest (>0.10) Wiberg bond orders for each atom

 ---------------------------------------------------------------------------
     #   Z sym  total        # sym  WBO       # sym  WBO       # sym  WBO
 ---------------------------------------------------------------------------
     1   8 O    1.905 --     2 C    1.382    12 N    0.210
     2   6 C    3.941 --    12 N    1.444     1 O    1.382     3 C    1.044
     3   6 C    3.877 --     4 C    2.478     2 C    1.044     5 C    0.126
     4   6 C    3.961 --     3 C    2.478     5 C    1.307
     5   6 C    3.103 --     4 C    1.307     6 N    1.152     3 C    0.126
                            10 C    0.123    11 C    0.121
     6   7 N    3.614 --     7 C    1.157     5 C    1.152    11 C    1.142
     7   6 C    3.070 --     8 C    1.429     6 N    1.157    11 C    0.176
                            10 C    0.126
     8   6 C    3.075 --     7 C    1.429     9 O    1.164    10 C    0.201
                            11 C    0.193
     9   8 O    2.458 --     8 C    1.164    10 C    1.141
    10   6 C    3.085 --    11 C    1.416     9 O    1.141     8 C    0.201
                             7 C    0.126     5 C    0.123
    11   6 C    3.132 --    10 C    1.416     6 N    1.142     8 C    0.193
                             7 C    0.176     5 C    0.121
    12   7 N    3.084 --     2 C    1.444    13 C    1.190     1 O    0.210
    13   6 C    3.882 --    31 C    1.293    14 C    1.231    12 N    1.190
    14   6 C    3.646 --    15 C    1.724    13 C    1.231    31 C    0.245
    15   6 C    3.476 --    14 C    1.724    16 C    1.290    31 C    0.177
    16   6 C    3.879 --    15 C    1.290    17 N    1.182    30 C    1.162
    17   7 N    3.079 --    18 C    1.557    16 C    1.182
    18   6 C    3.832 --    19 N    1.740    17 N    1.557    21 N    0.152
    19   7 N    3.172 --    18 C    1.740    20 C    1.087
    20   6 C    3.949 --    21 N    1.599    19 N    1.087    30 C    1.054
    21   7 N    3.245 --    20 C    1.599    22 C    1.091    18 C    0.152
    22   6 C    3.929 --    29 C    1.344    23 C    1.297    21 N    1.091
    23   6 C    3.613 --    24 C    1.656    22 C    1.297    29 C    0.356
                            27 C    0.108
    24   6 C    3.397 --    23 C    1.656    25 C    1.382    29 C    0.155
    25   6 C    3.836 --    24 C    1.382    27 C    1.270    26 F    0.991
    26   9 F    1.146 --    25 C    0.991
    27   6 C    3.891 --    29 C    1.431    25 C    1.270    28 Cl   1.003
                            23 C    0.108
    28  17 Cl   1.186 --    27 C    1.003
    29   6 C    3.470 --    27 C    1.431    22 C    1.344    23 C    0.356
                            24 C    0.155
    30   6 C    3.931 --    31 C    1.448    16 C    1.162    20 C    1.054
    31   6 C    3.457 --    30 C    1.448    13 C    1.293    14 C    0.245
                            15 C    0.177
 ---------------------------------------------------------------------------

Topologies differ in total number of bonds
Writing topology from bond orders to xtbtopo.mol

molecular dipole:
                 x           y           z       tot (Debye)
Note: The following floating-point exceptions are signalling: IEEE_UNDERFLOW_FLAG IEEE_DENORMAL
normal termination of xtb
 q only:        0.881      -0.209      -0.401
   full:        0.809       0.246       0.420       2.400
molecular quadrupole (traceless):
                xx          xy          yy          xz          yz          zz
 q only:        5.077       4.620       6.036       5.635       7.300     -11.113
  q+dip:       -1.255       5.261       5.271       5.940       8.460      -4.016
   full:        3.301       3.127       2.919       9.025       6.661      -6.220


           -------------------------------------------------
          | TOTAL ENERGY              -77.840331810634 Eh   |
          | GRADIENT NORM               0.438338136995 Eh/α |
          | HOMO-LUMO GAP               0.027100815737 eV   |
           -------------------------------------------------

------------------------------------------------------------------------
 * finished run on 2026/07/23 at 16:41:31.037     
------------------------------------------------------------------------
 total:
 * wall-time:     0 d,  0 h,  0 min,  0.580 sec
 *  cpu-time:     0 d,  0 h,  0 min,  0.561 sec
 * ratio c/w:     0.968 speedup
 SCF:
 * wall-time:     0 d,  0 h,  0 min,  0.558 sec
 *  cpu-time:     0 d,  0 h,  0 min,  0.539 sec
 * ratio c/w:     0.966 speedup

