      -----------------------------------------------------------      
     |                   =====================                   |     
     |                           x T B                           |     
     |                   =====================                   |     
     |                         S. Grimme                         |     
     |          Mulliken Center for Theoretical Chemistry        |     
     |                    University of Bonn                     |     
      -----------------------------------------------------------      

   * xtb version 6.6.1 (unknown) compiled by 'builduser@buildhost' on 2023-08-07

   xtb is free software: you can redistribute it and/or modify it under
   the terms of the GNU Lesser General Public License as published by
   the Free Software Foundation, either version 3 of the License, or
   (at your option) any later version.
   
   xtb is distributed in the hope that it will be useful,
   but WITHOUT ANY WARRANTY; without even the implied warranty of
   MERCHANTABILITY or FITNESS FOR A PARTICULAR PURPOSE.  See the
   GNU Lesser General Public License for more details.
   
   Cite this work as:
   * C. Bannwarth, E. Caldeweyher, S. Ehlert, A. Hansen, P. Pracht,
     J. Seibert, S. Spicher, S. Grimme, WIREs Comput. Mol. Sci., 2020, 11,
     e01493. DOI: 10.1002/wcms.1493
   
   for GFN2-xTB:
   * C. Bannwarth, S. Ehlert and S. Grimme., J. Chem. Theory Comput., 2019,
     15, 1652-1671. DOI: 10.1021/acs.jctc.8b01176
   for GFN1-xTB:
   * S. Grimme, C. Bannwarth, P. Shushkov, J. Chem. Theory Comput., 2017,
     13, 1989-2009. DOI: 10.1021/acs.jctc.7b00118
   for GFN0-xTB:
   * P. Pracht, E. Caldeweyher, S. Ehlert, S. Grimme, ChemRxiv, 2019, preprint.
     DOI: 10.26434/chemrxiv.8326202.v1
   for GFN-FF:
   * S. Spicher and S. Grimme, Angew. Chem. Int. Ed., 2020, 59, 15665-15673.
     DOI: 10.1002/anie.202004239
   
   for ALPB and GBSA implicit solvation:
   * S. Ehlert, M. Stahn, S. Spicher, S. Grimme, J. Chem. Theory Comput.,
     2021, 17, 4250-4261. DOI: 10.1021/acs.jctc.1c00471
   
   for DFT-D4:
   * E. Caldeweyher, C. Bannwarth and S. Grimme, J. Chem. Phys., 2017,
     147, 034112. DOI: 10.1063/1.4993215
   * E. Caldeweyher, S. Ehlert, A. Hansen, H. Neugebauer, S. Spicher,
     C. Bannwarth and S. Grimme, J. Chem. Phys., 2019, 150, 154122.
     DOI: 10.1063/1.5090222
   * E. Caldeweyher, J.-M. Mewes, S. Ehlert and S. Grimme, Phys. Chem. Chem. Phys.
     2020, 22, 8499-8512. DOI: 10.1039/D0CP00502A
   
   for sTDA-xTB:
   * S. Grimme and C. Bannwarth, J. Chem. Phys., 2016, 145, 054103.
     DOI: 10.1063/1.4959605
   
   in the mass-spec context:
   * V. Asgeirsson, C. Bauer and S. Grimme, Chem. Sci., 2017, 8, 4879.
     DOI: 10.1039/c7sc00601b
   * J. Koopman and S. Grimme, ACS Omega 2019, 4, 12, 15120-15133.
     DOI: 10.1021/acsomega.9b02011
   
   for metadynamics refer to:
   * S. Grimme, J. Chem. Theory Comput., 2019, 155, 2847-2862
     DOI: 10.1021/acs.jctc.9b00143
   
   for SPH calculations refer to:
   * S. Spicher and S. Grimme, J. Chem. Theory Comput., 2021, 17, 1701-1714
     DOI: 10.1021/acs.jctc.0c01306
   
   with help from (in alphabetical order)
   P. Atkinson, C. Bannwarth, F. Bohle, G. Brandenburg, E. Caldeweyher
   M. Checinski, S. Dohm, S. Ehlert, S. Ehrlich, I. Gerasimov, C. Hölzer
   A. Katbashev, J. Koopman, C. Lavigne, S. Lehtola, F. März, M. Müller,
   F. Musil, H. Neugebauer, J. Pisarek, C. Plett, P. Pracht, F. Pultar,
   J. Seibert, P. Shushkov, S. Spicher, M. Stahn, M. Steiner, T. Strunk,
   J. Stückrath, T. Rose, and J. Unsleber
   
 * started run on 2026/07/23 at 16:37:41.516     

           -------------------------------------------------
          |                Calculation Setup                |
           -------------------------------------------------

          program call               : xtb /home/selva/covalent_quantum_benchmark/data/quantum/erbB_xyz/EGFR__CHEMBL2112370__state01.xyz --gfn2 --chrg 0 --uhf 0 --iterations 300
          coordinate file            : /home/selva/covalent_quantum_benchmark/data/quantum/erbB_xyz/EGFR__CHEMBL2112370__state01.xyz
          omp threads                :                    24

   ID    Z sym.   atoms
    1    6 C      1, 3-7, 9-12, 15-18, 20, 22, 24-28, 30-32
    2    8 O      2, 13
    3    7 N      8, 14, 19, 21, 23
    4   35 Br     29

           -------------------------------------------------
          |                 G F N 2 - x T B                 |
           -------------------------------------------------

        Reference                      10.1021/acs.jctc.8b01176
      * Hamiltonian:
        H0-scaling (s, p, d)           1.850000    2.230000    2.230000
        zeta-weighting                 0.500000
      * Dispersion:
        s8                             2.700000
        a1                             0.520000
        a2                             5.000000
        s9                             5.000000
      * Repulsion:
        kExp                           1.500000    1.000000
        rExp                           1.000000
      * Coulomb:
        alpha                          2.000000
        third order                    shell-resolved
        anisotropic                    true
        a3                             3.000000
        a5                             4.000000
        cn-shift                       1.200000
        cn-exp                         4.000000
        max-rad                        5.000000


          ...................................................
          :                      SETUP                      :
          :.................................................:
          :  # basis functions                 134          :
          :  # atomic orbitals                 133          :
          :  # shells                           65          :
          :  # electrons                       140          :
          :  max. iterations                   300          :
          :  Hamiltonian                  GFN2-xTB          :
          :  restarted?                      false          :
          :  GBSA solvation                  false          :
          :  PC potential                    false          :
          :  electronic temp.          300.0000000     K    :
          :  accuracy                    1.0000000          :
          :  -> integral cutoff          0.2500000E+02      :
          :  -> integral neglect         0.1000000E-07      :
          :  -> SCF convergence          0.1000000E-05 Eh   :
          :  -> wf. convergence          0.1000000E-03 e    :
          :  Broyden damping             0.4000000          :
          ...................................................

 iter      E             dE          RMSdq      gap      omega  full diag
   1    -76.5355202 -0.765355E+02  0.860E+00    0.28       0.0  T
   2    -64.9251411  0.116104E+02  0.119E+01    0.21       1.0  T
   3    -59.6894586  0.523568E+01  0.115E+01    0.33       1.0  T
   4    -52.5962877  0.709317E+01  0.117E+01    0.08       1.0  T
   5    -60.9159227 -0.831963E+01  0.100E+01    0.04       1.0  T
   6    -69.0989382 -0.818302E+01  0.787E+00    0.08       1.0  T
   7    -72.6912105 -0.359227E+01  0.706E+00    0.39       1.0  T
   8    -76.5627983 -0.387159E+01  0.413E+00    0.14       1.0  T
   9    -76.6015264 -0.387281E-01  0.359E+00    0.10       1.0  T
  10    -76.6543563 -0.528299E-01  0.365E+00    0.44       1.0  T
  11    -76.8051236 -0.150767E+00  0.321E+00    0.40       1.0  T
  12    -76.8421131 -0.369895E-01  0.307E+00    0.32       1.0  T
  13    -77.1865822 -0.344469E+00  0.212E+00    0.15       1.0  T
  14    -77.2908156 -0.104233E+00  0.160E+00    0.09       1.0  T
  15    -77.2470915  0.437241E-01  0.166E+00    0.13       1.0  T
  16    -76.9647913  0.282300E+00  0.225E+00    0.08       1.0  T
  17    -77.3119931 -0.347202E+00  0.135E+00    0.02       1.0  T
  18    -77.3751987 -0.632056E-01  0.947E-01    0.02       1.0  T
  19    -77.0625044  0.312694E+00  0.233E+00    0.02       1.0  T
  20    -77.1580282 -0.955239E-01  0.172E+00    0.05       1.0  T
  21    -77.3142173 -0.156189E+00  0.111E+00    0.02       1.0  T
  22    -77.3894235 -0.752061E-01  0.675E-01    0.01       1.0  T
  23    -77.4164015 -0.269781E-01  0.318E-01    0.04       1.0  T
  24    -77.4001556  0.162459E-01  0.588E-01    0.02       1.0  T
  25    -77.4143499 -0.141942E-01  0.380E-01    0.03       1.0  T
  26    -77.4232525 -0.890264E-02  0.199E-01    0.04       1.0  T
  27    -77.4234713 -0.218772E-03  0.163E-01    0.04       1.0  T
  28    -77.4128727  0.105986E-01  0.362E-01    0.02       1.0  T
  29    -77.4224431 -0.957041E-02  0.186E-01    0.03       1.0  T
  30    -77.4146852  0.775788E-02  0.327E-01    0.02       1.0  T
  31    -77.4238959 -0.921070E-02  0.107E-01    0.04       1.0  T
  32    -77.4236262  0.269654E-03  0.110E-01    0.04       1.0  T
  33    -77.4240703 -0.444092E-03  0.693E-02    0.04       1.0  T
  34    -77.4241862 -0.115842E-03  0.594E-02    0.04       1.0  T
  35    -77.4243378 -0.151601E-03  0.521E-02    0.04       1.0  T
  36    -77.4244123 -0.744931E-04  0.366E-02    0.04       1.0  T
  37    -77.4243971  0.151589E-04  0.426E-02    0.04       1.0  T
  38    -77.4245107 -0.113601E-03  0.232E-02    0.04       1.0  T
  39    -77.4244612  0.495243E-04  0.296E-02    0.04       1.0  T
  40    -77.4245127 -0.515254E-04  0.194E-02    0.04       1.0  T
  41    -77.4245267 -0.140021E-04  0.128E-02    0.04       1.4  T
  42    -77.4245266  0.108034E-06  0.105E-02    0.04       1.7  T
  43    -77.4245341 -0.747953E-05  0.643E-03    0.04       2.7  T
  44    -77.4245347 -0.604917E-06  0.539E-03    0.04       3.3  T
  45    -77.4245362 -0.155181E-05  0.361E-03    0.04       4.9  T
  46    -77.4245374 -0.110185E-05  0.167E-03    0.04      10.6  T
  47    -77.4245376 -0.220232E-06  0.758E-04    0.04      23.3  T
  48    -77.4245376 -0.192743E-07  0.529E-04    0.04      33.4  T

   *** convergence criteria satisfied after 48 iterations ***

         #    Occupation            Energy/Eh            Energy/eV
      -------------------------------------------------------------
         1        2.0000           -0.8657760             -23.5590
       ...           ...                  ...                  ...
        64        2.0000           -0.4339228             -11.8076
        65        2.0000           -0.4312224             -11.7342
        66        2.0000           -0.4288282             -11.6690
        67        1.9997           -0.4239526             -11.5363
        68        1.9722           -0.4196786             -11.4200
        69        1.8705           -0.4181647             -11.3788
        70        1.3478           -0.4163177             -11.3286 (HOMO)
        71        0.6421           -0.4149164             -11.2904 (LUMO)
        72        0.1653           -0.4133411             -11.2476
        73        0.0024           -0.4092485             -11.1362
        74                         -0.3963045             -10.7840
        75                         -0.3946896             -10.7401
       ...                                ...                  ...
       133                          0.6159002              16.7595
      -------------------------------------------------------------
                  HL-Gap            0.0014013 Eh            0.0381 eV
             Fermi-level           -0.4156280 Eh          -11.3098 eV

 SCC (total)                   0 d,  0 h,  0 min,  0.450 sec
 SCC setup                      ...        0 min,  0.000 sec (  0.081%)
 Dispersion                     ...        0 min,  0.001 sec (  0.266%)
 classical contributions        ...        0 min,  0.001 sec (  0.156%)
 integral evaluation            ...        0 min,  0.005 sec (  1.080%)
 iterations                     ...        0 min,  0.420 sec ( 93.206%)
 molecular gradient             ...        0 min,  0.022 sec (  4.833%)
 printout                       ...        0 min,  0.002 sec (  0.370%)

         :::::::::::::::::::::::::::::::::::::::::::::::::::::
         ::                     SUMMARY                     ::
         :::::::::::::::::::::::::::::::::::::::::::::::::::::
         :: total energy             -76.624051392007 Eh    ::
         :: gradient norm              0.492120224572 Eh/a0 ::
         :: HOMO-LUMO gap              0.038131575440 eV    ::
         ::.................................................::
         :: SCC energy               -77.424537589836 Eh    ::
         :: -> isotropic ES            0.023654220629 Eh    ::
         :: -> anisotropic ES          0.007928803331 Eh    ::
         :: -> anisotropic XC          0.040661717140 Eh    ::
         :: -> dispersion             -0.044871557034 Eh    ::
         :: repulsion energy           0.800893069371 Eh    ::
         :: add. restraining           0.000000000000 Eh    ::
         :: total charge              -0.000000000000 e     ::
         :::::::::::::::::::::::::::::::::::::::::::::::::::::

           -------------------------------------------------
          |                Property Printout                |
           -------------------------------------------------

    * Orbital Energies and Occupations

         #    Occupation            Energy/Eh            Energy/eV
      -------------------------------------------------------------
         1        2.0000           -0.8657760             -23.5590
       ...           ...                  ...                  ...
        58        2.0000           -0.4506946             -12.2640
        59        2.0000           -0.4470458             -12.1647
        60        2.0000           -0.4449301             -12.1072
        61        2.0000           -0.4426066             -12.0439
        62        2.0000           -0.4404876             -11.9863
        63        2.0000           -0.4353001             -11.8451
        64        2.0000           -0.4339228             -11.8076
        65        2.0000           -0.4312224             -11.7342
        66        2.0000           -0.4288282             -11.6690
        67        1.9997           -0.4239526             -11.5363
        68        1.9722           -0.4196786             -11.4200
        69        1.8705           -0.4181647             -11.3788
        70        1.3478           -0.4163177             -11.3286 (HOMO)
        71        0.6421           -0.4149164             -11.2904 (LUMO)
        72        0.1653           -0.4133411             -11.2476
        73        0.0024           -0.4092485             -11.1362
        74                         -0.3963045             -10.7840
        75                         -0.3946896             -10.7401
        76                         -0.3901610             -10.6168
        77                         -0.3856641             -10.4945
        78                         -0.3568660              -9.7108
        79                         -0.3491798              -9.5017
        80                         -0.3474435              -9.4544
        81                         -0.3277790              -8.9193
       ...                                ...                  ...
       133                          0.6159002              16.7595
      -------------------------------------------------------------
                  HL-Gap            0.0014013 Eh            0.0381 eV
             Fermi-level           -0.4156280 Eh          -11.3098 eV

     #   Z          covCN         q      C6AA      α(0)
     1   6 C        0.878     0.004    35.102     9.898
     2   8 O        1.697    -0.020    14.739     5.183
     3   6 C        1.852    -0.030    31.946     9.130
     4   6 C        2.884     0.076    26.311     8.409
     5   6 C        1.986    -0.033    31.942     9.127
     6   6 C        1.988    -0.000    31.063     9.001
     7   6 C        1.930    -0.036    32.050     9.143
     8   7 N        2.758     0.050    20.376     6.704
     9   6 C        1.896     0.008    30.911     8.979
    10   6 C        1.965     0.027    30.385     8.902
    11   6 C        1.972    -0.009    31.310     9.036
    12   6 C        2.753     0.321    21.552     7.602
    13   8 O        0.857    -0.334    20.398     6.055
    14   7 N        1.836    -0.190    25.933     7.547
    15   6 C        2.895     0.149    24.771     8.160
    16   6 C        1.989    -0.017    31.502     9.064
    17   6 C        1.990    -0.019    31.552     9.071
    18   6 C        2.923     0.135    25.047     8.207
    19   7 N        1.831    -0.167    25.418     7.471
    20   6 C        1.908     0.169    27.041     8.398
    21   7 N        1.831    -0.189    25.920     7.544
    22   6 C        2.909     0.201    23.735     7.989
    23   7 N        1.839    -0.149    25.005     7.411
    24   6 C        2.934     0.131    25.128     8.221
    25   6 C        1.992     0.008    30.833     8.967
    26   6 C        1.986    -0.022    31.642     9.084
    27   6 C        2.061     0.009    30.724     8.953
    28   6 C        2.906     0.113    25.506     8.281
    29  35 Br       1.068    -0.066   186.826    22.039
    30   6 C        2.066    -0.082    33.194     9.307
    31   6 C        2.978     0.003    27.959     8.674
    32   6 C        1.995    -0.039    32.093     9.149

 Mol. C6AA /au·bohr⁶  :      31056.347252
 Mol. C8AA /au·bohr⁸  :     919270.976223
 Mol. α(0) /au        :        280.706307


Wiberg/Mayer (AO) data.
largest (>0.10) Wiberg bond orders for each atom

 ---------------------------------------------------------------------------
     #   Z sym  total        # sym  WBO       # sym  WBO       # sym  WBO
 ---------------------------------------------------------------------------
     1   6 C    2.116 --     2 O    1.585     3 C    0.240     4 C    0.132
     2   8 O    2.691 --     1 C    1.585     3 C    1.063
     3   6 C    2.983 --     4 C    1.328     2 O    1.063     1 C    0.240
                             7 C    0.114
     4   6 C    3.802 --     3 C    1.328     5 C    1.113     8 N    1.022
                             1 C    0.132
     5   6 C    3.332 --     6 C    1.504     4 C    1.113     7 C    0.390
                             9 C    0.108
     6   6 C    3.054 --     5 C    1.504     7 C    1.252
     7   6 C    3.054 --     6 C    1.252     8 N    1.131     5 C    0.390
                             3 C    0.114
     8   7 N    3.571 --     9 C    1.147     7 C    1.131     4 C    1.022
     9   6 C    3.185 --    10 C    1.441     8 N    1.147    11 C    0.123
                             5 C    0.108
    10   6 C    3.820 --    11 C    2.172     9 C    1.441
    11   6 C    3.574 --    10 C    2.172    12 C    0.987     9 C    0.123
                            13 O    0.112
    12   6 C    3.921 --    13 O    1.643    14 N    1.203    11 C    0.987
    13   8 O    2.072 --    12 C    1.643    11 C    0.112    14 N    0.105
    14   7 N    2.904 --    15 C    1.275    12 C    1.203    17 C    0.108
                            13 O    0.105
    15   6 C    3.880 --    14 N    1.275    32 C    1.254    16 C    1.205
    16   6 C    3.671 --    17 C    1.754    15 C    1.205    32 C    0.217
                            20 C    0.122
    17   6 C    3.472 --    16 C    1.754    18 C    1.282    32 C    0.149
                            14 N    0.108
    18   6 C    3.863 --    17 C    1.282    19 N    1.177    31 C    1.167
    19   7 N    3.097 --    20 C    1.568    18 C    1.177
    20   6 C    3.827 --    21 N    1.729    19 N    1.568    23 N    0.136
                            16 C    0.122
    21   7 N    3.159 --    20 C    1.729    22 C    1.089
    22   6 C    3.949 --    23 N    1.600    21 N    1.089    31 C    1.052
    23   7 N    3.228 --    22 C    1.600    24 C    1.087    20 C    0.136
    24   6 C    3.953 --    30 C    1.357    25 C    1.322    23 N    1.087
                            27 C    0.101
    25   6 C    3.746 --    26 C    1.624    24 C    1.322    27 C    0.392
                            30 C    0.156    28 C    0.102
    26   6 C    3.757 --    27 C    1.631    25 C    1.624    30 C    0.402
    27   6 C    3.744 --    26 C    1.631    28 C    1.366    25 C    0.392
                            30 C    0.155    24 C    0.101
    28   6 C    3.927 --    30 C    1.416    27 C    1.366    29 Br   0.993
                            25 C    0.102
    29  35 Br   1.196 --    28 C    0.993
    30   6 C    3.607 --    28 C    1.416    24 C    1.357    26 C    0.402
                            25 C    0.156    27 C    0.155
Note: The following floating-point exceptions are signalling: IEEE_UNDERFLOW_FLAG IEEE_DENORMAL
normal termination of xtb
    31   6 C    3.936 --    32 C    1.459    18 C    1.167    22 C    1.052
    32   6 C    3.381 --    31 C    1.459    15 C    1.254    16 C    0.217
                            17 C    0.149
 ---------------------------------------------------------------------------

Topologies differ in total number of bonds
Writing topology from bond orders to xtbtopo.mol

molecular dipole:
                 x           y           z       tot (Debye)
 q only:        0.662       0.689      -0.237
   full:        0.250       0.662       0.009       1.800
molecular quadrupole (traceless):
                xx          xy          yy          xz          yz          zz
 q only:       -8.997      -0.361       0.340       5.156       7.128       8.656
  q+dip:      -29.737       4.775       2.869       9.038      13.085      26.868
   full:      -30.261      -0.368       4.121       7.150      11.112      26.139


           -------------------------------------------------
          | TOTAL ENERGY              -76.624051392007 Eh   |
          | GRADIENT NORM               0.492120224572 Eh/α |
          | HOMO-LUMO GAP               0.038131575440 eV   |
           -------------------------------------------------

------------------------------------------------------------------------
 * finished run on 2026/07/23 at 16:37:41.988     
------------------------------------------------------------------------
 total:
 * wall-time:     0 d,  0 h,  0 min,  0.472 sec
 *  cpu-time:     0 d,  0 h,  0 min,  0.483 sec
 * ratio c/w:     1.023 speedup
 SCF:
 * wall-time:     0 d,  0 h,  0 min,  0.451 sec
 *  cpu-time:     0 d,  0 h,  0 min,  0.459 sec
 * ratio c/w:     1.018 speedup

