      -----------------------------------------------------------      
     |                   =====================                   |     
     |                           x T B                           |     
     |                   =====================                   |     
     |                         S. Grimme                         |     
     |          Mulliken Center for Theoretical Chemistry        |     
     |                    University of Bonn                     |     
      -----------------------------------------------------------      

   * xtb version 6.6.1 (unknown) compiled by 'builduser@buildhost' on 2023-08-07

   xtb is free software: you can redistribute it and/or modify it under
   the terms of the GNU Lesser General Public License as published by
   the Free Software Foundation, either version 3 of the License, or
   (at your option) any later version.
   
   xtb is distributed in the hope that it will be useful,
   but WITHOUT ANY WARRANTY; without even the implied warranty of
   MERCHANTABILITY or FITNESS FOR A PARTICULAR PURPOSE.  See the
   GNU Lesser General Public License for more details.
   
   Cite this work as:
   * C. Bannwarth, E. Caldeweyher, S. Ehlert, A. Hansen, P. Pracht,
     J. Seibert, S. Spicher, S. Grimme, WIREs Comput. Mol. Sci., 2020, 11,
     e01493. DOI: 10.1002/wcms.1493
   
   for GFN2-xTB:
   * C. Bannwarth, S. Ehlert and S. Grimme., J. Chem. Theory Comput., 2019,
     15, 1652-1671. DOI: 10.1021/acs.jctc.8b01176
   for GFN1-xTB:
   * S. Grimme, C. Bannwarth, P. Shushkov, J. Chem. Theory Comput., 2017,
     13, 1989-2009. DOI: 10.1021/acs.jctc.7b00118
   for GFN0-xTB:
   * P. Pracht, E. Caldeweyher, S. Ehlert, S. Grimme, ChemRxiv, 2019, preprint.
     DOI: 10.26434/chemrxiv.8326202.v1
   for GFN-FF:
   * S. Spicher and S. Grimme, Angew. Chem. Int. Ed., 2020, 59, 15665-15673.
     DOI: 10.1002/anie.202004239
   
   for ALPB and GBSA implicit solvation:
   * S. Ehlert, M. Stahn, S. Spicher, S. Grimme, J. Chem. Theory Comput.,
     2021, 17, 4250-4261. DOI: 10.1021/acs.jctc.1c00471
   
   for DFT-D4:
   * E. Caldeweyher, C. Bannwarth and S. Grimme, J. Chem. Phys., 2017,
     147, 034112. DOI: 10.1063/1.4993215
   * E. Caldeweyher, S. Ehlert, A. Hansen, H. Neugebauer, S. Spicher,
     C. Bannwarth and S. Grimme, J. Chem. Phys., 2019, 150, 154122.
     DOI: 10.1063/1.5090222
   * E. Caldeweyher, J.-M. Mewes, S. Ehlert and S. Grimme, Phys. Chem. Chem. Phys.
     2020, 22, 8499-8512. DOI: 10.1039/D0CP00502A
   
   for sTDA-xTB:
   * S. Grimme and C. Bannwarth, J. Chem. Phys., 2016, 145, 054103.
     DOI: 10.1063/1.4959605
   
   in the mass-spec context:
   * V. Asgeirsson, C. Bauer and S. Grimme, Chem. Sci., 2017, 8, 4879.
     DOI: 10.1039/c7sc00601b
   * J. Koopman and S. Grimme, ACS Omega 2019, 4, 12, 15120-15133.
     DOI: 10.1021/acsomega.9b02011
   
   for metadynamics refer to:
   * S. Grimme, J. Chem. Theory Comput., 2019, 155, 2847-2862
     DOI: 10.1021/acs.jctc.9b00143
   
   for SPH calculations refer to:
   * S. Spicher and S. Grimme, J. Chem. Theory Comput., 2021, 17, 1701-1714
     DOI: 10.1021/acs.jctc.0c01306
   
   with help from (in alphabetical order)
   P. Atkinson, C. Bannwarth, F. Bohle, G. Brandenburg, E. Caldeweyher
   M. Checinski, S. Dohm, S. Ehlert, S. Ehrlich, I. Gerasimov, C. Hölzer
   A. Katbashev, J. Koopman, C. Lavigne, S. Lehtola, F. März, M. Müller,
   F. Musil, H. Neugebauer, J. Pisarek, C. Plett, P. Pracht, F. Pultar,
   J. Seibert, P. Shushkov, S. Spicher, M. Stahn, M. Steiner, T. Strunk,
   J. Stückrath, T. Rose, and J. Unsleber
   
 * started run on 2026/07/23 at 16:38:20.315     

           -------------------------------------------------
          |                Calculation Setup                |
           -------------------------------------------------

          program call               : xtb /home/selva/covalent_quantum_benchmark/data/quantum/erbB_xyz/EGFR__CHEMBL324718__state02.xyz --gfn2 --chrg 0 --uhf 0 --iterations 300
          coordinate file            : /home/selva/covalent_quantum_benchmark/data/quantum/erbB_xyz/EGFR__CHEMBL324718__state02.xyz
          omp threads                :                    24

   ID    Z sym.   atoms
    1    6 C      1-3, 6-9, 11-15, 17-19, 21, 23-25, 27
    2    8 O      4, 26
    3    7 N      5, 10, 20, 22
    4   35 Br     16

           -------------------------------------------------
          |                 G F N 2 - x T B                 |
           -------------------------------------------------

        Reference                      10.1021/acs.jctc.8b01176
      * Hamiltonian:
        H0-scaling (s, p, d)           1.850000    2.230000    2.230000
        zeta-weighting                 0.500000
      * Dispersion:
        s8                             2.700000
        a1                             0.520000
        a2                             5.000000
        s9                             5.000000
      * Repulsion:
        kExp                           1.500000    1.000000
        rExp                           1.000000
      * Coulomb:
        alpha                          2.000000
        third order                    shell-resolved
        anisotropic                    true
        a3                             3.000000
        a5                             4.000000
        cn-shift                       1.200000
        cn-exp                         4.000000
        max-rad                        5.000000


          ...................................................
          :                      SETUP                      :
          :.................................................:
          :  # basis functions                 114          :
          :  # atomic orbitals                 113          :
          :  # shells                           55          :
          :  # electrons                       119          :
          :  max. iterations                   300          :
          :  Hamiltonian                  GFN2-xTB          :
          :  restarted?                      false          :
          :  GBSA solvation                  false          :
          :  PC potential                    false          :
          :  electronic temp.          300.0000000     K    :
          :  accuracy                    1.0000000          :
          :  -> integral cutoff          0.2500000E+02      :
          :  -> integral neglect         0.1000000E-07      :
          :  -> SCF convergence          0.1000000E-05 Eh   :
          :  -> wf. convergence          0.1000000E-03 e    :
          :  Broyden damping             0.4000000          :
          ...................................................

 iter      E             dE          RMSdq      gap      omega  full diag
   1    -65.6647420 -0.656647E+02  0.859E+00    0.16       0.0  T
   2    -54.1340425  0.115307E+02  0.120E+01    0.21       1.0  T
   3    -57.2890805 -0.315504E+01  0.108E+01    0.08       1.0  T
   4    -60.7654975 -0.347642E+01  0.801E+00    0.04       1.0  T
   5    -54.2575551  0.650794E+01  0.102E+01    0.29       1.0  T
   6    -63.6553615 -0.939781E+01  0.657E+00    0.05       1.0  T
   7    -65.6899822 -0.203462E+01  0.397E+00    0.01       1.0  T
   8    -65.9060218 -0.216040E+00  0.360E+00    0.35       1.0  T
   9    -65.9787066 -0.726848E-01  0.314E+00    0.32       1.0  T
  10    -66.0772582 -0.985516E-01  0.274E+00    0.31       1.0  T
  11    -66.2361643 -0.158906E+00  0.260E+00    0.12       1.0  T
  12    -66.2343425  0.182184E-02  0.261E+00    0.12       1.0  T
  13    -66.2256648  0.867768E-02  0.260E+00    0.09       1.0  T
  14    -66.2202823  0.538249E-02  0.215E+00    0.16       1.0  T
  15    -65.5793176  0.640965E+00  0.420E+00    0.09       1.0  T
  16    -65.6100797 -0.307622E-01  0.414E+00    0.09       1.0  T
  17    -65.6955383 -0.854585E-01  0.400E+00    0.12       1.0  T
  18    -65.7157259 -0.201876E-01  0.394E+00    0.08       1.0  T
  19    -65.8182368 -0.102511E+00  0.380E+00    0.19       1.0  T
  20    -65.8206518 -0.241498E-02  0.380E+00    0.19       1.0  T
  21    -65.8258372 -0.518547E-02  0.379E+00    0.19       1.0  T
  22    -65.8313032 -0.546602E-02  0.361E+00    0.08       1.0  T
  23    -64.5761498  0.125515E+01  0.612E+00    0.05       1.0  T
  24    -65.0283766 -0.452227E+00  0.528E+00    0.07       1.0  T
  25    -64.4650144  0.563362E+00  0.655E+00    0.07       1.0  T
  26    -65.0050879 -0.540073E+00  0.597E+00    0.04       1.0  T
  27    -63.9267826  0.107831E+01  0.725E+00    0.13       1.0  T
  28    -64.0028356 -0.760529E-01  0.710E+00    0.14       1.0  T
  29    -65.8462609 -0.184343E+01  0.406E+00    0.20       1.0  T
  30    -66.3899063 -0.543645E+00  0.158E+00    0.08       1.0  T
  31    -66.2018509  0.188055E+00  0.296E+00    0.11       1.0  T
  32    -66.2648982 -0.630473E-01  0.233E+00    0.10       1.0  T
  33    -66.3278361 -0.629379E-01  0.203E+00    0.07       1.0  T
  34    -66.4154621 -0.876260E-01  0.802E-01    0.08       1.0  T
  35    -66.3924442  0.230179E-01  0.105E+00    0.09       1.0  T
  36    -66.1939424  0.198502E+00  0.249E+00    0.04       1.0  T
  37    -66.2774730 -0.835306E-01  0.185E+00    0.07       1.0  T
  38    -66.4181583 -0.140685E+00  0.577E-01    0.05       1.0  T
  39    -66.3684640  0.496943E-01  0.111E+00    0.06       1.0  T
  40    -66.4170617 -0.485977E-01  0.694E-01    0.07       1.0  T
  41    -66.4261961 -0.913442E-02  0.456E-01    0.06       1.0  T
  42    -66.4262957 -0.996276E-04  0.383E-01    0.07       1.0  T
  43    -66.4139445  0.123513E-01  0.623E-01    0.08       1.0  T
  44    -66.4155583 -0.161379E-02  0.592E-01    0.08       1.0  T
  45    -66.4310564 -0.154982E-01  0.208E-01    0.07       1.0  T
  46    -66.4332600 -0.220362E-02  0.705E-02    0.07       1.0  T
  47    -66.4332570  0.300342E-05  0.855E-02    0.06       1.0  T
  48    -66.4334701 -0.213062E-03  0.597E-02    0.06       1.0  T
  49    -66.4335034 -0.333542E-04  0.479E-02    0.06       1.0  T
  50    -66.4335052 -0.178681E-05  0.458E-02    0.06       1.0  T
  51    -66.4335094 -0.415594E-05  0.424E-02    0.07       1.0  T
  52    -66.4335317 -0.223316E-04  0.250E-02    0.07       1.0  T
  53    -66.4335302  0.150483E-05  0.217E-02    0.07       1.0  T
  54    -66.4335306 -0.374212E-06  0.197E-02    0.07       1.0  T
  55    -66.4335222  0.833620E-05  0.190E-02    0.07       1.0  T
  56    -66.4335282 -0.593080E-05  0.168E-02    0.07       1.1  T
  57    -66.4335296 -0.138118E-05  0.154E-02    0.07       1.3  T
  58    -66.4335325 -0.298671E-05  0.132E-02    0.07       1.5  T
  59    -66.4335331 -0.524199E-06  0.102E-02    0.07       1.9  T
  60    -66.4335337 -0.674178E-06  0.730E-03    0.07       2.6  T
  61    -66.4335339 -0.195667E-06  0.470E-03    0.07       4.1  T
  62    -66.4335341 -0.205606E-06  0.298E-03    0.07       6.5  T
  63    -66.4335344 -0.227107E-06  0.146E-03    0.07      13.2  T
  64    -66.4335344  0.610652E-08  0.796E-04    0.07      24.2  T
  65    -66.4335344 -0.175511E-07  0.483E-04    0.07      39.9  T

   *** convergence criteria satisfied after 65 iterations ***

         #    Occupation            Energy/Eh            Energy/eV
      -------------------------------------------------------------
         1        2.0000           -0.8724861             -23.7416
       ...           ...                  ...                  ...
        54        2.0000           -0.4483558             -12.2004
        55        2.0000           -0.4424397             -12.0394
        56        1.9998           -0.4350053             -11.8371
        57        1.9994           -0.4336968             -11.8015
        58        1.9726           -0.4301063             -11.7038
        59        1.5463           -0.4270567             -11.6208
        60        1.1792           -0.4260594             -11.5937 (HOMO)
        61        0.3027           -0.4236466             -11.5280 (LUMO)
        62        0.0000           -0.4150111             -11.2930
        63                         -0.4033981             -10.9770
        64                         -0.4031782             -10.9710
        65                         -0.3897069             -10.6045
       ...                                ...                  ...
       113                          1.0390978              28.2753
      -------------------------------------------------------------
                  HL-Gap            0.0024127 Eh            0.0657 eV
             Fermi-level           -0.4256182 Eh          -11.5817 eV

 SCC (total)                   0 d,  0 h,  0 min,  0.623 sec
 SCC setup                      ...        0 min,  0.000 sec (  0.075%)
 Dispersion                     ...        0 min,  0.001 sec (  0.224%)
 classical contributions        ...        0 min,  0.003 sec (  0.509%)
 integral evaluation            ...        0 min,  0.009 sec (  1.436%)
 iterations                     ...        0 min,  0.581 sec ( 93.245%)
 molecular gradient             ...        0 min,  0.024 sec (  3.842%)
 printout                       ...        0 min,  0.004 sec (  0.661%)

         :::::::::::::::::::::::::::::::::::::::::::::::::::::
         ::                     SUMMARY                     ::
         :::::::::::::::::::::::::::::::::::::::::::::::::::::
         :: total energy             -65.614782766560 Eh    ::
         :: gradient norm              0.416222251980 Eh/a0 ::
         :: HOMO-LUMO gap              0.065653733842 eV    ::
         ::.................................................::
         :: SCC energy               -66.433534379980 Eh    ::
         :: -> isotropic ES            0.044588293560 Eh    ::
         :: -> anisotropic ES          0.006024662735 Eh    ::
         :: -> anisotropic XC          0.041093321328 Eh    ::
         :: -> dispersion             -0.040875350949 Eh    ::
         :: repulsion energy           0.818930310300 Eh    ::
         :: add. restraining           0.000000000000 Eh    ::
         :: total charge              -0.000000000008 e     ::
         :::::::::::::::::::::::::::::::::::::::::::::::::::::

           -------------------------------------------------
          |                Property Printout                |
           -------------------------------------------------

    * Orbital Energies and Occupations

         #    Occupation            Energy/Eh            Energy/eV
      -------------------------------------------------------------
         1        2.0000           -0.8724861             -23.7416
       ...           ...                  ...                  ...
        48        2.0000           -0.4723191             -12.8525
        49        2.0000           -0.4695872             -12.7781
        50        2.0000           -0.4564003             -12.4193
        51        2.0000           -0.4553482             -12.3907
        52        2.0000           -0.4525080             -12.3134
        53        2.0000           -0.4503997             -12.2560
        54        2.0000           -0.4483558             -12.2004
        55        2.0000           -0.4424397             -12.0394
        56        1.9998           -0.4350053             -11.8371
        57        1.9994           -0.4336968             -11.8015
        58        1.9726           -0.4301063             -11.7038
        59        1.5463           -0.4270567             -11.6208
        60        1.1792           -0.4260594             -11.5937 (HOMO)
        61        0.3027           -0.4236466             -11.5280 (LUMO)
        62        0.0000           -0.4150111             -11.2930
        63                         -0.4033981             -10.9770
        64                         -0.4031782             -10.9710
        65                         -0.3897069             -10.6045
        66                         -0.3682058             -10.0194
        67                         -0.3367010              -9.1621
        68                         -0.3217623              -8.7556
        69                         -0.3037116              -8.2644
        70                         -0.3031069              -8.2480
        71                         -0.3021906              -8.2230
       ...                                ...                  ...
       113                          1.0390978              28.2753
      -------------------------------------------------------------
                  HL-Gap            0.0024127 Eh            0.0657 eV
             Fermi-level           -0.4256182 Eh          -11.5817 eV

     #   Z          covCN         q      C6AA      α(0)
     1   6 C        0.985    -0.047    37.390    10.273
     2   6 C        1.964     0.016    30.656     8.941
     3   6 C        2.781     0.305    21.829     7.653
     4   8 O        0.856    -0.413    21.953     6.282
     5   7 N        1.832    -0.166    25.396     7.468
     6   6 C        2.924     0.117    25.434     8.270
     7   6 C        1.994    -0.039    32.100     9.150
     8   6 C        2.973     0.015    27.679     8.630
     9   6 C        2.899     0.132    25.106     8.216
    10   7 N        1.837    -0.119    24.363     7.315
    11   6 C        2.918     0.121    25.346     8.256
    12   6 C        1.992     0.004    30.956     8.985
    13   6 C        1.987    -0.015    31.440     9.055
    14   6 C        2.061     0.023    30.374     8.902
    15   6 C        2.907     0.116    25.446     8.271
    16  35 Br       1.068    -0.051   186.423    22.015
    17   6 C        2.066    -0.088    33.343     9.328
    18   6 C        2.943     0.013    27.729     8.637
    19   6 C        1.914     0.119    28.181     8.573
    20   7 N        0.911    -0.195    25.244     7.267
    21   6 C        1.939     0.093    28.778     8.663
    22   7 N        1.832    -0.123    24.435     7.325
    23   6 C        2.912     0.118    25.405     8.265
    24   6 C        1.990    -0.065    32.808     9.250
    25   6 C        2.874     0.153    24.689     8.145
    26   8 O        1.703    -0.019    14.728     5.181
    27   6 C        0.882    -0.001    35.281     9.926

 Mol. C6AA /au·bohr⁶  :      22309.731098
 Mol. C8AA /au·bohr⁸  :     668124.683217
 Mol. α(0) /au        :        238.240721


Wiberg/Mayer (AO) data.
largest (>0.10) Wiberg bond orders for each atom

 ---------------------------------------------------------------------------
     #   Z sym  total        # sym  WBO       # sym  WBO       # sym  WBO
 ---------------------------------------------------------------------------
     1   6 C    2.666 --     2 C    2.424     4 O    0.107
     2   6 C    3.600 --     1 C    2.424     3 C    1.010     4 O    0.100
     3   6 C    3.931 --     5 N    1.430     4 O    1.380     2 C    1.010
     4   8 O    1.909 --     3 C    1.380     5 N    0.168     1 C    0.107
                             2 C    0.100
     5   7 N    3.182 --     3 C    1.430     6 C    1.170     4 O    0.168
                            27 C    0.132
     6   6 C    3.934 --     7 C    1.396     5 N    1.170    25 C    1.141
     7   6 C    3.745 --     8 C    1.481     6 C    1.396    24 C    0.472
     8   6 C    3.951 --     7 C    1.481    23 C    1.141     9 C    1.061
     9   6 C    3.935 --    10 N    1.649     8 C    1.061    18 C    0.981
    10   7 N    3.292 --     9 C    1.649    11 C    1.106    21 C    0.166
    11   6 C    3.952 --    17 C    1.347    12 C    1.309    10 N    1.106
    12   6 C    3.744 --    13 C    1.623    11 C    1.309    14 C    0.397
                            17 C    0.160    15 C    0.102
    13   6 C    3.782 --    14 C    1.642    12 C    1.623    17 C    0.415
    14   6 C    3.740 --    13 C    1.642    15 C    1.367    12 C    0.397
                            17 C    0.143
    15   6 C    3.930 --    17 C    1.413    14 C    1.367    16 Br   0.997
                            12 C    0.102
    16  35 Br   1.206 --    15 C    0.997
    17   6 C    3.607 --    15 C    1.413    11 C    1.347    13 C    0.415
                            12 C    0.160    14 C    0.143
    18   6 C    3.883 --    21 C    1.563    19 C    1.105     9 C    0.981
    19   6 C    3.944 --    20 N    2.778    18 C    1.105
    20   7 N    2.979 --    19 C    2.778
    21   6 C    3.745 --    22 N    1.656    18 C    1.563    10 N    0.166
    22   7 N    3.207 --    21 C    1.656    23 C    1.183
    23   6 C    3.908 --    24 C    1.348    22 N    1.183     8 C    1.141
    24   6 C    3.687 --    25 C    1.493    23 C    1.348     7 C    0.472
Note: The following floating-point exceptions are signalling: IEEE_UNDERFLOW_FLAG IEEE_DENORMAL
normal termination of xtb
                            27 C    0.111
    25   6 C    3.862 --    24 C    1.493     6 C    1.141    26 O    0.987
    26   8 O    2.651 --    27 C    1.575    25 C    0.987
    27   6 C    2.096 --    26 O    1.575     5 N    0.132    24 C    0.111
 ---------------------------------------------------------------------------

Topologies differ in total number of bonds
Writing topology from bond orders to xtbtopo.mol

molecular dipole:
                 x           y           z       tot (Debye)
 q only:        0.175       1.448      -0.579
   full:        0.697       1.128      -0.248       3.429
molecular quadrupole (traceless):
                xx          xy          yy          xz          yz          zz
 q only:        8.042      -5.530     -19.736      -1.392       8.915      11.694
  q+dip:        9.388       1.573     -28.009      -3.170       8.211      18.621
   full:       10.861       1.162     -30.841      -2.593       5.247      19.980


           -------------------------------------------------
          | TOTAL ENERGY              -65.614782766560 Eh   |
          | GRADIENT NORM               0.416222251980 Eh/α |
          | HOMO-LUMO GAP               0.065653733842 eV   |
           -------------------------------------------------

------------------------------------------------------------------------
 * finished run on 2026/07/23 at 16:38:20.958     
------------------------------------------------------------------------
 total:
 * wall-time:     0 d,  0 h,  0 min,  0.643 sec
 *  cpu-time:     0 d,  0 h,  0 min,  0.588 sec
 * ratio c/w:     0.915 speedup
 SCF:
 * wall-time:     0 d,  0 h,  0 min,  0.623 sec
 *  cpu-time:     0 d,  0 h,  0 min,  0.570 sec
 * ratio c/w:     0.914 speedup

