      -----------------------------------------------------------      
     |                   =====================                   |     
     |                           x T B                           |     
     |                   =====================                   |     
     |                         S. Grimme                         |     
     |          Mulliken Center for Theoretical Chemistry        |     
     |                    University of Bonn                     |     
      -----------------------------------------------------------      

   * xtb version 6.6.1 (unknown) compiled by 'builduser@buildhost' on 2023-08-07

   xtb is free software: you can redistribute it and/or modify it under
   the terms of the GNU Lesser General Public License as published by
   the Free Software Foundation, either version 3 of the License, or
   (at your option) any later version.
   
   xtb is distributed in the hope that it will be useful,
   but WITHOUT ANY WARRANTY; without even the implied warranty of
   MERCHANTABILITY or FITNESS FOR A PARTICULAR PURPOSE.  See the
   GNU Lesser General Public License for more details.
   
   Cite this work as:
   * C. Bannwarth, E. Caldeweyher, S. Ehlert, A. Hansen, P. Pracht,
     J. Seibert, S. Spicher, S. Grimme, WIREs Comput. Mol. Sci., 2020, 11,
     e01493. DOI: 10.1002/wcms.1493
   
   for GFN2-xTB:
   * C. Bannwarth, S. Ehlert and S. Grimme., J. Chem. Theory Comput., 2019,
     15, 1652-1671. DOI: 10.1021/acs.jctc.8b01176
   for GFN1-xTB:
   * S. Grimme, C. Bannwarth, P. Shushkov, J. Chem. Theory Comput., 2017,
     13, 1989-2009. DOI: 10.1021/acs.jctc.7b00118
   for GFN0-xTB:
   * P. Pracht, E. Caldeweyher, S. Ehlert, S. Grimme, ChemRxiv, 2019, preprint.
     DOI: 10.26434/chemrxiv.8326202.v1
   for GFN-FF:
   * S. Spicher and S. Grimme, Angew. Chem. Int. Ed., 2020, 59, 15665-15673.
     DOI: 10.1002/anie.202004239
   
   for ALPB and GBSA implicit solvation:
   * S. Ehlert, M. Stahn, S. Spicher, S. Grimme, J. Chem. Theory Comput.,
     2021, 17, 4250-4261. DOI: 10.1021/acs.jctc.1c00471
   
   for DFT-D4:
   * E. Caldeweyher, C. Bannwarth and S. Grimme, J. Chem. Phys., 2017,
     147, 034112. DOI: 10.1063/1.4993215
   * E. Caldeweyher, S. Ehlert, A. Hansen, H. Neugebauer, S. Spicher,
     C. Bannwarth and S. Grimme, J. Chem. Phys., 2019, 150, 154122.
     DOI: 10.1063/1.5090222
   * E. Caldeweyher, J.-M. Mewes, S. Ehlert and S. Grimme, Phys. Chem. Chem. Phys.
     2020, 22, 8499-8512. DOI: 10.1039/D0CP00502A
   
   for sTDA-xTB:
   * S. Grimme and C. Bannwarth, J. Chem. Phys., 2016, 145, 054103.
     DOI: 10.1063/1.4959605
   
   in the mass-spec context:
   * V. Asgeirsson, C. Bauer and S. Grimme, Chem. Sci., 2017, 8, 4879.
     DOI: 10.1039/c7sc00601b
   * J. Koopman and S. Grimme, ACS Omega 2019, 4, 12, 15120-15133.
     DOI: 10.1021/acsomega.9b02011
   
   for metadynamics refer to:
   * S. Grimme, J. Chem. Theory Comput., 2019, 155, 2847-2862
     DOI: 10.1021/acs.jctc.9b00143
   
   for SPH calculations refer to:
   * S. Spicher and S. Grimme, J. Chem. Theory Comput., 2021, 17, 1701-1714
     DOI: 10.1021/acs.jctc.0c01306
   
   with help from (in alphabetical order)
   P. Atkinson, C. Bannwarth, F. Bohle, G. Brandenburg, E. Caldeweyher
   M. Checinski, S. Dohm, S. Ehlert, S. Ehrlich, I. Gerasimov, C. Hölzer
   A. Katbashev, J. Koopman, C. Lavigne, S. Lehtola, F. März, M. Müller,
   F. Musil, H. Neugebauer, J. Pisarek, C. Plett, P. Pracht, F. Pultar,
   J. Seibert, P. Shushkov, S. Spicher, M. Stahn, M. Steiner, T. Strunk,
   J. Stückrath, T. Rose, and J. Unsleber
   
 * started run on 2026/07/23 at 16:42:10.256     

           -------------------------------------------------
          |                Calculation Setup                |
           -------------------------------------------------

          program call               : xtb /home/selva/covalent_quantum_benchmark/data/quantum/erbB_xyz/ERBB2__CHEMBL360211__state03.xyz --gfn2 --chrg 0 --uhf 0 --iterations 300
          coordinate file            : /home/selva/covalent_quantum_benchmark/data/quantum/erbB_xyz/ERBB2__CHEMBL360211__state03.xyz
          omp threads                :                    24

   ID    Z sym.   atoms
    1    6 C      1, 2, 4-6, 8-10, 12, 14-17, 19-26, 28-31, 33, 35-37, 39,
                  40, 42, 43, 45, 46, 48, 49
    2    8 O      3, 18, 34, 41, 44, 47
    3    7 N      7, 11, 13, 32, 38
    4   17 Cl     27

           -------------------------------------------------
          |                 G F N 2 - x T B                 |
           -------------------------------------------------

        Reference                      10.1021/acs.jctc.8b01176
      * Hamiltonian:
        H0-scaling (s, p, d)           1.850000    2.230000    2.230000
        zeta-weighting                 0.500000
      * Dispersion:
        s8                             2.700000
        a1                             0.520000
        a2                             5.000000
        s9                             5.000000
      * Repulsion:
        kExp                           1.500000    1.000000
        rExp                           1.000000
      * Coulomb:
        alpha                          2.000000
        third order                    shell-resolved
        anisotropic                    true
        a3                             3.000000
        a5                             4.000000
        cn-shift                       1.200000
        cn-exp                         4.000000
        max-rad                        5.000000


          ...................................................
          :                      SETUP                      :
          :.................................................:
          :  # basis functions                 202          :
          :  # atomic orbitals                 201          :
          :  # shells                           99          :
          :  # electrons                       216          :
          :  max. iterations                   300          :
          :  Hamiltonian                  GFN2-xTB          :
          :  restarted?                      false          :
          :  GBSA solvation                  false          :
          :  PC potential                    false          :
          :  electronic temp.          300.0000000     K    :
          :  accuracy                    1.0000000          :
          :  -> integral cutoff          0.2500000E+02      :
          :  -> integral neglect         0.1000000E-07      :
          :  -> SCF convergence          0.1000000E-05 Eh   :
          :  -> wf. convergence          0.1000000E-03 e    :
          :  Broyden damping             0.4000000          :
          ...................................................

 iter      E             dE          RMSdq      gap      omega  full diag
   1   -120.6640680 -0.120664E+03  0.818E+00    0.04       0.0  T
   2    -95.4008990  0.252632E+02  0.121E+01    0.03       1.0  T
   3    -81.7497495  0.136511E+02  0.121E+01    0.21       1.0  T
   4    -83.1464204 -0.139667E+01  0.121E+01    0.12       1.0  T
   5    -98.8269534 -0.156805E+02  0.936E+00    0.02       1.0  T
   6   -117.0770588 -0.182501E+02  0.620E+00    0.08       1.0  T
   7   -118.4475513 -0.137049E+01  0.539E+00    0.06       1.0  T
   8   -119.0036253 -0.556074E+00  0.435E+00    0.03       1.0  T
   9   -118.8149843  0.188641E+00  0.421E+00    0.04       1.0  T
  10   -120.2551931 -0.144021E+01  0.328E+00    0.03       1.0  T
  11   -120.4406172 -0.185424E+00  0.328E+00    0.23       1.0  T
  12   -120.9258847 -0.485267E+00  0.260E+00    0.07       1.0  T
  13   -120.7484560  0.177429E+00  0.273E+00    0.15       1.0  T
  14   -120.9714401 -0.222984E+00  0.239E+00    0.02       1.0  T
  15   -120.8401998  0.131240E+00  0.240E+00    0.22       1.0  T
  16   -121.0445493 -0.204349E+00  0.201E+00    0.02       1.0  T
  17   -120.7955334  0.249016E+00  0.248E+00    0.06       1.0  T
  18   -121.1332136 -0.337680E+00  0.187E+00    0.04       1.0  T
  19   -120.9140497  0.219164E+00  0.226E+00    0.05       1.0  T
  20   -120.9659530 -0.519032E-01  0.216E+00    0.06       1.0  T
  21   -121.0128011 -0.468481E-01  0.206E+00    0.05       1.0  T
  22   -121.0366763 -0.238752E-01  0.183E+00    0.01       1.0  T
  23   -121.3563587 -0.319682E+00  0.110E+00    0.06       1.0  T
  24   -121.3448286  0.115301E-01  0.111E+00    0.07       1.0  T
  25   -121.3563635 -0.115350E-01  0.880E-01    0.04       1.0  T
  26   -121.3814901 -0.251266E-01  0.748E-01    0.03       1.0  T
  27   -121.1864100  0.195080E+00  0.128E+00    0.02       1.0  T
  28   -121.2800610 -0.936509E-01  0.102E+00    0.02       1.0  T
  29   -121.2475956  0.324654E-01  0.108E+00    0.02       1.0  T
  30   -121.3576569 -0.110061E+00  0.750E-01    0.03       1.0  T
  31   -121.3783952 -0.207383E-01  0.672E-01    0.05       1.0  T
  32   -121.3891204 -0.107252E-01  0.604E-01    0.05       1.0  T
  33   -121.3932631 -0.414267E-02  0.579E-01    0.05       1.0  T
  34   -121.4215897 -0.283267E-01  0.318E-01    0.06       1.0  T
  35   -121.4240375 -0.244778E-02  0.250E-01    0.05       1.0  T
  36   -121.4261353 -0.209780E-02  0.221E-01    0.05       1.0  T
  37   -121.4264049 -0.269615E-03  0.214E-01    0.05       1.0  T
  38   -121.4296630 -0.325806E-02  0.148E-01    0.05       1.0  T
  39   -121.4302006 -0.537622E-03  0.123E-01    0.05       1.0  T
  40   -121.4321392 -0.193861E-02  0.395E-02    0.05       1.0  T
  41   -121.4322451 -0.105922E-03  0.249E-02    0.05       1.0  T
  42   -121.4322200  0.251152E-04  0.234E-02    0.05       1.0  T
  43   -121.4316711  0.548907E-03  0.659E-02    0.05       1.0  T
  44   -121.4318067 -0.135558E-03  0.588E-02    0.05       1.0  T
  45   -121.4321583 -0.351603E-03  0.307E-02    0.05       1.0  T
  46   -121.4322533 -0.950099E-04  0.172E-02    0.05       1.0  T
  47   -121.4322763 -0.230222E-04  0.968E-03    0.05       1.5  T
  48   -121.4322650  0.113051E-04  0.128E-02    0.05       1.1  T
  49   -121.4322786 -0.135940E-04  0.781E-03    0.05       1.8  T
  50   -121.4322709  0.773388E-05  0.115E-02    0.05       1.2  T
  51   -121.4322789 -0.803864E-05  0.820E-03    0.05       1.7  T
  52   -121.4322832 -0.427920E-05  0.411E-03    0.05       3.5  T
  53   -121.4322831  0.117610E-06  0.484E-03    0.05       3.0  T
  54   -121.4322842 -0.112903E-05  0.315E-03    0.05       4.5  T
  55   -121.4322851 -0.848618E-06  0.151E-03    0.05       9.4  T
  56   -121.4322852 -0.160227E-06  0.124E-03    0.05      11.5  T
  57   -121.4322853 -0.739159E-07  0.908E-04    0.05      15.7  T
  58   -121.4322854 -0.743097E-07  0.450E-04    0.05      31.7  T

   *** convergence criteria satisfied after 58 iterations ***

         #    Occupation            Energy/Eh            Energy/eV
      -------------------------------------------------------------
         1        2.0000           -1.0941390             -29.7730
       ...           ...                  ...                  ...
       102        2.0000           -0.4323480             -11.7648
       103        1.9969           -0.4269984             -11.6192
       104        1.9668           -0.4247259             -11.5574
       105        1.8379           -0.4231547             -11.5146
       106        1.7416           -0.4226606             -11.5012
       107        1.7010           -0.4224996             -11.4968
       108        1.6103           -0.4221957             -11.4885 (HOMO)
       109        0.7638           -0.4203905             -11.4394 (LUMO)
       110        0.3811           -0.4194736             -11.4145
       111        0.0006           -0.4131380             -11.2421
       112        0.0000           -0.4093127             -11.1380
       113        0.0000           -0.4064673             -11.0605
       ...           ...                  ...                  ...
       201                          1.0408052              28.3218
      -------------------------------------------------------------
                  HL-Gap            0.0018052 Eh            0.0491 eV
             Fermi-level           -0.4208479 Eh          -11.4519 eV

 SCC (total)                   0 d,  0 h,  0 min,  1.721 sec
 SCC setup                      ...        0 min,  0.001 sec (  0.042%)
 Dispersion                     ...        0 min,  0.003 sec (  0.161%)
 classical contributions        ...        0 min,  0.001 sec (  0.050%)
 integral evaluation            ...        0 min,  0.017 sec (  1.007%)
 iterations                     ...        0 min,  1.653 sec ( 96.037%)
 molecular gradient             ...        0 min,  0.040 sec (  2.350%)
 printout                       ...        0 min,  0.006 sec (  0.351%)

         :::::::::::::::::::::::::::::::::::::::::::::::::::::
         ::                     SUMMARY                     ::
         :::::::::::::::::::::::::::::::::::::::::::::::::::::
         :: total energy            -120.236885260424 Eh    ::
         :: gradient norm              0.697570084478 Eh/a0 ::
         :: HOMO-LUMO gap              0.049122462433 eV    ::
         ::.................................................::
         :: SCC energy              -121.432285361253 Eh    ::
         :: -> isotropic ES            0.050804724585 Eh    ::
         :: -> anisotropic ES          0.012313136871 Eh    ::
         :: -> anisotropic XC          0.063399526187 Eh    ::
         :: -> dispersion             -0.076306448848 Eh    ::
         :: repulsion energy           1.193175249245 Eh    ::
         :: add. restraining           0.000000000000 Eh    ::
         :: total charge               0.000000000771 e     ::
         :::::::::::::::::::::::::::::::::::::::::::::::::::::

           -------------------------------------------------
          |                Property Printout                |
           -------------------------------------------------

    * Orbital Energies and Occupations

         #    Occupation            Energy/Eh            Energy/eV
      -------------------------------------------------------------
         1        2.0000           -1.0941390             -29.7730
       ...           ...                  ...                  ...
        96        2.0000           -0.4462508             -12.1431
        97        2.0000           -0.4454809             -12.1222
        98        2.0000           -0.4445958             -12.0981
        99        2.0000           -0.4409408             -11.9986
       100        2.0000           -0.4361166             -11.8673
       101        2.0000           -0.4343738             -11.8199
       102        2.0000           -0.4323480             -11.7648
       103        1.9969           -0.4269984             -11.6192
       104        1.9668           -0.4247259             -11.5574
       105        1.8379           -0.4231547             -11.5146
       106        1.7416           -0.4226606             -11.5012
       107        1.7010           -0.4224996             -11.4968
       108        1.6103           -0.4221957             -11.4885 (HOMO)
       109        0.7638           -0.4203905             -11.4394 (LUMO)
       110        0.3811           -0.4194736             -11.4145
       111        0.0006           -0.4131380             -11.2421
       112        0.0000           -0.4093127             -11.1380
       113        0.0000           -0.4064673             -11.0605
       114                         -0.4009203             -10.9096
       115                         -0.3978817             -10.8269
       116                         -0.3914874             -10.6529
       117                         -0.3882693             -10.5653
       118                         -0.3840996             -10.4519
       119                         -0.3733663             -10.1598
       ...                                ...                  ...
       201                          1.0408052              28.3218
      -------------------------------------------------------------
                  HL-Gap            0.0018052 Eh            0.0491 eV
             Fermi-level           -0.4208479 Eh          -11.4519 eV

     #   Z          covCN         q      C6AA      α(0)
     1   6 C        0.976    -0.094    38.856    10.467
     2   6 C        1.837     0.103    28.607     8.641
     3   8 O        1.703    -0.117    16.078     5.414
     4   6 C        2.850     0.159    24.559     8.122
     5   6 C        2.002    -0.081    33.257     9.313
     6   6 C        2.951     0.119    25.383     8.263
     7   7 N        1.845    -0.108    24.135     7.281
     8   6 C        1.969     0.065    29.417     8.759
     9   6 C        2.958     0.034    27.236     8.560
    10   6 C        1.907     0.123    28.095     8.560
    11   7 N        0.911    -0.179    24.881     7.214
    12   6 C        2.911     0.131    25.140     8.222
    13   7 N        1.828    -0.141    24.829     7.384
    14   6 C        2.891     0.144    24.863     8.175
    15   6 C        1.990    -0.067    32.854     9.257
    16   6 C        1.986    -0.073    33.045     9.283
    17   6 C        2.873     0.179    24.162     8.058
    18   8 O        1.703    -0.117    16.075     5.413
    19   6 C        1.842     0.059    29.651     8.797
    20   6 C        2.959     0.074    26.342     8.418
    21   6 C        1.990    -0.025    31.707     9.094
    22   6 C        1.986    -0.014    31.423     9.053
    23   6 C        1.987     0.031    30.251     8.882
    24   6 C        1.986    -0.009    31.289     9.033
    25   6 C        1.990    -0.035    31.993     9.134
    26   6 C        2.879     0.090    25.986     8.357
    27  17 Cl       0.959    -0.058   100.952    15.372
    28   6 C        2.034    -0.067    32.805     9.251
    29   6 C        2.977     0.022    27.519     8.605
    30   6 C        1.995    -0.064    32.786     9.247
    31   6 C        2.938     0.094    25.918     8.349
    32   7 N        1.831    -0.144    24.897     7.394
    33   6 C        2.796     0.290    22.081     7.698
    34   8 O        0.862    -0.379    21.261     6.182
    35   6 C        1.967     0.013    30.726     8.952
    36   6 C        1.967    -0.008    31.269     9.030
    37   6 C        1.899    -0.021    31.685     9.091
    38   7 N        2.724     0.105    19.445     6.549
    39   6 C        1.891    -0.005    31.255     9.029
    40   6 C        1.840     0.070    29.387     8.757
    41   8 O        1.696    -0.127    16.224     5.438
    42   6 C        1.842     0.040    30.129     8.867
    43   6 C        1.840     0.067    29.458     8.768
    44   8 O        1.696    -0.117    16.078     5.414
    45   6 C        1.839     0.067    29.474     8.771
    46   6 C        1.844     0.057    29.698     8.803
    47   8 O        1.697    -0.096    15.788     5.365
    48   6 C        1.844     0.034    30.273     8.888
    49   6 C        1.892    -0.025    31.778     9.104

 Mol. C6AA /au·bohr⁶  :      67125.498621
 Mol. C8AA /au·bohr⁸  :    1866327.435636
 Mol. α(0) /au        :        410.079395


Wiberg/Mayer (AO) data.
largest (>0.10) Wiberg bond orders for each atom

 ---------------------------------------------------------------------------
     #   Z sym  total        # sym  WBO       # sym  WBO       # sym  WBO
 ---------------------------------------------------------------------------
     1   6 C    2.417 --     2 C    2.179     3 O    0.107
     2   6 C    3.500 --     1 C    2.179     3 O    1.114
     3   8 O    2.449 --     2 C    1.114     4 C    1.094     1 C    0.107
     4   6 C    3.902 --     5 C    1.466     3 O    1.094    31 C    1.084
     5   6 C    3.687 --     4 C    1.466     6 C    1.392    30 C    0.507
     6   6 C    3.920 --     5 C    1.392     7 N    1.241    29 C    1.068
     7   7 N    3.270 --     8 C    1.674     6 C    1.241
     8   6 C    3.539 --     7 N    1.674     9 C    1.373    13 N    0.172
     9   6 C    3.925 --     8 C    1.373    12 C    1.234    10 C    1.081
    10   6 C    3.944 --    11 N    2.815     9 C    1.081
    11   7 N    2.996 --    10 C    2.815
    12   6 C    3.943 --    13 N    1.237     9 C    1.234    29 C    1.196
    13   7 N    3.124 --    14 C    1.310    12 C    1.237     8 C    0.172
    14   6 C    3.899 --    13 N    1.310    28 C    1.250    15 C    1.177
    15   6 C    3.649 --    16 C    1.833    14 C    1.177    28 C    0.303
    16   6 C    3.488 --    15 C    1.833    17 C    1.289    28 C    0.165
    17   6 C    3.837 --    16 C    1.289    26 C    1.167    18 O    1.101
    18   8 O    2.440 --    19 C    1.128    17 C    1.101
    19   6 C    2.944 --    20 C    1.193    18 O    1.128
    20   6 C    3.895 --    21 C    1.258    25 C    1.254    19 C    1.193
    21   6 C    3.503 --    22 C    1.611    20 C    1.258    24 C    0.235
                            23 C    0.194
    22   6 C    3.619 --    21 C    1.611    23 C    1.600    25 C    0.261
    23   6 C    3.749 --    22 C    1.600    24 C    1.585    21 C    0.194
                            25 C    0.192
    24   6 C    3.617 --    25 C    1.597    23 C    1.585    21 C    0.235
    25   6 C    3.496 --    24 C    1.597    20 C    1.254    22 C    0.261
                            23 C    0.192
    26   6 C    3.877 --    28 C    1.521    17 C    1.167    27 Cl   1.013
    27  17 Cl   1.198 --    26 C    1.013
    28   6 C    3.476 --    26 C    1.521    14 C    1.250    15 C    0.303
                            16 C    0.165
    29   6 C    3.935 --    30 C    1.422    12 C    1.196     6 C    1.068
    30   6 C    3.757 --    31 C    1.447    29 C    1.422     5 C    0.507
    31   6 C    3.942 --    30 C    1.447    32 N    1.171     4 C    1.084
    32   7 N    3.234 --    33 C    1.461    31 C    1.171    34 O    0.168
    33   6 C    3.942 --    32 N    1.461    34 O    1.405    35 C    0.985
    34   8 O    1.835 --    33 C    1.405    32 N    0.168
    35   6 C    3.655 --    36 C    2.190    33 C    0.985    37 C    0.222
    36   6 C    3.814 --    35 C    2.190    37 C    1.406
    37   6 C    3.085 --    36 C    1.406    38 N    1.028    35 C    0.222
    38   7 N    3.638 --    39 C    1.241    49 C    1.160    37 C    1.028
    39   6 C    3.401 --    40 C    1.588    38 N    1.241    49 C    0.145
                            48 C    0.129
    40   6 C    3.243 --    39 C    1.588    41 O    1.084    49 C    0.147
                            48 C    0.121
    41   8 O    2.463 --    42 C    1.107    40 C    1.084
    42   6 C    3.412 --    43 C    1.934    41 O    1.107    44 O    0.115
    43   6 C    3.461 --    42 C    1.934    44 O    1.161
    44   8 O    2.486 --    43 C    1.161    45 C    1.077    42 C    0.115
    45   6 C    3.132 --    46 C    1.663    44 O    1.077
    46   6 C    3.306 --    45 C    1.663    47 O    1.246    48 C    0.101
    47   8 O    2.559 --    46 C    1.246    48 C    1.122
    48   6 C    3.254 --    49 C    1.582    47 O    1.122    39 C    0.129
                            40 C    0.121    46 C    0.101
    49   6 C    3.411 --    48 C    1.582    38 N    1.160    40 C    0.147
                            39 C    0.145
 ---------------------------------------------------------------------------

Topologies differ in total number of bonds
Writing topology from bond orders to xtbtopo.mol

molecular dipole:
                 x           y           z       tot (Debye)
 q only:        1.441       0.133       1.896
   full:        1.437      -1.196       1.450       6.014
molecular quadrupole (traceless):
                xx          xy          yy          xz          yz          zz
 q only:       -6.352      -6.165      12.182     -18.194      -2.561      -5.830
  q+dip:      -13.588      -2.974      21.780     -28.055      -4.922      -8.193
   full:      -14.422      -5.090      23.272     -29.289      -4.269      -8.851


           -------------------------------------------------
          | TOTAL ENERGY             -120.236885260424 Eh   |
          | GRADIENT NORM               0.697570084478 Eh/α |
          | HOMO-LUMO GAP               0.049122462433 eV   |
           -------------------------------------------------

------------------------------------------------------------------------
 * finished run on 2026/07/23 at 16:42:12.003     
------------------------------------------------------------------------
 total:
 * wall-time:     0 d,  0 h,  0 min,  1.747 sec
 *  cpu-time:     0 d,  0 h,  0 min,  1.735 sec
 * ratio c/w:     0.993 speedup
 SCF:
 * wall-time:     0 d,  0 h,  0 min,  1.722 sec
 *  cpu-time:     0 d,  0 h,  0 min,  1.706 sec
 * ratio c/w:     0.991 speedup
Note: The following floating-point exceptions are signalling: IEEE_UNDERFLOW_FLAG IEEE_DENORMAL
normal termination of xtb

