      -----------------------------------------------------------      
     |                   =====================                   |     
     |                           x T B                           |     
     |                   =====================                   |     
     |                         S. Grimme                         |     
     |          Mulliken Center for Theoretical Chemistry        |     
     |                    University of Bonn                     |     
      -----------------------------------------------------------      

   * xtb version 6.6.1 (unknown) compiled by 'builduser@buildhost' on 2023-08-07

   xtb is free software: you can redistribute it and/or modify it under
   the terms of the GNU Lesser General Public License as published by
   the Free Software Foundation, either version 3 of the License, or
   (at your option) any later version.
   
   xtb is distributed in the hope that it will be useful,
   but WITHOUT ANY WARRANTY; without even the implied warranty of
   MERCHANTABILITY or FITNESS FOR A PARTICULAR PURPOSE.  See the
   GNU Lesser General Public License for more details.
   
   Cite this work as:
   * C. Bannwarth, E. Caldeweyher, S. Ehlert, A. Hansen, P. Pracht,
     J. Seibert, S. Spicher, S. Grimme, WIREs Comput. Mol. Sci., 2020, 11,
     e01493. DOI: 10.1002/wcms.1493
   
   for GFN2-xTB:
   * C. Bannwarth, S. Ehlert and S. Grimme., J. Chem. Theory Comput., 2019,
     15, 1652-1671. DOI: 10.1021/acs.jctc.8b01176
   for GFN1-xTB:
   * S. Grimme, C. Bannwarth, P. Shushkov, J. Chem. Theory Comput., 2017,
     13, 1989-2009. DOI: 10.1021/acs.jctc.7b00118
   for GFN0-xTB:
   * P. Pracht, E. Caldeweyher, S. Ehlert, S. Grimme, ChemRxiv, 2019, preprint.
     DOI: 10.26434/chemrxiv.8326202.v1
   for GFN-FF:
   * S. Spicher and S. Grimme, Angew. Chem. Int. Ed., 2020, 59, 15665-15673.
     DOI: 10.1002/anie.202004239
   
   for ALPB and GBSA implicit solvation:
   * S. Ehlert, M. Stahn, S. Spicher, S. Grimme, J. Chem. Theory Comput.,
     2021, 17, 4250-4261. DOI: 10.1021/acs.jctc.1c00471
   
   for DFT-D4:
   * E. Caldeweyher, C. Bannwarth and S. Grimme, J. Chem. Phys., 2017,
     147, 034112. DOI: 10.1063/1.4993215
   * E. Caldeweyher, S. Ehlert, A. Hansen, H. Neugebauer, S. Spicher,
     C. Bannwarth and S. Grimme, J. Chem. Phys., 2019, 150, 154122.
     DOI: 10.1063/1.5090222
   * E. Caldeweyher, J.-M. Mewes, S. Ehlert and S. Grimme, Phys. Chem. Chem. Phys.
     2020, 22, 8499-8512. DOI: 10.1039/D0CP00502A
   
   for sTDA-xTB:
   * S. Grimme and C. Bannwarth, J. Chem. Phys., 2016, 145, 054103.
     DOI: 10.1063/1.4959605
   
   in the mass-spec context:
   * V. Asgeirsson, C. Bauer and S. Grimme, Chem. Sci., 2017, 8, 4879.
     DOI: 10.1039/c7sc00601b
   * J. Koopman and S. Grimme, ACS Omega 2019, 4, 12, 15120-15133.
     DOI: 10.1021/acsomega.9b02011
   
   for metadynamics refer to:
   * S. Grimme, J. Chem. Theory Comput., 2019, 155, 2847-2862
     DOI: 10.1021/acs.jctc.9b00143
   
   for SPH calculations refer to:
   * S. Spicher and S. Grimme, J. Chem. Theory Comput., 2021, 17, 1701-1714
     DOI: 10.1021/acs.jctc.0c01306
   
   with help from (in alphabetical order)
   P. Atkinson, C. Bannwarth, F. Bohle, G. Brandenburg, E. Caldeweyher
   M. Checinski, S. Dohm, S. Ehlert, S. Ehrlich, I. Gerasimov, C. Hölzer
   A. Katbashev, J. Koopman, C. Lavigne, S. Lehtola, F. März, M. Müller,
   F. Musil, H. Neugebauer, J. Pisarek, C. Plett, P. Pracht, F. Pultar,
   J. Seibert, P. Shushkov, S. Spicher, M. Stahn, M. Steiner, T. Strunk,
   J. Stückrath, T. Rose, and J. Unsleber
   
 * started run on 2026/07/23 at 16:40:07.095     

           -------------------------------------------------
          |                Calculation Setup                |
           -------------------------------------------------

          program call               : xtb /home/selva/covalent_quantum_benchmark/data/quantum/erbB_xyz/ERBB2__CHEMBL1630115__state00.xyz --gfn2 --chrg 0 --uhf 0 --iterations 300
          coordinate file            : /home/selva/covalent_quantum_benchmark/data/quantum/erbB_xyz/ERBB2__CHEMBL1630115__state00.xyz
          omp threads                :                    24

   ID    Z sym.   atoms
    1    7 N      1, 8, 21, 23, 25
    2    6 C      2-7, 9, 11-20, 22, 24, 26-29, 31-36, 38, 39, 41-45
    3    8 O      10, 30
    4    9 F      37
    5   17 Cl     40

           -------------------------------------------------
          |                 G F N 2 - x T B                 |
           -------------------------------------------------

        Reference                      10.1021/acs.jctc.8b01176
      * Hamiltonian:
        H0-scaling (s, p, d)           1.850000    2.230000    2.230000
        zeta-weighting                 0.500000
      * Dispersion:
        s8                             2.700000
        a1                             0.520000
        a2                             5.000000
        s9                             5.000000
      * Repulsion:
        kExp                           1.500000    1.000000
        rExp                           1.000000
      * Coulomb:
        alpha                          2.000000
        third order                    shell-resolved
        anisotropic                    true
        a3                             3.000000
        a5                             4.000000
        cn-shift                       1.200000
        cn-exp                         4.000000
        max-rad                        5.000000


          ...................................................
          :                      SETUP                      :
          :.................................................:
          :  # basis functions                 186          :
          :  # atomic orbitals                 185          :
          :  # shells                           91          :
          :  # electrons                       195          :
          :  max. iterations                   300          :
          :  Hamiltonian                  GFN2-xTB          :
          :  restarted?                      false          :
          :  GBSA solvation                  false          :
          :  PC potential                    false          :
          :  electronic temp.          300.0000000     K    :
          :  accuracy                    1.0000000          :
          :  -> integral cutoff          0.2500000E+02      :
          :  -> integral neglect         0.1000000E-07      :
          :  -> SCF convergence          0.1000000E-05 Eh   :
          :  -> wf. convergence          0.1000000E-03 e    :
          :  Broyden damping             0.4000000          :
          ...................................................

 iter      E             dE          RMSdq      gap      omega  full diag
   1   -106.8274211 -0.106827E+03  0.828E+00    0.34       0.0  T
   2    -77.4307915  0.293966E+02  0.124E+01    0.04       1.0  T
   3    -67.5410529  0.988974E+01  0.134E+01    0.34       1.0  T
   4    -75.7964473 -0.825539E+01  0.108E+01    0.01       1.0  T
   5    -95.4439865 -0.196475E+02  0.912E+00    0.07       1.0  T
   6   -100.4831421 -0.503916E+01  0.696E+00    0.12       1.0  T
   7    -93.3490501  0.713409E+01  0.803E+00    0.05       1.0  T
   8   -104.0119148 -0.106629E+02  0.570E+00    0.41       1.0  T
   9   -105.9802963 -0.196838E+01  0.497E+00    0.04       1.0  T
  10   -106.1707880 -0.190492E+00  0.451E+00    0.16       1.0  T
  11   -106.8850650 -0.714277E+00  0.396E+00    0.10       1.0  T
  12   -107.1635482 -0.278483E+00  0.359E+00    0.03       1.0  T
  13   -107.6153250 -0.451777E+00  0.278E+00    0.02       1.0  T
  14   -107.0846474  0.530678E+00  0.321E+00    0.04       1.0  T
  15   -107.1550801 -0.704327E-01  0.366E+00    0.13       1.0  T
  16   -107.4238538 -0.268774E+00  0.329E+00    0.02       1.0  T
  17   -107.8188892 -0.395035E+00  0.275E+00    0.01       1.0  T
  18   -107.7230271  0.958621E-01  0.297E+00    0.04       1.0  T
  19   -108.0670751 -0.344048E+00  0.209E+00    0.02       1.0  T
  20   -107.0626630  0.100441E+01  0.344E+00    0.03       1.0  T
  21   -107.3079868 -0.245324E+00  0.318E+00    0.04       1.0  T
  22   -107.2645223  0.434645E-01  0.321E+00    0.04       1.0  T
  23   -107.6319289 -0.367407E+00  0.263E+00    0.01       1.0  T
  24   -107.6640416 -0.321127E-01  0.251E+00    0.03       1.0  T
  25   -108.3018407 -0.637799E+00  0.148E+00    0.02       1.0  T
  26   -108.2850081  0.168326E-01  0.145E+00    0.03       1.0  T
  27   -108.3682923 -0.832842E-01  0.132E+00    0.01       1.0  T
  28   -108.3267163  0.415760E-01  0.140E+00    0.01       1.0  T
  29   -108.3002450  0.264713E-01  0.134E+00    0.00       1.0  T
  30   -108.4002606 -0.100016E+00  0.103E+00    0.04       1.0  T
  31   -108.3865202  0.137404E-01  0.950E-01    0.02       1.0  T
  32   -108.3529077  0.336125E-01  0.937E-01    0.02       1.0  T
  33   -108.3891590 -0.362512E-01  0.791E-01    0.00       1.0  T
  34   -108.3908679 -0.170896E-02  0.755E-01    0.01       1.0  T
  35   -108.3603283  0.305397E-01  0.847E-01    0.01       1.0  T
  36   -108.4017488 -0.414205E-01  0.655E-01    0.00       1.0  T
  37   -108.4088471 -0.709831E-02  0.607E-01    0.00       1.0  T
  38   -108.4277103 -0.188632E-01  0.484E-01    0.01       1.0  T
  39   -108.4385487 -0.108384E-01  0.397E-01    0.01       1.0  T
  40   -108.4452272 -0.667851E-02  0.335E-01    0.02       1.0  T
  41   -108.4564844 -0.112572E-01  0.175E-01    0.02       1.0  T
  42   -108.4581207 -0.163635E-02  0.117E-01    0.01       1.0  T
  43   -108.4585810 -0.460261E-03  0.960E-02    0.01       1.0  T
  44   -108.4597691 -0.118812E-02  0.360E-02    0.01       1.0  T
  45   -108.4598804 -0.111283E-03  0.183E-02    0.01       1.0  T
  46   -108.4598141  0.662878E-04  0.293E-02    0.01       1.0  T
  47   -108.4598874 -0.732301E-04  0.171E-02    0.01       1.0  T
  48   -108.4598655  0.218619E-04  0.188E-02    0.01       1.0  T
  49   -108.4598969 -0.313978E-04  0.979E-03    0.01       1.5  T
  50   -108.4599011 -0.421719E-05  0.817E-03    0.01       1.8  T
  51   -108.4598987  0.240711E-05  0.799E-03    0.01       1.9  T
  52   -108.4598946  0.407183E-05  0.973E-03    0.01       1.5  T
  53   -108.4599033 -0.863167E-05  0.555E-03    0.01       2.7  T
  54   -108.4599058 -0.249415E-05  0.363E-03    0.01       4.1  T
  55   -108.4599071 -0.135792E-05  0.202E-03    0.01       7.4  T
  56   -108.4599074 -0.318161E-06  0.142E-03    0.01      10.5  T
  57   -108.4599076 -0.192348E-06  0.607E-04    0.01      24.5  T
  58   -108.4599076 -0.769144E-08  0.518E-04    0.01      28.8  T

   *** convergence criteria satisfied after 58 iterations ***

         #    Occupation            Energy/Eh            Energy/eV
      -------------------------------------------------------------
         1        2.0000           -1.0839433             -29.4956
       ...           ...                  ...                  ...
        92        1.9997           -0.4207103             -11.4481
        93        1.9861           -0.4170029             -11.3472
        94        1.9405           -0.4155952             -11.3089
        95        1.7066           -0.4139359             -11.2638
        96        1.4810           -0.4132380             -11.2448
        97        1.3650           -0.4129577             -11.2372
        98        1.2637           -0.4127337             -11.2311 (HOMO)
        99        1.0832           -0.4123612             -11.2209 (LUMO)
       100        0.1743           -0.4098834             -11.1535
       101        0.0000           -0.3992306             -10.8636
       102                         -0.3936788             -10.7125
       103                         -0.3904662             -10.6251
       ...                                ...                  ...
       185                          0.6323673              17.2076
      -------------------------------------------------------------
                  HL-Gap            0.0003726 Eh            0.0101 eV
             Fermi-level           -0.4121944 Eh          -11.2164 eV

 SCC (total)                   0 d,  0 h,  0 min,  1.300 sec
 SCC setup                      ...        0 min,  0.001 sec (  0.047%)
 Dispersion                     ...        0 min,  0.003 sec (  0.197%)
 classical contributions        ...        0 min,  0.001 sec (  0.070%)
 integral evaluation            ...        0 min,  0.015 sec (  1.153%)
 iterations                     ...        0 min,  1.248 sec ( 96.002%)
 molecular gradient             ...        0 min,  0.020 sec (  1.577%)
 printout                       ...        0 min,  0.012 sec (  0.951%)

         :::::::::::::::::::::::::::::::::::::::::::::::::::::
         ::                     SUMMARY                     ::
         :::::::::::::::::::::::::::::::::::::::::::::::::::::
         :: total energy            -107.110017601310 Eh    ::
         :: gradient norm              0.534292435097 Eh/a0 ::
         :: HOMO-LUMO gap              0.010138769108 eV    ::
         ::.................................................::
         :: SCC energy              -108.459907628935 Eh    ::
         :: -> isotropic ES            0.070752345506 Eh    ::
         :: -> anisotropic ES          0.008911267779 Eh    ::
         :: -> anisotropic XC          0.059879810802 Eh    ::
         :: -> dispersion             -0.065974883015 Eh    ::
         :: repulsion energy           1.349252171694 Eh    ::
         :: add. restraining           0.000000000000 Eh    ::
         :: total charge               0.000000000000 e     ::
         :::::::::::::::::::::::::::::::::::::::::::::::::::::

           -------------------------------------------------
          |                Property Printout                |
           -------------------------------------------------

    * Orbital Energies and Occupations

         #    Occupation            Energy/Eh            Energy/eV
      -------------------------------------------------------------
         1        2.0000           -1.0839433             -29.4956
       ...           ...                  ...                  ...
        86        2.0000           -0.4307745             -11.7220
        87        2.0000           -0.4303821             -11.7113
        88        2.0000           -0.4275377             -11.6339
        89        2.0000           -0.4239199             -11.5354
        90        2.0000           -0.4234701             -11.5232
        91        1.9999           -0.4222626             -11.4904
        92        1.9997           -0.4207103             -11.4481
        93        1.9861           -0.4170029             -11.3472
        94        1.9405           -0.4155952             -11.3089
        95        1.7066           -0.4139359             -11.2638
        96        1.4810           -0.4132380             -11.2448
        97        1.3650           -0.4129577             -11.2372
        98        1.2637           -0.4127337             -11.2311 (HOMO)
        99        1.0832           -0.4123612             -11.2209 (LUMO)
       100        0.1743           -0.4098834             -11.1535
       101        0.0000           -0.3992306             -10.8636
       102                         -0.3936788             -10.7125
       103                         -0.3904662             -10.6251
       104                         -0.3826697             -10.4130
       105                         -0.3753574             -10.2140
       106                         -0.3521961              -9.5837
       107                         -0.3504097              -9.5351
       108                         -0.3489700              -9.4960
       109                         -0.3487711              -9.4905
       ...                                ...                  ...
       185                          0.6323673              17.2076
      -------------------------------------------------------------
                  HL-Gap            0.0003726 Eh            0.0101 eV
             Fermi-level           -0.4121944 Eh          -11.2164 eV

     #   Z          covCN         q      C6AA      α(0)
     1   7 N        0.914    -0.153    24.294     7.127
     2   6 C        2.899     0.128    25.205     8.232
     3   6 C        1.988    -0.022    31.625     9.082
     4   6 C        1.986     0.027    30.347     8.896
     5   6 C        1.987     0.037    30.105     8.861
     6   6 C        1.986    -0.035    31.982     9.133
     7   6 C        2.900     0.141    24.933     8.187
     8   7 N        1.837    -0.193    26.004     7.557
     9   6 C        2.754     0.322    21.529     7.598
    10   8 O        0.857    -0.346    20.638     6.091
    11   6 C        1.974    -0.027    31.793     9.106
    12   6 C        1.976     0.023    30.456     8.912
    13   6 C        2.966     0.080    26.219     8.399
    14   6 C        1.988    -0.010    31.322     9.038
    15   6 C        1.991    -0.026    31.731     9.097
    16   6 C        2.965     0.070    26.426     8.432
    17   6 C        2.964     0.076    26.306     8.413
    18   6 C        1.993    -0.015    31.436     9.055
    19   6 C        2.003    -0.031    31.856     9.115
    20   6 C        2.985     0.133    25.090     8.216
    21   7 N        1.843    -0.146    24.946     7.402
    22   6 C        1.960     0.149    27.471     8.464
    23   7 N        1.836    -0.155    25.141     7.431
    24   6 C        2.900     0.200    23.760     7.992
    25   7 N        1.835    -0.147    24.965     7.404
    26   6 C        2.894     0.139    24.979     8.194
    27   6 C        1.993    -0.029    31.808     9.108
    28   6 C        1.986    -0.053    32.475     9.203
    29   6 C        2.912     0.173    24.291     8.082
    30   8 O        1.702    -0.183    17.064     5.577
    31   6 C        1.873     0.042    30.055     8.855
    32   6 C        2.961     0.070    26.443     8.435
    33   6 C        1.990     0.026    30.389     8.902
    34   6 C        1.987    -0.023    31.660     9.087
    35   6 C        1.988    -0.007    31.242     9.027
    36   6 C        2.773     0.205    23.642     7.964
    37   9 F        0.787    -0.163    10.863     3.893
    38   6 C        1.990    -0.086    33.413     9.335
    39   6 C        2.876     0.087    26.058     8.368
    40  17 Cl       0.958    -0.080   101.647    15.424
    41   6 C        2.030    -0.098    33.694     9.375
    42   6 C        2.976     0.008    27.824     8.652
    43   6 C        1.997    -0.070    32.952     9.270
    44   6 C        1.990    -0.028    31.783     9.104
    45   6 C        1.992    -0.009    31.287     9.033

 Mol. C6AA /au·bohr⁶  :      57715.306604
 Mol. C8AA /au·bohr⁸  :    1623961.861812
 Mol. α(0) /au        :        382.128596


Wiberg/Mayer (AO) data.
largest (>0.10) Wiberg bond orders for each atom

 ---------------------------------------------------------------------------
     #   Z sym  total        # sym  WBO       # sym  WBO       # sym  WBO
 ---------------------------------------------------------------------------
     1   7 N    2.394 --     2 C    1.597     8 N    0.217     6 C    0.168
                             4 C    0.156
     2   6 C    3.953 --     1 N    1.597     3 C    1.206     7 C    1.012
     3   6 C    3.572 --     4 C    1.787     2 C    1.206     6 C    0.324
                             5 C    0.120
     4   6 C    3.832 --     3 C    1.787     5 C    1.616     1 N    0.156
                             6 C    0.107
     5   6 C    3.863 --     6 C    1.734     4 C    1.616     8 N    0.161
                             3 C    0.120
     6   6 C    3.730 --     5 C    1.734     7 C    1.297     3 C    0.324
                             1 N    0.168     4 C    0.107
     7   6 C    3.950 --     8 N    1.387     6 C    1.297     2 C    1.012
     8   7 N    3.186 --     7 C    1.387     9 C    1.158     1 N    0.217
                             5 C    0.161
     9   6 C    3.942 --    10 O    1.693     8 N    1.158    11 C    0.996
    10   8 O    2.102 --     9 C    1.693
    11   6 C    3.780 --    12 C    2.503     9 C    0.996
    12   6 C    3.783 --    11 C    2.503    13 C    1.073
    13   6 C    3.913 --    45 C    1.330    14 C    1.318    12 C    1.073
    14   6 C    3.335 --    15 C    1.606    13 C    1.318    44 C    0.162
    15   6 C    3.410 --    14 C    1.606    16 C    1.337    45 C    0.157
    16   6 C    3.887 --    44 C    1.355    15 C    1.337    17 C    0.967
    17   6 C    3.935 --    43 C    1.427    18 C    1.317    16 C    0.967
Note: The following floating-point exceptions are signalling: IEEE_UNDERFLOW_FLAG IEEE_DENORMAL
normal termination of xtb
    18   6 C    3.749 --    19 C    1.665    17 C    1.317    43 C    0.229
    19   6 C    3.552 --    18 C    1.665    20 C    1.310    43 C    0.229
    20   6 C    3.931 --    19 C    1.310    21 N    1.200    42 C    1.144
    21   7 N    3.191 --    22 C    1.629    20 C    1.200
    22   6 C    3.752 --    21 N    1.629    23 N    1.569    25 N    0.125
    23   7 N    3.191 --    22 C    1.569    24 C    1.268
    24   6 C    3.949 --    25 N    1.277    23 N    1.268    42 C    1.180
    25   7 N    3.052 --    24 C    1.277    26 C    1.260    22 C    0.125
    26   6 C    3.901 --    25 N    1.260    41 C    1.259    27 C    1.218
    27   6 C    3.637 --    28 C    1.767    26 C    1.218    41 C    0.274
    28   6 C    3.478 --    27 C    1.767    29 C    1.345    41 C    0.169
    29   6 C    3.800 --    28 C    1.345    39 C    1.232    30 O    0.968
    30   8 O    2.303 --    31 C    1.105    29 C    0.968
    31   6 C    2.772 --    30 O    1.105    32 C    1.038    35 C    0.102
    32   6 C    3.954 --    38 C    1.382    33 C    1.338    31 C    1.038
                            35 C    0.119
    33   6 C    3.770 --    34 C    1.652    32 C    1.338    35 C    0.360
                            38 C    0.172    36 C    0.102
    34   6 C    3.792 --    33 C    1.652    35 C    1.603    38 C    0.403
    35   6 C    3.757 --    34 C    1.603    36 C    1.348    33 C    0.360
                            38 C    0.137    32 C    0.119    31 C    0.102
    36   6 C    3.882 --    38 C    1.384    35 C    1.348    37 F    0.995
                            33 C    0.102
    37   9 F    1.163 --    36 C    0.995
    38   6 C    3.652 --    36 C    1.384    32 C    1.382    34 C    0.403
                            33 C    0.172    35 C    0.137
    39   6 C    3.901 --    41 C    1.474    29 C    1.232    40 Cl   1.004
    40  17 Cl   1.184 --    39 C    1.004
    41   6 C    3.417 --    39 C    1.474    26 C    1.259    27 C    0.274
                            28 C    0.169
    42   6 C    3.943 --    43 C    1.329    24 C    1.180    20 C    1.144
    43   6 C    3.562 --    17 C    1.427    42 C    1.329    19 C    0.229
                            18 C    0.229
    44   6 C    3.320 --    45 C    1.593    16 C    1.355    14 C    0.162
    45   6 C    3.302 --    44 C    1.593    13 C    1.330    15 C    0.157
 ---------------------------------------------------------------------------

Topologies differ in total number of bonds
Writing topology from bond orders to xtbtopo.mol

molecular dipole:
                 x           y           z       tot (Debye)
 q only:        0.036      -0.826      -0.192
   full:       -0.061      -0.344       0.209       1.034
molecular quadrupole (traceless):
                xx          xy          yy          xz          yz          zz
 q only:      -10.927     -11.584       7.793       0.813      17.196       3.135
  q+dip:      -26.832      -4.588      27.243      -1.624      16.252      -0.411
   full:      -24.400      -5.253      21.909      -0.381      13.161       2.492


           -------------------------------------------------
          | TOTAL ENERGY             -107.110017601310 Eh   |
          | GRADIENT NORM               0.534292435097 Eh/α |
          | HOMO-LUMO GAP               0.010138769108 eV   |
           -------------------------------------------------

------------------------------------------------------------------------
 * finished run on 2026/07/23 at 16:40:08.415     
------------------------------------------------------------------------
 total:
 * wall-time:     0 d,  0 h,  0 min,  1.320 sec
 *  cpu-time:     0 d,  0 h,  0 min,  1.336 sec
 * ratio c/w:     1.012 speedup
 SCF:
 * wall-time:     0 d,  0 h,  0 min,  1.300 sec
 *  cpu-time:     0 d,  0 h,  0 min,  1.315 sec
 * ratio c/w:     1.012 speedup

