      -----------------------------------------------------------      
     |                   =====================                   |     
     |                           x T B                           |     
     |                   =====================                   |     
     |                         S. Grimme                         |     
     |          Mulliken Center for Theoretical Chemistry        |     
     |                    University of Bonn                     |     
      -----------------------------------------------------------      

   * xtb version 6.6.1 (unknown) compiled by 'builduser@buildhost' on 2023-08-07

   xtb is free software: you can redistribute it and/or modify it under
   the terms of the GNU Lesser General Public License as published by
   the Free Software Foundation, either version 3 of the License, or
   (at your option) any later version.
   
   xtb is distributed in the hope that it will be useful,
   but WITHOUT ANY WARRANTY; without even the implied warranty of
   MERCHANTABILITY or FITNESS FOR A PARTICULAR PURPOSE.  See the
   GNU Lesser General Public License for more details.
   
   Cite this work as:
   * C. Bannwarth, E. Caldeweyher, S. Ehlert, A. Hansen, P. Pracht,
     J. Seibert, S. Spicher, S. Grimme, WIREs Comput. Mol. Sci., 2020, 11,
     e01493. DOI: 10.1002/wcms.1493
   
   for GFN2-xTB:
   * C. Bannwarth, S. Ehlert and S. Grimme., J. Chem. Theory Comput., 2019,
     15, 1652-1671. DOI: 10.1021/acs.jctc.8b01176
   for GFN1-xTB:
   * S. Grimme, C. Bannwarth, P. Shushkov, J. Chem. Theory Comput., 2017,
     13, 1989-2009. DOI: 10.1021/acs.jctc.7b00118
   for GFN0-xTB:
   * P. Pracht, E. Caldeweyher, S. Ehlert, S. Grimme, ChemRxiv, 2019, preprint.
     DOI: 10.26434/chemrxiv.8326202.v1
   for GFN-FF:
   * S. Spicher and S. Grimme, Angew. Chem. Int. Ed., 2020, 59, 15665-15673.
     DOI: 10.1002/anie.202004239
   
   for ALPB and GBSA implicit solvation:
   * S. Ehlert, M. Stahn, S. Spicher, S. Grimme, J. Chem. Theory Comput.,
     2021, 17, 4250-4261. DOI: 10.1021/acs.jctc.1c00471
   
   for DFT-D4:
   * E. Caldeweyher, C. Bannwarth and S. Grimme, J. Chem. Phys., 2017,
     147, 034112. DOI: 10.1063/1.4993215
   * E. Caldeweyher, S. Ehlert, A. Hansen, H. Neugebauer, S. Spicher,
     C. Bannwarth and S. Grimme, J. Chem. Phys., 2019, 150, 154122.
     DOI: 10.1063/1.5090222
   * E. Caldeweyher, J.-M. Mewes, S. Ehlert and S. Grimme, Phys. Chem. Chem. Phys.
     2020, 22, 8499-8512. DOI: 10.1039/D0CP00502A
   
   for sTDA-xTB:
   * S. Grimme and C. Bannwarth, J. Chem. Phys., 2016, 145, 054103.
     DOI: 10.1063/1.4959605
   
   in the mass-spec context:
   * V. Asgeirsson, C. Bauer and S. Grimme, Chem. Sci., 2017, 8, 4879.
     DOI: 10.1039/c7sc00601b
   * J. Koopman and S. Grimme, ACS Omega 2019, 4, 12, 15120-15133.
     DOI: 10.1021/acsomega.9b02011
   
   for metadynamics refer to:
   * S. Grimme, J. Chem. Theory Comput., 2019, 155, 2847-2862
     DOI: 10.1021/acs.jctc.9b00143
   
   for SPH calculations refer to:
   * S. Spicher and S. Grimme, J. Chem. Theory Comput., 2021, 17, 1701-1714
     DOI: 10.1021/acs.jctc.0c01306
   
   with help from (in alphabetical order)
   P. Atkinson, C. Bannwarth, F. Bohle, G. Brandenburg, E. Caldeweyher
   M. Checinski, S. Dohm, S. Ehlert, S. Ehrlich, I. Gerasimov, C. Hölzer
   A. Katbashev, J. Koopman, C. Lavigne, S. Lehtola, F. März, M. Müller,
   F. Musil, H. Neugebauer, J. Pisarek, C. Plett, P. Pracht, F. Pultar,
   J. Seibert, P. Shushkov, S. Spicher, M. Stahn, M. Steiner, T. Strunk,
   J. Stückrath, T. Rose, and J. Unsleber
   
 * started run on 2026/07/23 at 16:39:01.221     

           -------------------------------------------------
          |                Calculation Setup                |
           -------------------------------------------------

          program call               : xtb /home/selva/covalent_quantum_benchmark/data/quantum/erbB_xyz/EGFR__CHEMBL55748__state03.xyz --gfn2 --chrg 0 --uhf 0 --iterations 300
          coordinate file            : /home/selva/covalent_quantum_benchmark/data/quantum/erbB_xyz/EGFR__CHEMBL55748__state03.xyz
          omp threads                :                    24

   ID    Z sym.   atoms
    1    7 N      1, 5, 9
    2    6 C      2-4, 6, 7, 10-13, 15, 16
    3    8 O      8, 14

           -------------------------------------------------
          |                 G F N 2 - x T B                 |
           -------------------------------------------------

        Reference                      10.1021/acs.jctc.8b01176
      * Hamiltonian:
        H0-scaling (s, p, d)           1.850000    2.230000    2.230000
        zeta-weighting                 0.500000
      * Dispersion:
        s8                             2.700000
        a1                             0.520000
        a2                             5.000000
        s9                             5.000000
      * Repulsion:
        kExp                           1.500000    1.000000
        rExp                           1.000000
      * Coulomb:
        alpha                          2.000000
        third order                    shell-resolved
        anisotropic                    true
        a3                             3.000000
        a5                             4.000000
        cn-shift                       1.200000
        cn-exp                         4.000000
        max-rad                        5.000000


          ...................................................
          :                      SETUP                      :
          :.................................................:
          :  # basis functions                  64          :
          :  # atomic orbitals                  64          :
          :  # shells                           32          :
          :  # electrons                        71          :
          :  max. iterations                   300          :
          :  Hamiltonian                  GFN2-xTB          :
          :  restarted?                      false          :
          :  GBSA solvation                  false          :
          :  PC potential                    false          :
          :  electronic temp.          300.0000000     K    :
          :  accuracy                    1.0000000          :
          :  -> integral cutoff          0.2500000E+02      :
          :  -> integral neglect         0.1000000E-07      :
          :  -> SCF convergence          0.1000000E-05 Eh   :
          :  -> wf. convergence          0.1000000E-03 e    :
          :  Broyden damping             0.4000000          :
          ...................................................

 iter      E             dE          RMSdq      gap      omega  full diag
   1    -40.3283758 -0.403284E+02  0.827E+00    0.28       0.0  T
   2    -40.0151996  0.313176E+00  0.651E+00    0.04       1.0  T
   3    -39.1989363  0.816263E+00  0.657E+00    0.10       1.0  T
   4    -39.6556219 -0.456686E+00  0.573E+00    0.39       1.0  T
   5    -39.7406708 -0.850489E-01  0.563E+00    0.25       1.0  T
   6    -40.3304682 -0.589797E+00  0.329E+00    0.21       1.0  T
   7    -40.4133909 -0.829227E-01  0.250E+00    0.17       1.0  T
   8    -40.5048290 -0.914381E-01  0.161E+00    0.33       1.0  T
   9    -40.5058111 -0.982073E-03  0.171E+00    0.30       1.0  T
  10    -40.5162287 -0.104176E-01  0.153E+00    0.33       1.0  T
  11    -40.4943365  0.218923E-01  0.191E+00    0.29       1.0  T
  12    -40.5233883 -0.290519E-01  0.137E+00    0.34       1.0  T
  13    -40.5329901 -0.960174E-02  0.107E+00    0.34       1.0  T
  14    -40.5308594  0.213068E-02  0.841E-01    0.36       1.0  T
  15    -40.5498821 -0.190227E-01  0.408E-01    0.37       1.0  T
  16    -40.5482849  0.159717E-02  0.474E-01    0.35       1.0  T
  17    -40.5538499 -0.556493E-02  0.172E-01    0.34       1.0  T
  18    -40.5543443 -0.494421E-03  0.381E-02    0.34       1.0  T
  19    -40.5543426  0.168876E-05  0.406E-02    0.34       1.0  T
  20    -40.5543337  0.887126E-05  0.360E-02    0.34       1.0  T
  21    -40.5543589 -0.252141E-04  0.238E-02    0.34       1.0  T
  22    -40.5543717 -0.128039E-04  0.120E-02    0.34       2.1  T
  23    -40.5543736 -0.186610E-05  0.693E-03    0.34       3.6  T
  24    -40.5543749 -0.128282E-05  0.201E-03    0.34      12.4  T
  25    -40.5543750 -0.850220E-07  0.144E-03    0.34      17.4  T
  26    -40.5543750 -0.249997E-08  0.960E-04    0.34      26.0  T
  27    -40.5543750 -0.213067E-07  0.467E-04    0.34      53.5  T

   *** convergence criteria satisfied after 27 iterations ***

         #    Occupation            Energy/Eh            Energy/eV
      -------------------------------------------------------------
         1        2.0000           -0.7744409             -21.0736
       ...           ...                  ...                  ...
        30        2.0000           -0.4902941             -13.3416
        31        2.0000           -0.4859852             -13.2243
        32        2.0000           -0.4835760             -13.1588
        33        2.0000           -0.4798166             -13.0565
        34        1.9980           -0.4659000             -12.6778
        35        1.5237           -0.4601059             -12.5201
        36        1.4763           -0.4599265             -12.5152 (HOMO)
        37        0.0020           -0.4475191             -12.1776 (LUMO)
        38                         -0.3962392             -10.7822
        39                         -0.3921038             -10.6697
        40                         -0.3181913              -8.6584
        41                         -0.2957979              -8.0491
       ...                                ...                  ...
        64                          1.0362880              28.1988
      -------------------------------------------------------------
                  HL-Gap            0.0124073 Eh            0.3376 eV
             Fermi-level           -0.4567238 Eh          -12.4281 eV

 SCC (total)                   0 d,  0 h,  0 min,  0.110 sec
 SCC setup                      ...        0 min,  0.000 sec (  0.220%)
 Dispersion                     ...        0 min,  0.001 sec (  0.587%)
 classical contributions        ...        0 min,  0.003 sec (  2.652%)
 integral evaluation            ...        0 min,  0.004 sec (  3.898%)
 iterations                     ...        0 min,  0.088 sec ( 79.893%)
 molecular gradient             ...        0 min,  0.013 sec ( 11.896%)
 printout                       ...        0 min,  0.001 sec (  0.814%)

         :::::::::::::::::::::::::::::::::::::::::::::::::::::
         ::                     SUMMARY                     ::
         :::::::::::::::::::::::::::::::::::::::::::::::::::::
         :: total energy             -39.962474695122 Eh    ::
         :: gradient norm              0.385206860033 Eh/a0 ::
         :: HOMO-LUMO gap              0.337620386565 eV    ::
         ::.................................................::
         :: SCC energy               -40.554375006859 Eh    ::
         :: -> isotropic ES            0.064621649881 Eh    ::
         :: -> anisotropic ES          0.006724326719 Eh    ::
         :: -> anisotropic XC          0.044099965422 Eh    ::
         :: -> dispersion             -0.019869544842 Eh    ::
         :: repulsion energy           0.591862527714 Eh    ::
         :: add. restraining           0.000000000000 Eh    ::
         :: total charge              -0.000000000000 e     ::
         :::::::::::::::::::::::::::::::::::::::::::::::::::::

           -------------------------------------------------
          |                Property Printout                |
           -------------------------------------------------

    * Orbital Energies and Occupations

         #    Occupation            Energy/Eh            Energy/eV
      -------------------------------------------------------------
         1        2.0000           -0.7744409             -21.0736
       ...           ...                  ...                  ...
        24        2.0000           -0.5380941             -14.6423
        25        2.0000           -0.5374414             -14.6245
        26        2.0000           -0.5290176             -14.3953
        27        2.0000           -0.5244242             -14.2703
        28        2.0000           -0.5015670             -13.6483
        29        2.0000           -0.4928304             -13.4106
        30        2.0000           -0.4902941             -13.3416
        31        2.0000           -0.4859852             -13.2243
        32        2.0000           -0.4835760             -13.1588
        33        2.0000           -0.4798166             -13.0565
        34        1.9980           -0.4659000             -12.6778
        35        1.5237           -0.4601059             -12.5201
        36        1.4763           -0.4599265             -12.5152 (HOMO)
        37        0.0020           -0.4475191             -12.1776 (LUMO)
        38                         -0.3962392             -10.7822
        39                         -0.3921038             -10.6697
        40                         -0.3181913              -8.6584
        41                         -0.2957979              -8.0491
        42                         -0.2872752              -7.8172
        43                         -0.2720800              -7.4037
        44                         -0.2574406              -7.0053
        45                         -0.2514118              -6.8413
        46                         -0.1870539              -5.0900
        47                         -0.1514304              -4.1206
       ...                                ...                  ...
        64                          1.0362880              28.1988
      -------------------------------------------------------------
                  HL-Gap            0.0124073 Eh            0.3376 eV
             Fermi-level           -0.4567238 Eh          -12.4281 eV

     #   Z          covCN         q      C6AA      α(0)
     1   7 N        0.911    -0.146    24.154     7.108
     2   6 C        1.918     0.127    27.984     8.543
     3   6 C        2.945     0.072    26.392     8.426
     4   6 C        1.915     0.136    27.782     8.512
     5   7 N        0.911    -0.134    23.905     7.071
     6   6 C        3.042     0.021    27.488     8.599
     7   6 C        3.041     0.286    22.139     7.717
     8   8 O        0.856    -0.328    20.303     6.041
     9   7 N        1.845    -0.153    25.101     7.425
    10   6 C        3.200     0.140    24.443     8.057
    11   6 C        1.984    -0.001    31.069     9.002
    12   6 C        1.991     0.009    30.809     8.964
    13   6 C        2.847     0.249    22.828     7.830
    14   8 O        0.855    -0.263    19.122     5.863
    15   6 C        1.981    -0.038    32.064     9.145
    16   6 C        3.042     0.021    27.508     8.602

 Mol. C6AA /au·bohr⁶  :       6550.063957
 Mol. C8AA /au·bohr⁸  :     174219.235803
 Mol. α(0) /au        :        126.906269


Wiberg/Mayer (AO) data.
largest (>0.10) Wiberg bond orders for each atom

 ---------------------------------------------------------------------------
     #   Z sym  total        # sym  WBO       # sym  WBO       # sym  WBO
 ---------------------------------------------------------------------------
     1   7 N    3.010 --     2 C    2.804
     2   6 C    3.947 --     1 N    2.804     3 C    1.077
     3   6 C    3.964 --     6 C    1.581     2 C    1.077     4 C    1.075
     4   6 C    3.948 --     5 N    2.803     3 C    1.075
     5   7 N    2.998 --     4 C    2.803
     6   6 C    3.967 --     3 C    1.581    16 C    1.076     7 C    0.995
     7   6 C    3.939 --     8 O    1.576     9 N    1.285     6 C    0.995
     8   8 O    1.871 --     7 C    1.576    10 C    0.105
     9   7 N    2.968 --    10 C    1.340     7 C    1.285    15 C    0.114
    10   6 C    3.934 --     9 N    1.340    11 C    1.272    16 C    1.037
                             8 O    0.105
    11   6 C    3.609 --    12 C    1.887    10 C    1.272    15 C    0.205
                            14 O    0.115
    12   6 C    3.366 --    11 C    1.887    13 C    1.088    15 C    0.137
    13   6 C    3.924 --    14 O    1.574    15 C    1.163    12 C    1.088
    14   8 O    1.863 --    13 C    1.574    11 C    0.115
    15   6 C    3.479 --    16 C    1.631    13 C    1.163    11 C    0.205
normal termination of xtb
                            12 C    0.137     9 N    0.114
    16   6 C    3.960 --    15 C    1.631     6 C    1.076    10 C    1.037
 ---------------------------------------------------------------------------

Topologies differ in total number of bonds
Writing topology from bond orders to xtbtopo.mol

molecular dipole:
                 x           y           z       tot (Debye)
 q only:        0.105       0.442      -0.225
   full:        0.231       0.849      -0.174       2.281
molecular quadrupole (traceless):
                xx          xy          yy          xz          yz          zz
 q only:       13.838      -1.307       1.844      -0.674      11.131     -15.682
  q+dip:       20.263      -3.680      -3.039      -1.099      12.605     -17.224
   full:       26.315      -5.955      -4.360      -2.092      13.781     -21.955


           -------------------------------------------------
          | TOTAL ENERGY              -39.962474695122 Eh   |
          | GRADIENT NORM               0.385206860033 Eh/α |
          | HOMO-LUMO GAP               0.337620386565 eV   |
           -------------------------------------------------

------------------------------------------------------------------------
 * finished run on 2026/07/23 at 16:39:01.359     
------------------------------------------------------------------------
 total:
 * wall-time:     0 d,  0 h,  0 min,  0.137 sec
 *  cpu-time:     0 d,  0 h,  0 min,  0.103 sec
 * ratio c/w:     0.754 speedup
 SCF:
 * wall-time:     0 d,  0 h,  0 min,  0.110 sec
 *  cpu-time:     0 d,  0 h,  0 min,  0.089 sec
 * ratio c/w:     0.811 speedup

