      -----------------------------------------------------------      
     |                   =====================                   |     
     |                           x T B                           |     
     |                   =====================                   |     
     |                         S. Grimme                         |     
     |          Mulliken Center for Theoretical Chemistry        |     
     |                    University of Bonn                     |     
      -----------------------------------------------------------      

   * xtb version 6.6.1 (unknown) compiled by 'builduser@buildhost' on 2023-08-07

   xtb is free software: you can redistribute it and/or modify it under
   the terms of the GNU Lesser General Public License as published by
   the Free Software Foundation, either version 3 of the License, or
   (at your option) any later version.
   
   xtb is distributed in the hope that it will be useful,
   but WITHOUT ANY WARRANTY; without even the implied warranty of
   MERCHANTABILITY or FITNESS FOR A PARTICULAR PURPOSE.  See the
   GNU Lesser General Public License for more details.
   
   Cite this work as:
   * C. Bannwarth, E. Caldeweyher, S. Ehlert, A. Hansen, P. Pracht,
     J. Seibert, S. Spicher, S. Grimme, WIREs Comput. Mol. Sci., 2020, 11,
     e01493. DOI: 10.1002/wcms.1493
   
   for GFN2-xTB:
   * C. Bannwarth, S. Ehlert and S. Grimme., J. Chem. Theory Comput., 2019,
     15, 1652-1671. DOI: 10.1021/acs.jctc.8b01176
   for GFN1-xTB:
   * S. Grimme, C. Bannwarth, P. Shushkov, J. Chem. Theory Comput., 2017,
     13, 1989-2009. DOI: 10.1021/acs.jctc.7b00118
   for GFN0-xTB:
   * P. Pracht, E. Caldeweyher, S. Ehlert, S. Grimme, ChemRxiv, 2019, preprint.
     DOI: 10.26434/chemrxiv.8326202.v1
   for GFN-FF:
   * S. Spicher and S. Grimme, Angew. Chem. Int. Ed., 2020, 59, 15665-15673.
     DOI: 10.1002/anie.202004239
   
   for ALPB and GBSA implicit solvation:
   * S. Ehlert, M. Stahn, S. Spicher, S. Grimme, J. Chem. Theory Comput.,
     2021, 17, 4250-4261. DOI: 10.1021/acs.jctc.1c00471
   
   for DFT-D4:
   * E. Caldeweyher, C. Bannwarth and S. Grimme, J. Chem. Phys., 2017,
     147, 034112. DOI: 10.1063/1.4993215
   * E. Caldeweyher, S. Ehlert, A. Hansen, H. Neugebauer, S. Spicher,
     C. Bannwarth and S. Grimme, J. Chem. Phys., 2019, 150, 154122.
     DOI: 10.1063/1.5090222
   * E. Caldeweyher, J.-M. Mewes, S. Ehlert and S. Grimme, Phys. Chem. Chem. Phys.
     2020, 22, 8499-8512. DOI: 10.1039/D0CP00502A
   
   for sTDA-xTB:
   * S. Grimme and C. Bannwarth, J. Chem. Phys., 2016, 145, 054103.
     DOI: 10.1063/1.4959605
   
   in the mass-spec context:
   * V. Asgeirsson, C. Bauer and S. Grimme, Chem. Sci., 2017, 8, 4879.
     DOI: 10.1039/c7sc00601b
   * J. Koopman and S. Grimme, ACS Omega 2019, 4, 12, 15120-15133.
     DOI: 10.1021/acsomega.9b02011
   
   for metadynamics refer to:
   * S. Grimme, J. Chem. Theory Comput., 2019, 155, 2847-2862
     DOI: 10.1021/acs.jctc.9b00143
   
   for SPH calculations refer to:
   * S. Spicher and S. Grimme, J. Chem. Theory Comput., 2021, 17, 1701-1714
     DOI: 10.1021/acs.jctc.0c01306
   
   with help from (in alphabetical order)
   P. Atkinson, C. Bannwarth, F. Bohle, G. Brandenburg, E. Caldeweyher
   M. Checinski, S. Dohm, S. Ehlert, S. Ehrlich, I. Gerasimov, C. Hölzer
   A. Katbashev, J. Koopman, C. Lavigne, S. Lehtola, F. März, M. Müller,
   F. Musil, H. Neugebauer, J. Pisarek, C. Plett, P. Pracht, F. Pultar,
   J. Seibert, P. Shushkov, S. Spicher, M. Stahn, M. Steiner, T. Strunk,
   J. Stückrath, T. Rose, and J. Unsleber
   
 * started run on 2026/07/23 at 16:38:27.684     

           -------------------------------------------------
          |                Calculation Setup                |
           -------------------------------------------------

          program call               : xtb /home/selva/covalent_quantum_benchmark/data/quantum/erbB_xyz/EGFR__CHEMBL329642__state00.xyz --gfn2 --chrg 0 --uhf 0 --iterations 300
          coordinate file            : /home/selva/covalent_quantum_benchmark/data/quantum/erbB_xyz/EGFR__CHEMBL329642__state00.xyz
          omp threads                :                    24

   ID    Z sym.   atoms
    1    6 C      1-4, 7-10, 12, 14, 16-20, 22-24
    2    8 O      5
    3    7 N      6, 11, 13, 15
    4   35 Br     21

           -------------------------------------------------
          |                 G F N 2 - x T B                 |
           -------------------------------------------------

        Reference                      10.1021/acs.jctc.8b01176
      * Hamiltonian:
        H0-scaling (s, p, d)           1.850000    2.230000    2.230000
        zeta-weighting                 0.500000
      * Dispersion:
        s8                             2.700000
        a1                             0.520000
        a2                             5.000000
        s9                             5.000000
      * Repulsion:
        kExp                           1.500000    1.000000
        rExp                           1.000000
      * Coulomb:
        alpha                          2.000000
        third order                    shell-resolved
        anisotropic                    true
        a3                             3.000000
        a5                             4.000000
        cn-shift                       1.200000
        cn-exp                         4.000000
        max-rad                        5.000000


          ...................................................
          :                      SETUP                      :
          :.................................................:
          :  # basis functions                 102          :
          :  # atomic orbitals                 101          :
          :  # shells                           49          :
          :  # electrons                       105          :
          :  max. iterations                   300          :
          :  Hamiltonian                  GFN2-xTB          :
          :  restarted?                      false          :
          :  GBSA solvation                  false          :
          :  PC potential                    false          :
          :  electronic temp.          300.0000000     K    :
          :  accuracy                    1.0000000          :
          :  -> integral cutoff          0.2500000E+02      :
          :  -> integral neglect         0.1000000E-07      :
          :  -> SCF convergence          0.1000000E-05 Eh   :
          :  -> wf. convergence          0.1000000E-03 e    :
          :  Broyden damping             0.4000000          :
          ...................................................

 iter      E             dE          RMSdq      gap      omega  full diag
   1    -57.5893036 -0.575893E+02  0.848E+00    0.42       0.0  T
   2    -49.4096414  0.817966E+01  0.117E+01    0.13       1.0  T
   3    -51.2588272 -0.184919E+01  0.980E+00    0.13       1.0  T
   4    -55.3455179 -0.408669E+01  0.760E+00    0.23       1.0  T
   5    -56.2660885 -0.920571E+00  0.600E+00    0.13       1.0  T
   6    -57.4277061 -0.116162E+01  0.409E+00    0.37       1.0  T
   7    -57.7078980 -0.280192E+00  0.301E+00    0.24       1.0  T
   8    -57.8035696 -0.956717E-01  0.266E+00    0.53       1.0  T
   9    -57.8789401 -0.753705E-01  0.221E+00    0.28       1.0  T
  10    -57.9594770 -0.805369E-01  0.179E+00    0.21       1.0  T
  11    -57.9791550 -0.196779E-01  0.150E+00    0.23       1.0  T
  12    -57.9957210 -0.165661E-01  0.136E+00    0.19       1.0  T
  13    -57.9981703 -0.244930E-02  0.126E+00    0.21       1.0  T
  14    -57.9620192  0.361511E-01  0.141E+00    0.07       1.0  T
  15    -58.0080541 -0.460349E-01  0.100E+00    0.30       1.0  T
  16    -58.0322273 -0.241731E-01  0.479E-01    0.11       1.0  T
  17    -58.0407269 -0.849961E-02  0.267E-01    0.18       1.0  T
  18    -58.0386606  0.206624E-02  0.329E-01    0.13       1.0  T
  19    -58.0405131 -0.185243E-02  0.229E-01    0.13       1.0  T
  20    -58.0407294 -0.216327E-03  0.209E-01    0.15       1.0  T
  21    -58.0422094 -0.147995E-02  0.133E-01    0.16       1.0  T
  22    -58.0426856 -0.476287E-03  0.766E-02    0.16       1.0  T
  23    -58.0425520  0.133636E-03  0.910E-02    0.17       1.0  T
  24    -58.0423937  0.158300E-03  0.978E-02    0.16       1.0  T
  25    -58.0428688 -0.475107E-03  0.362E-02    0.16       1.0  T
  26    -58.0429030 -0.342052E-04  0.206E-02    0.16       1.0  T
  27    -58.0429051 -0.206810E-05  0.174E-02    0.16       1.2  T
  28    -58.0429100 -0.490755E-05  0.111E-02    0.16       1.8  T
  29    -58.0429114 -0.138803E-05  0.837E-03    0.16       2.4  T
  30    -58.0429143 -0.294579E-05  0.173E-03    0.16      11.8  T
  31    -58.0429144 -0.866958E-07  0.128E-03    0.16      15.9  T
  32    -58.0429144 -0.308368E-07  0.852E-04    0.16      24.0  T
  33    -58.0429145 -0.921846E-08  0.598E-04    0.16      34.2  T

   *** convergence criteria satisfied after 33 iterations ***

         #    Occupation            Energy/Eh            Energy/eV
      -------------------------------------------------------------
         1        2.0000           -0.8674425             -23.6043
       ...           ...                  ...                  ...
        47        2.0000           -0.4370450             -11.8926
        48        2.0000           -0.4364902             -11.8775
        49        2.0000           -0.4299335             -11.6991
        50        1.9996           -0.4255134             -11.5788
        51        1.9365           -0.4206040             -11.4452
        52        1.8535           -0.4197242             -11.4213
        53        1.1629           -0.4167585             -11.3406 (HOMO)
        54        0.0466           -0.4109547             -11.1826 (LUMO)
        55        0.0009           -0.4072026             -11.0805
        56        0.0000           -0.4009987             -10.9117
        57                         -0.3959409             -10.7741
        58                         -0.3606682              -9.8143
       ...                                ...                  ...
       101                          0.6128264              16.6759
      -------------------------------------------------------------
                  HL-Gap            0.0058038 Eh            0.1579 eV
             Fermi-level           -0.4159351 Eh          -11.3182 eV

 SCC (total)                   0 d,  0 h,  0 min,  0.268 sec
 SCC setup                      ...        0 min,  0.000 sec (  0.091%)
 Dispersion                     ...        0 min,  0.001 sec (  0.312%)
 classical contributions        ...        0 min,  0.001 sec (  0.233%)
 integral evaluation            ...        0 min,  0.004 sec (  1.519%)
 iterations                     ...        0 min,  0.243 sec ( 90.571%)
 molecular gradient             ...        0 min,  0.017 sec (  6.167%)
 printout                       ...        0 min,  0.003 sec (  1.044%)

         :::::::::::::::::::::::::::::::::::::::::::::::::::::
         ::                     SUMMARY                     ::
         :::::::::::::::::::::::::::::::::::::::::::::::::::::
         :: total energy             -57.342433962441 Eh    ::
         :: gradient norm              0.389537017269 Eh/a0 ::
         :: HOMO-LUMO gap              0.157929310651 eV    ::
         ::.................................................::
         :: SCC energy               -58.042914450606 Eh    ::
         :: -> isotropic ES            0.036419101962 Eh    ::
         :: -> anisotropic ES          0.006654364445 Eh    ::
         :: -> anisotropic XC          0.037018340829 Eh    ::
         :: -> dispersion             -0.033329195030 Eh    ::
         :: repulsion energy           0.700474165812 Eh    ::
         :: add. restraining           0.000000000000 Eh    ::
         :: total charge              -0.000000000000 e     ::
         :::::::::::::::::::::::::::::::::::::::::::::::::::::

           -------------------------------------------------
          |                Property Printout                |
           -------------------------------------------------

    * Orbital Energies and Occupations

         #    Occupation            Energy/Eh            Energy/eV
      -------------------------------------------------------------
         1        2.0000           -0.8674425             -23.6043
       ...           ...                  ...                  ...
        41        2.0000           -0.4744077             -12.9093
        42        2.0000           -0.4690229             -12.7628
        43        2.0000           -0.4584242             -12.4744
        44        2.0000           -0.4552693             -12.3885
        45        2.0000           -0.4471343             -12.1671
        46        2.0000           -0.4433595             -12.0644
        47        2.0000           -0.4370450             -11.8926
        48        2.0000           -0.4364902             -11.8775
        49        2.0000           -0.4299335             -11.6991
        50        1.9996           -0.4255134             -11.5788
        51        1.9365           -0.4206040             -11.4452
        52        1.8535           -0.4197242             -11.4213
        53        1.1629           -0.4167585             -11.3406 (HOMO)
        54        0.0466           -0.4109547             -11.1826 (LUMO)
        55        0.0009           -0.4072026             -11.0805
        56        0.0000           -0.4009987             -10.9117
        57                         -0.3959409             -10.7741
        58                         -0.3606682              -9.8143
        59                         -0.3517034              -9.5703
        60                         -0.3476190              -9.4592
        61                         -0.3385127              -9.2114
        62                         -0.3118713              -8.4865
        63                         -0.2919931              -7.9455
        64                         -0.2875457              -7.8245
       ...                                ...                  ...
       101                          0.6128264              16.6759
      -------------------------------------------------------------
                  HL-Gap            0.0058038 Eh            0.1579 eV
             Fermi-level           -0.4159351 Eh          -11.3182 eV

     #   Z          covCN         q      C6AA      α(0)
     1   6 C        0.979    -0.053    37.544    10.291
     2   6 C        1.961     0.070    29.318     8.744
     3   6 C        1.970     0.039    30.067     8.855
     4   6 C        2.750     0.323    21.505     7.593
     5   8 O        0.857    -0.346    20.641     6.091
     6   7 N        1.837    -0.208    26.351     7.607
     7   6 C        2.893     0.145    24.847     8.173
     8   6 C        1.990    -0.010    31.316     9.037
     9   6 C        2.005    -0.023    31.654     9.086
    10   6 C        2.985     0.135    25.042     8.209
    11   7 N        1.843    -0.143    24.887     7.393
    12   6 C        1.960     0.151    27.404     8.454
    13   7 N        1.836    -0.157    25.188     7.437
    14   6 C        2.901     0.201    23.733     7.988
    15   7 N        1.834    -0.170    25.478     7.480
    16   6 C        2.894     0.133    25.090     8.213
    17   6 C        1.989    -0.005    31.189     9.019
    18   6 C        1.986    -0.025    31.720     9.095
    19   6 C        2.062     0.016    30.545     8.927
    20   6 C        2.905     0.113    25.510     8.282
    21  35 Br       1.069    -0.060   186.671    22.029
    22   6 C        2.066    -0.068    32.800     9.251
    23   6 C        2.978     0.005    27.910     8.666
    24   6 C        1.998    -0.061    32.703     9.235

 Mol. C6AA /au·bohr⁶  :      18159.112542
 Mol. C8AA /au·bohr⁸  :     550811.529568
 Mol. α(0) /au        :        215.156701


Wiberg/Mayer (AO) data.
largest (>0.10) Wiberg bond orders for each atom

 ---------------------------------------------------------------------------
     #   Z sym  total        # sym  WBO       # sym  WBO       # sym  WBO
 ---------------------------------------------------------------------------
     1   6 C    2.483 --     2 C    1.810     3 C    0.420     6 N    0.145
     2   6 C    3.868 --     3 C    1.903     1 C    1.810
     3   6 C    3.643 --     2 C    1.903     4 C    0.966     1 C    0.420
Note: The following floating-point exceptions are signalling: IEEE_UNDERFLOW_FLAG IEEE_DENORMAL
normal termination of xtb
                             5 O    0.180
     4   6 C    3.945 --     5 O    1.632     6 N    1.243     3 C    0.966
     5   8 O    2.183 --     4 C    1.632     3 C    0.180     6 N    0.151
     6   7 N    3.089 --     4 C    1.243     7 C    1.220     5 O    0.151
                             1 C    0.145     9 C    0.111
     7   6 C    3.929 --    24 C    1.314     8 C    1.223     6 N    1.220
     8   6 C    3.699 --     9 C    1.731     7 C    1.223    24 C    0.247
                            12 C    0.128
     9   6 C    3.609 --     8 C    1.731    10 C    1.289    24 C    0.206
                             6 N    0.111
    10   6 C    3.900 --     9 C    1.289    11 N    1.218    23 C    1.135
    11   7 N    3.185 --    12 C    1.614    10 C    1.218
    12   6 C    3.773 --    11 N    1.614    13 N    1.576    15 N    0.140
                             8 C    0.128
    13   7 N    3.190 --    12 C    1.576    14 C    1.262
    14   6 C    3.945 --    15 N    1.284    13 N    1.262    23 C    1.181
    15   7 N    3.113 --    14 C    1.284    16 C    1.210    12 C    0.140
    16   6 C    3.943 --    22 C    1.298    17 C    1.264    15 N    1.210
    17   6 C    3.721 --    18 C    1.642    16 C    1.264    19 C    0.408
                            22 C    0.157
    18   6 C    3.767 --    17 C    1.642    19 C    1.606    22 C    0.405
    19   6 C    3.696 --    18 C    1.606    20 C    1.356    17 C    0.408
                            22 C    0.148
    20   6 C    3.931 --    22 C    1.432    19 C    1.356    21 Br   0.994
    21  35 Br   1.197 --    20 C    0.994
    22   6 C    3.548 --    20 C    1.432    16 C    1.298    18 C    0.405
                            17 C    0.157    19 C    0.148
    23   6 C    3.955 --    24 C    1.354    14 C    1.181    10 C    1.135
    24   6 C    3.493 --    23 C    1.354     7 C    1.314     8 C    0.247
                             9 C    0.206
 ---------------------------------------------------------------------------

Topologies differ in total number of bonds
Writing topology from bond orders to xtbtopo.mol

molecular dipole:
                 x           y           z       tot (Debye)
 q only:        0.420      -0.695      -0.450
   full:       -0.275      -0.571      -0.525       2.092
molecular quadrupole (traceless):
                xx          xy          yy          xz          yz          zz
 q only:       -0.579       8.046      -0.837      10.031      -4.532       1.416
  q+dip:       -8.105      16.111       3.054      19.938      -7.483       5.052
   full:       -9.769      18.227       6.831      20.158      -8.955       2.938


           -------------------------------------------------
          | TOTAL ENERGY              -57.342433962441 Eh   |
          | GRADIENT NORM               0.389537017269 Eh/α |
          | HOMO-LUMO GAP               0.157929310651 eV   |
           -------------------------------------------------

------------------------------------------------------------------------
 * finished run on 2026/07/23 at 16:38:27.974     
------------------------------------------------------------------------
 total:
 * wall-time:     0 d,  0 h,  0 min,  0.289 sec
 *  cpu-time:     0 d,  0 h,  0 min,  0.262 sec
 * ratio c/w:     0.907 speedup
 SCF:
 * wall-time:     0 d,  0 h,  0 min,  0.269 sec
 *  cpu-time:     0 d,  0 h,  0 min,  0.244 sec
 * ratio c/w:     0.907 speedup

