      -----------------------------------------------------------      
     |                   =====================                   |     
     |                           x T B                           |     
     |                   =====================                   |     
     |                         S. Grimme                         |     
     |          Mulliken Center for Theoretical Chemistry        |     
     |                    University of Bonn                     |     
      -----------------------------------------------------------      

   * xtb version 6.6.1 (unknown) compiled by 'builduser@buildhost' on 2023-08-07

   xtb is free software: you can redistribute it and/or modify it under
   the terms of the GNU Lesser General Public License as published by
   the Free Software Foundation, either version 3 of the License, or
   (at your option) any later version.
   
   xtb is distributed in the hope that it will be useful,
   but WITHOUT ANY WARRANTY; without even the implied warranty of
   MERCHANTABILITY or FITNESS FOR A PARTICULAR PURPOSE.  See the
   GNU Lesser General Public License for more details.
   
   Cite this work as:
   * C. Bannwarth, E. Caldeweyher, S. Ehlert, A. Hansen, P. Pracht,
     J. Seibert, S. Spicher, S. Grimme, WIREs Comput. Mol. Sci., 2020, 11,
     e01493. DOI: 10.1002/wcms.1493
   
   for GFN2-xTB:
   * C. Bannwarth, S. Ehlert and S. Grimme., J. Chem. Theory Comput., 2019,
     15, 1652-1671. DOI: 10.1021/acs.jctc.8b01176
   for GFN1-xTB:
   * S. Grimme, C. Bannwarth, P. Shushkov, J. Chem. Theory Comput., 2017,
     13, 1989-2009. DOI: 10.1021/acs.jctc.7b00118
   for GFN0-xTB:
   * P. Pracht, E. Caldeweyher, S. Ehlert, S. Grimme, ChemRxiv, 2019, preprint.
     DOI: 10.26434/chemrxiv.8326202.v1
   for GFN-FF:
   * S. Spicher and S. Grimme, Angew. Chem. Int. Ed., 2020, 59, 15665-15673.
     DOI: 10.1002/anie.202004239
   
   for ALPB and GBSA implicit solvation:
   * S. Ehlert, M. Stahn, S. Spicher, S. Grimme, J. Chem. Theory Comput.,
     2021, 17, 4250-4261. DOI: 10.1021/acs.jctc.1c00471
   
   for DFT-D4:
   * E. Caldeweyher, C. Bannwarth and S. Grimme, J. Chem. Phys., 2017,
     147, 034112. DOI: 10.1063/1.4993215
   * E. Caldeweyher, S. Ehlert, A. Hansen, H. Neugebauer, S. Spicher,
     C. Bannwarth and S. Grimme, J. Chem. Phys., 2019, 150, 154122.
     DOI: 10.1063/1.5090222
   * E. Caldeweyher, J.-M. Mewes, S. Ehlert and S. Grimme, Phys. Chem. Chem. Phys.
     2020, 22, 8499-8512. DOI: 10.1039/D0CP00502A
   
   for sTDA-xTB:
   * S. Grimme and C. Bannwarth, J. Chem. Phys., 2016, 145, 054103.
     DOI: 10.1063/1.4959605
   
   in the mass-spec context:
   * V. Asgeirsson, C. Bauer and S. Grimme, Chem. Sci., 2017, 8, 4879.
     DOI: 10.1039/c7sc00601b
   * J. Koopman and S. Grimme, ACS Omega 2019, 4, 12, 15120-15133.
     DOI: 10.1021/acsomega.9b02011
   
   for metadynamics refer to:
   * S. Grimme, J. Chem. Theory Comput., 2019, 155, 2847-2862
     DOI: 10.1021/acs.jctc.9b00143
   
   for SPH calculations refer to:
   * S. Spicher and S. Grimme, J. Chem. Theory Comput., 2021, 17, 1701-1714
     DOI: 10.1021/acs.jctc.0c01306
   
   with help from (in alphabetical order)
   P. Atkinson, C. Bannwarth, F. Bohle, G. Brandenburg, E. Caldeweyher
   M. Checinski, S. Dohm, S. Ehlert, S. Ehrlich, I. Gerasimov, C. Hölzer
   A. Katbashev, J. Koopman, C. Lavigne, S. Lehtola, F. März, M. Müller,
   F. Musil, H. Neugebauer, J. Pisarek, C. Plett, P. Pracht, F. Pultar,
   J. Seibert, P. Shushkov, S. Spicher, M. Stahn, M. Steiner, T. Strunk,
   J. Stückrath, T. Rose, and J. Unsleber
   
 * started run on 2026/07/23 at 16:37:53.206     

           -------------------------------------------------
          |                Calculation Setup                |
           -------------------------------------------------

          program call               : xtb /home/selva/covalent_quantum_benchmark/data/quantum/erbB_xyz/EGFR__CHEMBL286343__state00.xyz --gfn2 --chrg 0 --uhf 0 --iterations 300
          coordinate file            : /home/selva/covalent_quantum_benchmark/data/quantum/erbB_xyz/EGFR__CHEMBL286343__state00.xyz
          omp threads                :                    24

   ID    Z sym.   atoms
    1    6 C      1-3, 6-9, 11-15, 17, 19, 21-23, 25-27, 29, 30, 32
    2    8 O      4, 24
    3    7 N      5, 10, 18, 20, 28, 31
    4   35 Br     16

           -------------------------------------------------
          |                 G F N 2 - x T B                 |
           -------------------------------------------------

        Reference                      10.1021/acs.jctc.8b01176
      * Hamiltonian:
        H0-scaling (s, p, d)           1.850000    2.230000    2.230000
        zeta-weighting                 0.500000
      * Dispersion:
        s8                             2.700000
        a1                             0.520000
        a2                             5.000000
        s9                             5.000000
      * Repulsion:
        kExp                           1.500000    1.000000
        rExp                           1.000000
      * Coulomb:
        alpha                          2.000000
        third order                    shell-resolved
        anisotropic                    true
        a3                             3.000000
        a5                             4.000000
        cn-shift                       1.200000
        cn-exp                         4.000000
        max-rad                        5.000000


          ...................................................
          :                      SETUP                      :
          :.................................................:
          :  # basis functions                 134          :
          :  # atomic orbitals                 133          :
          :  # shells                           65          :
          :  # electrons                       141          :
          :  max. iterations                   300          :
          :  Hamiltonian                  GFN2-xTB          :
          :  restarted?                      false          :
          :  GBSA solvation                  false          :
          :  PC potential                    false          :
          :  electronic temp.          300.0000000     K    :
          :  accuracy                    1.0000000          :
          :  -> integral cutoff          0.2500000E+02      :
          :  -> integral neglect         0.1000000E-07      :
          :  -> SCF convergence          0.1000000E-05 Eh   :
          :  -> wf. convergence          0.1000000E-03 e    :
          :  Broyden damping             0.4000000          :
          ...................................................

 iter      E             dE          RMSdq      gap      omega  full diag
   1    -77.5250807 -0.775251E+02  0.778E+00    0.09       0.0  T
   2    -56.9504596  0.205746E+02  0.125E+01    0.10       1.0  T
   3    -61.1693913 -0.421893E+01  0.116E+01    0.26       1.0  T
   4    -67.6274094 -0.645802E+01  0.917E+00    0.73       1.0  T
   5    -69.9440473 -0.231664E+01  0.817E+00    0.11       1.0  T
   6    -74.8521326 -0.490809E+01  0.635E+00    0.20       1.0  T
   7    -76.0641365 -0.121200E+01  0.530E+00    0.03       1.0  T
   8    -76.4673258 -0.403189E+00  0.503E+00    0.03       1.0  T
   9    -77.6156902 -0.114836E+01  0.314E+00    0.20       1.0  T
  10    -77.6544788 -0.387886E-01  0.347E+00    0.07       1.0  T
  11    -77.8552291 -0.200750E+00  0.268E+00    0.10       1.0  T
  12    -78.2199079 -0.364679E+00  0.235E+00    0.07       1.0  T
  13    -78.2903935 -0.704856E-01  0.201E+00    0.05       1.0  T
  14    -78.0703915  0.220002E+00  0.267E+00    0.10       1.0  T
  15    -78.1171653 -0.467738E-01  0.251E+00    0.03       1.0  T
  16    -78.1500312 -0.328660E-01  0.230E+00    0.06       1.0  T
  17    -77.7659371  0.384094E+00  0.296E+00    0.11       1.0  T
  18    -78.1009519 -0.335015E+00  0.216E+00    0.02       1.0  T
  19    -78.1907702 -0.898183E-01  0.177E+00    0.07       1.0  T
  20    -78.2389794 -0.482092E-01  0.152E+00    0.04       1.0  T
  21    -78.2434491 -0.446970E-02  0.145E+00    0.02       1.0  T
  22    -78.3183438 -0.748947E-01  0.110E+00    0.04       1.0  T
  23    -78.3794902 -0.611464E-01  0.532E-01    0.08       1.0  T
  24    -78.3956980 -0.162078E-01  0.324E-01    0.07       1.0  T
  25    -78.3318739  0.638241E-01  0.875E-01    0.10       1.0  T
  26    -78.3413655 -0.949157E-02  0.808E-01    0.10       1.0  T
  27    -78.3709051 -0.295396E-01  0.608E-01    0.09       1.0  T
  28    -78.3962029 -0.252978E-01  0.293E-01    0.08       1.0  T
  29    -78.3963859 -0.183003E-03  0.260E-01    0.08       1.0  T
  30    -78.4011523 -0.476645E-02  0.120E-01    0.07       1.0  T
  31    -78.4016168 -0.464488E-03  0.104E-01    0.07       1.0  T
  32    -78.4015336  0.832258E-04  0.884E-02    0.07       1.0  T
  33    -78.3983573  0.317629E-02  0.212E-01    0.07       1.0  T
  34    -78.3995629 -0.120556E-02  0.174E-01    0.07       1.0  T
  35    -78.4019402 -0.237735E-02  0.525E-02    0.07       1.0  T
  36    -78.4021181 -0.177854E-03  0.312E-02    0.07       1.0  T
  37    -78.4020901  0.279812E-04  0.347E-02    0.07       1.0  T
  38    -78.4020909 -0.748618E-06  0.321E-02    0.07       1.0  T
  39    -78.4021496 -0.587204E-04  0.189E-02    0.07       1.0  T
  40    -78.4021579 -0.837799E-05  0.162E-02    0.07       1.1  T
  41    -78.4021800 -0.220662E-04  0.524E-03    0.07       3.4  T
  42    -78.4021813 -0.127178E-05  0.350E-03    0.07       5.1  T
  43    -78.4021818 -0.465365E-06  0.210E-03    0.07       8.4  T
  44    -78.4021817  0.712396E-08  0.184E-03    0.07       9.6  T
  45    -78.4021819 -0.107477E-06  0.138E-03    0.07      12.8  T
  46    -78.4021819 -0.820826E-07  0.880E-04    0.07      20.1  T
  47    -78.4021820 -0.462172E-07  0.320E-04    0.07      55.2  T

   *** convergence criteria satisfied after 47 iterations ***

         #    Occupation            Energy/Eh            Energy/eV
      -------------------------------------------------------------
         1        2.0000           -0.8655065             -23.5516
       ...           ...                  ...                  ...
        65        2.0000           -0.4285386             -11.6611
        66        2.0000           -0.4276040             -11.6357
        67        2.0000           -0.4262873             -11.5999
        68        1.9943           -0.4208371             -11.4516
        69        1.9378           -0.4185167             -11.3884
        70        1.8163           -0.4173780             -11.3574
        71        0.9876           -0.4146029             -11.2819 (HOMO)
        72        0.1982           -0.4119838             -11.2106 (LUMO)
        73        0.0496           -0.4105315             -11.1711
        74        0.0163           -0.4094458             -11.1416
        75                         -0.3942859             -10.7291
        76                         -0.3923978             -10.6777
       ...                                ...                  ...
       133                          0.6122840              16.6611
      -------------------------------------------------------------
                  HL-Gap            0.0026191 Eh            0.0713 eV
             Fermi-level           -0.4146377 Eh          -11.2829 eV

 SCC (total)                   0 d,  0 h,  0 min,  0.733 sec
 SCC setup                      ...        0 min,  0.000 sec (  0.039%)
 Dispersion                     ...        0 min,  0.005 sec (  0.693%)
 classical contributions        ...        0 min,  0.009 sec (  1.160%)
 integral evaluation            ...        0 min,  0.004 sec (  0.503%)
 iterations                     ...        0 min,  0.685 sec ( 93.488%)
 molecular gradient             ...        0 min,  0.024 sec (  3.263%)
 printout                       ...        0 min,  0.006 sec (  0.848%)

         :::::::::::::::::::::::::::::::::::::::::::::::::::::
         ::                     SUMMARY                     ::
         :::::::::::::::::::::::::::::::::::::::::::::::::::::
         :: total energy             -77.534691244907 Eh    ::
         :: gradient norm              0.503322009317 Eh/a0 ::
         :: HOMO-LUMO gap              0.071270469524 eV    ::
         ::.................................................::
         :: SCC energy               -78.402181980566 Eh    ::
         :: -> isotropic ES            0.047244497461 Eh    ::
         :: -> anisotropic ES          0.011458223595 Eh    ::
         :: -> anisotropic XC          0.039052936916 Eh    ::
         :: -> dispersion             -0.043469846816 Eh    ::
         :: repulsion energy           0.867886636127 Eh    ::
         :: add. restraining           0.000000000000 Eh    ::
         :: total charge               0.000000000000 e     ::
         :::::::::::::::::::::::::::::::::::::::::::::::::::::

           -------------------------------------------------
          |                Property Printout                |
           -------------------------------------------------

    * Orbital Energies and Occupations

         #    Occupation            Energy/Eh            Energy/eV
      -------------------------------------------------------------
         1        2.0000           -0.8655065             -23.5516
       ...           ...                  ...                  ...
        59        2.0000           -0.4523773             -12.3098
        60        2.0000           -0.4499367             -12.2434
        61        2.0000           -0.4429031             -12.0520
        62        2.0000           -0.4374999             -11.9050
        63        2.0000           -0.4348903             -11.8340
        64        2.0000           -0.4344912             -11.8231
        65        2.0000           -0.4285386             -11.6611
        66        2.0000           -0.4276040             -11.6357
        67        2.0000           -0.4262873             -11.5999
        68        1.9943           -0.4208371             -11.4516
        69        1.9378           -0.4185167             -11.3884
        70        1.8163           -0.4173780             -11.3574
        71        0.9876           -0.4146029             -11.2819 (HOMO)
        72        0.1982           -0.4119838             -11.2106 (LUMO)
        73        0.0496           -0.4105315             -11.1711
        74        0.0163           -0.4094458             -11.1416
        75                         -0.3942859             -10.7291
        76                         -0.3923978             -10.6777
        77                         -0.3837621             -10.4427
        78                         -0.3618103              -9.8454
        79                         -0.3565832              -9.7031
        80                         -0.3384498              -9.2097
        81                         -0.3208896              -8.7319
        82                         -0.3055272              -8.3138
       ...                                ...                  ...
       133                          0.6122840              16.6611
      -------------------------------------------------------------
                  HL-Gap            0.0026191 Eh            0.0713 eV
             Fermi-level           -0.4146377 Eh          -11.2829 eV

     #   Z          covCN         q      C6AA      α(0)
     1   6 C        0.984    -0.064    37.940    10.347
     2   6 C        1.966     0.008    30.867     8.972
     3   6 C        2.750     0.332    21.352     7.566
     4   8 O        0.858    -0.311    19.980     5.993
     5   7 N        1.832    -0.224    26.734     7.662
     6   6 C        2.896     0.119    25.388     8.261
     7   6 C        1.990    -0.035    31.970     9.131
     8   6 C        2.979     0.016    27.650     8.625
     9   6 C        2.889     0.196    23.834     8.004
    10   7 N        1.830    -0.165    25.376     7.465
    11   6 C        2.891     0.134    25.081     8.211
    12   6 C        1.991     0.007    30.868     8.972
    13   6 C        1.986    -0.027    31.771     9.103
    14   6 C        2.062     0.014    30.586     8.933
    15   6 C        2.905     0.113    25.516     8.283
    16  35 Br       1.068    -0.062   186.731    22.033
    17   6 C        2.066    -0.068    32.803     9.252
    18   7 N        1.831    -0.172    25.514     7.485
    19   6 C        1.956     0.161    27.203     8.423
    20   7 N        1.845    -0.141    24.839     7.386
    21   6 C        2.985     0.129    25.159     8.228
    22   6 C        2.004    -0.091    33.540     9.353
    23   6 C        2.860     0.162    24.507     8.114
    24   8 O        1.703    -0.092    15.726     5.354
    25   6 C        1.842     0.060    29.640     8.795
    26   6 C        1.952     0.007    30.892     8.976
    27   6 C        1.891     0.009    30.880     8.975
    28   7 N        2.864     0.078    19.890     6.624
    29   6 C        2.068    -0.040    32.005     9.139
    30   6 C        2.222     0.061    28.803     8.689
    31   7 N        1.896    -0.144    24.893     7.397
    32   6 C        2.191     0.032    29.722     8.820

 Mol. C6AA /au·bohr⁶  :      30711.879871
 Mol. C8AA /au·bohr⁸  :     902618.769630
 Mol. α(0) /au        :        278.571090


Wiberg/Mayer (AO) data.
largest (>0.10) Wiberg bond orders for each atom

 ---------------------------------------------------------------------------
     #   Z sym  total        # sym  WBO       # sym  WBO       # sym  WBO
 ---------------------------------------------------------------------------
     1   6 C    2.963 --     2 C    2.569     4 O    0.186
     2   6 C    3.637 --     1 C    2.569     3 C    0.935
     3   6 C    3.908 --     4 O    1.653     5 N    1.200     2 C    0.935
     4   8 O    2.108 --     3 C    1.653     1 C    0.186     5 N    0.114
     5   7 N    2.991 --     6 C    1.274     3 C    1.200     4 O    0.114
     6   6 C    3.946 --     7 C    1.384     5 N    1.274    23 C    1.073
     7   6 C    3.773 --     8 C    1.458     6 C    1.384    22 C    0.473
     8   6 C    3.946 --     7 C    1.458     9 C    1.142    21 C    1.088
     9   6 C    3.947 --    10 N    1.368    18 N    1.207     8 C    1.142
    10   7 N    3.200 --     9 C    1.368    11 C    1.179    19 C    0.205
                            18 N    0.108
    11   6 C    3.946 --    17 C    1.314    12 C    1.281    10 N    1.179
    12   6 C    3.723 --    13 C    1.628    11 C    1.281    14 C    0.398
                            17 C    0.156
    13   6 C    3.759 --    12 C    1.628    14 C    1.614    17 C    0.399
    14   6 C    3.703 --    13 C    1.614    15 C    1.360    12 C    0.398
                            17 C    0.154
    15   6 C    3.931 --    17 C    1.428    14 C    1.360    16 Br   0.995
    16  35 Br   1.197 --    15 C    0.995
    17   6 C    3.566 --    15 C    1.428    11 C    1.314    13 C    0.399
                            12 C    0.156    14 C    0.154
    18   7 N    3.167 --    19 C    1.611     9 C    1.207    10 N    0.108
    19   6 C    3.680 --    18 N    1.611    20 N    1.605    10 N    0.205
    20   7 N    3.190 --    19 C    1.605    21 C    1.219
    21   6 C    3.910 --    22 C    1.372    20 N    1.219     8 C    1.088
    22   6 C    3.721 --    23 C    1.473    21 C    1.372     7 C    0.473
    23   6 C    3.909 --    22 C    1.473    24 O    1.092     6 C    1.073
    24   8 O    2.502 --    25 C    1.184    23 C    1.092
    25   6 C    3.331 --    26 C    1.697    24 O    1.184
    26   6 C    3.521 --    25 C    1.697    27 C    1.525
    27   6 C    3.228 --    26 C    1.525    28 N    1.142    30 C    0.159
                            29 C    0.123
    28   7 N    3.606 --    29 C    1.169    27 C    1.142    32 C    1.107
    29   6 C    3.363 --    30 C    1.528    28 N    1.169    32 C    0.359
                            27 C    0.123
    30   6 C    3.578 --    29 C    1.528    31 N    1.355    32 C    0.427
                            27 C    0.159
    31   7 N    3.093 --    32 C    1.474    30 C    1.355
    32   6 C    3.470 --    31 N    1.474    28 N    1.107    30 C    0.427
                            29 C    0.359
 ---------------------------------------------------------------------------

Topologies differ in total number of bonds
Writing topology from bond orders to xtbtopo.mol

molecular dipole:
                 x           y           z       tot (Debye)
 q only:       -0.115      -1.034      -1.040
   full:       -0.043      -1.251      -1.725       5.418
Note: The following floating-point exceptions are signalling: IEEE_UNDERFLOW_FLAG IEEE_DENORMAL
normal termination of xtb
molecular quadrupole (traceless):
                xx          xy          yy          xz          yz          zz
 q only:       -9.720     -10.585      -2.059      -3.157     -10.165      11.779
  q+dip:      -20.070     -21.998      -5.103       3.087      -6.557      25.173
   full:      -18.052     -26.547      -3.749       5.392      -5.711      21.801


           -------------------------------------------------
          | TOTAL ENERGY              -77.534691244907 Eh   |
          | GRADIENT NORM               0.503322009317 Eh/α |
          | HOMO-LUMO GAP               0.071270469524 eV   |
           -------------------------------------------------

------------------------------------------------------------------------
 * finished run on 2026/07/23 at 16:37:53.961     
------------------------------------------------------------------------
 total:
 * wall-time:     0 d,  0 h,  0 min,  0.755 sec
 *  cpu-time:     0 d,  0 h,  0 min,  0.629 sec
 * ratio c/w:     0.832 speedup
 SCF:
 * wall-time:     0 d,  0 h,  0 min,  0.733 sec
 *  cpu-time:     0 d,  0 h,  0 min,  0.603 sec
 * ratio c/w:     0.822 speedup

