      -----------------------------------------------------------      
     |                   =====================                   |     
     |                           x T B                           |     
     |                   =====================                   |     
     |                         S. Grimme                         |     
     |          Mulliken Center for Theoretical Chemistry        |     
     |                    University of Bonn                     |     
      -----------------------------------------------------------      

   * xtb version 6.6.1 (unknown) compiled by 'builduser@buildhost' on 2023-08-07

   xtb is free software: you can redistribute it and/or modify it under
   the terms of the GNU Lesser General Public License as published by
   the Free Software Foundation, either version 3 of the License, or
   (at your option) any later version.
   
   xtb is distributed in the hope that it will be useful,
   but WITHOUT ANY WARRANTY; without even the implied warranty of
   MERCHANTABILITY or FITNESS FOR A PARTICULAR PURPOSE.  See the
   GNU Lesser General Public License for more details.
   
   Cite this work as:
   * C. Bannwarth, E. Caldeweyher, S. Ehlert, A. Hansen, P. Pracht,
     J. Seibert, S. Spicher, S. Grimme, WIREs Comput. Mol. Sci., 2020, 11,
     e01493. DOI: 10.1002/wcms.1493
   
   for GFN2-xTB:
   * C. Bannwarth, S. Ehlert and S. Grimme., J. Chem. Theory Comput., 2019,
     15, 1652-1671. DOI: 10.1021/acs.jctc.8b01176
   for GFN1-xTB:
   * S. Grimme, C. Bannwarth, P. Shushkov, J. Chem. Theory Comput., 2017,
     13, 1989-2009. DOI: 10.1021/acs.jctc.7b00118
   for GFN0-xTB:
   * P. Pracht, E. Caldeweyher, S. Ehlert, S. Grimme, ChemRxiv, 2019, preprint.
     DOI: 10.26434/chemrxiv.8326202.v1
   for GFN-FF:
   * S. Spicher and S. Grimme, Angew. Chem. Int. Ed., 2020, 59, 15665-15673.
     DOI: 10.1002/anie.202004239
   
   for ALPB and GBSA implicit solvation:
   * S. Ehlert, M. Stahn, S. Spicher, S. Grimme, J. Chem. Theory Comput.,
     2021, 17, 4250-4261. DOI: 10.1021/acs.jctc.1c00471
   
   for DFT-D4:
   * E. Caldeweyher, C. Bannwarth and S. Grimme, J. Chem. Phys., 2017,
     147, 034112. DOI: 10.1063/1.4993215
   * E. Caldeweyher, S. Ehlert, A. Hansen, H. Neugebauer, S. Spicher,
     C. Bannwarth and S. Grimme, J. Chem. Phys., 2019, 150, 154122.
     DOI: 10.1063/1.5090222
   * E. Caldeweyher, J.-M. Mewes, S. Ehlert and S. Grimme, Phys. Chem. Chem. Phys.
     2020, 22, 8499-8512. DOI: 10.1039/D0CP00502A
   
   for sTDA-xTB:
   * S. Grimme and C. Bannwarth, J. Chem. Phys., 2016, 145, 054103.
     DOI: 10.1063/1.4959605
   
   in the mass-spec context:
   * V. Asgeirsson, C. Bauer and S. Grimme, Chem. Sci., 2017, 8, 4879.
     DOI: 10.1039/c7sc00601b
   * J. Koopman and S. Grimme, ACS Omega 2019, 4, 12, 15120-15133.
     DOI: 10.1021/acsomega.9b02011
   
   for metadynamics refer to:
   * S. Grimme, J. Chem. Theory Comput., 2019, 155, 2847-2862
     DOI: 10.1021/acs.jctc.9b00143
   
   for SPH calculations refer to:
   * S. Spicher and S. Grimme, J. Chem. Theory Comput., 2021, 17, 1701-1714
     DOI: 10.1021/acs.jctc.0c01306
   
   with help from (in alphabetical order)
   P. Atkinson, C. Bannwarth, F. Bohle, G. Brandenburg, E. Caldeweyher
   M. Checinski, S. Dohm, S. Ehlert, S. Ehrlich, I. Gerasimov, C. Hölzer
   A. Katbashev, J. Koopman, C. Lavigne, S. Lehtola, F. März, M. Müller,
   F. Musil, H. Neugebauer, J. Pisarek, C. Plett, P. Pracht, F. Pultar,
   J. Seibert, P. Shushkov, S. Spicher, M. Stahn, M. Steiner, T. Strunk,
   J. Stückrath, T. Rose, and J. Unsleber
   
 * started run on 2026/07/23 at 16:41:33.163     

           -------------------------------------------------
          |                Calculation Setup                |
           -------------------------------------------------

          program call               : xtb /home/selva/covalent_quantum_benchmark/data/quantum/erbB_xyz/ERBB2__CHEMBL203661__state03.xyz --gfn2 --chrg 0 --uhf 0 --iterations 300
          coordinate file            : /home/selva/covalent_quantum_benchmark/data/quantum/erbB_xyz/ERBB2__CHEMBL203661__state03.xyz
          omp threads                :                    24

   ID    Z sym.   atoms
    1    8 O      1, 10
    2    6 C      2-6, 8, 9, 11, 12, 14-17, 19-22, 24, 26, 28, 30, 31
    3    7 N      7, 13, 18, 27, 29, 32
    4    9 F      23
    5   17 Cl     25

           -------------------------------------------------
          |                 G F N 2 - x T B                 |
           -------------------------------------------------

        Reference                      10.1021/acs.jctc.8b01176
      * Hamiltonian:
        H0-scaling (s, p, d)           1.850000    2.230000    2.230000
        zeta-weighting                 0.500000
      * Dispersion:
        s8                             2.700000
        a1                             0.520000
        a2                             5.000000
        s9                             5.000000
      * Repulsion:
        kExp                           1.500000    1.000000
        rExp                           1.000000
      * Coulomb:
        alpha                          2.000000
        third order                    shell-resolved
        anisotropic                    true
        a3                             3.000000
        a5                             4.000000
        cn-shift                       1.200000
        cn-exp                         4.000000
        max-rad                        5.000000


          ...................................................
          :                      SETUP                      :
          :.................................................:
          :  # basis functions                 134          :
          :  # atomic orbitals                 133          :
          :  # shells                           65          :
          :  # electrons                       144          :
          :  max. iterations                   300          :
          :  Hamiltonian                  GFN2-xTB          :
          :  restarted?                      false          :
          :  GBSA solvation                  false          :
          :  PC potential                    false          :
          :  electronic temp.          300.0000000     K    :
          :  accuracy                    1.0000000          :
          :  -> integral cutoff          0.2500000E+02      :
          :  -> integral neglect         0.1000000E-07      :
          :  -> SCF convergence          0.1000000E-05 Eh   :
          :  -> wf. convergence          0.1000000E-03 e    :
          :  Broyden damping             0.4000000          :
          ...................................................

 iter      E             dE          RMSdq      gap      omega  full diag
   1    -80.8967649 -0.808968E+02  0.793E+00    0.03       0.0  T
   2    -66.2858179  0.146109E+02  0.111E+01    0.13       1.0  T
   3    -56.6572135  0.962860E+01  0.124E+01    0.07       1.0  T
   4    -72.2395086 -0.155823E+02  0.837E+00    0.15       1.0  T
   5    -79.5127560 -0.727325E+01  0.588E+00    0.15       1.0  T
   6    -79.3770519  0.135704E+00  0.551E+00    0.11       1.0  T
   7    -80.5438792 -0.116683E+01  0.446E+00    0.07       1.0  T
   8    -80.5713013 -0.274221E-01  0.437E+00    0.17       1.0  T
   9    -81.3252080 -0.753907E+00  0.266E+00    0.08       1.0  T
  10    -81.1321566  0.193051E+00  0.310E+00    0.01       1.0  T
  11    -81.4793142 -0.347158E+00  0.198E+00    0.03       1.0  T
  12    -81.2524640  0.226850E+00  0.275E+00    0.06       1.0  T
  13    -81.3970080 -0.144544E+00  0.208E+00    0.02       1.0  T
  14    -81.3783478  0.186601E-01  0.211E+00    0.02       1.0  T
  15    -80.9547420  0.423606E+00  0.289E+00    0.07       1.0  T
  16    -81.5460405 -0.591298E+00  0.117E+00    0.01       1.0  T
  17    -81.5778157 -0.317752E-01  0.102E+00    0.04       1.0  T
  18    -81.5354879  0.423277E-01  0.128E+00    0.02       1.0  T
  19    -81.5709895 -0.355016E-01  0.108E+00    0.03       1.0  T
  20    -81.5702527  0.736819E-03  0.113E+00    0.02       1.0  T
  21    -81.5596090  0.106436E-01  0.873E-01    0.02       1.0  T
  22    -81.6058801 -0.462711E-01  0.592E-01    0.04       1.0  T
  23    -81.6126940 -0.681392E-02  0.539E-01    0.05       1.0  T
  24    -81.6145423 -0.184825E-02  0.526E-01    0.05       1.0  T
  25    -81.5630593  0.514830E-01  0.937E-01    0.06       1.0  T
  26    -81.6094483 -0.463889E-01  0.454E-01    0.05       1.0  T
  27    -81.6210532 -0.116050E-01  0.144E-01    0.04       1.0  T
  28    -81.6131912  0.786201E-02  0.335E-01    0.03       1.0  T
  29    -81.6175240 -0.433279E-02  0.240E-01    0.03       1.0  T
  30    -81.6218478 -0.432379E-02  0.688E-02    0.04       1.0  T
  31    -81.6217150  0.132753E-03  0.567E-02    0.04       1.0  T
  32    -81.6220262 -0.311181E-03  0.224E-02    0.04       1.0  T
  33    -81.6218570  0.169252E-03  0.535E-02    0.04       1.0  T
  34    -81.6218512  0.573931E-05  0.449E-02    0.04       1.0  T
  35    -81.6220286 -0.177408E-03  0.105E-02    0.04       1.7  T
  36    -81.6220288 -0.123501E-06  0.101E-02    0.04       1.8  T
  37    -81.6220156  0.131904E-04  0.144E-02    0.04       1.2  T
  38    -81.6220326 -0.170366E-04  0.676E-03    0.04       2.6  T
  39    -81.6220325  0.627680E-07  0.534E-03    0.04       3.3  T
  40    -81.6220333 -0.797615E-06  0.360E-03    0.04       4.9  T
  41    -81.6220328  0.497715E-06  0.375E-03    0.04       4.7  T
  42    -81.6220339 -0.106738E-05  0.101E-03    0.04      17.6  T
  43    -81.6220340 -0.550854E-07  0.338E-04    0.04      52.3  T
  44    -81.6220340  0.569538E-08  0.520E-04    0.04      34.0  T

   *** convergence criteria satisfied after 44 iterations ***

         #    Occupation            Energy/Eh            Energy/eV
      -------------------------------------------------------------
         1        2.0000           -1.0855585             -29.5396
       ...           ...                  ...                  ...
        66        2.0000           -0.4350597             -11.8386
        67        2.0000           -0.4317696             -11.7490
        68        2.0000           -0.4296899             -11.6925
        69        2.0000           -0.4289802             -11.6731
        70        1.9995           -0.4257017             -11.5839
        71        1.7045           -0.4194695             -11.4143
        72        1.3522           -0.4185040             -11.3881 (HOMO)
        73        0.6448           -0.4170993             -11.3498 (LUMO)
        74        0.2990           -0.4161531             -11.3241
        75        0.0000           -0.4074764             -11.0880
        76                         -0.3832501             -10.4288
        77                         -0.3761997             -10.2369
       ...                                ...                  ...
       133                          1.3084148              35.6038
      -------------------------------------------------------------
                  HL-Gap            0.0014047 Eh            0.0382 eV
             Fermi-level           -0.4178049 Eh          -11.3690 eV

 SCC (total)                   0 d,  0 h,  0 min,  0.575 sec
 SCC setup                      ...        0 min,  0.000 sec (  0.065%)
 Dispersion                     ...        0 min,  0.001 sec (  0.178%)
 classical contributions        ...        0 min,  0.005 sec (  0.791%)
 integral evaluation            ...        0 min,  0.006 sec (  1.093%)
 iterations                     ...        0 min,  0.533 sec ( 92.770%)
 molecular gradient             ...        0 min,  0.027 sec (  4.634%)
 printout                       ...        0 min,  0.003 sec (  0.464%)

         :::::::::::::::::::::::::::::::::::::::::::::::::::::
         ::                     SUMMARY                     ::
         :::::::::::::::::::::::::::::::::::::::::::::::::::::
         :: total energy             -80.766976710403 Eh    ::
         :: gradient norm              0.459597873466 Eh/a0 ::
         :: HOMO-LUMO gap              0.038225039992 eV    ::
         ::.................................................::
         :: SCC energy               -81.622033950115 Eh    ::
         :: -> isotropic ES            0.051990036753 Eh    ::
         :: -> anisotropic ES          0.008755157644 Eh    ::
         :: -> anisotropic XC          0.040677687556 Eh    ::
         :: -> dispersion             -0.043930492332 Eh    ::
         :: repulsion energy           0.854681115334 Eh    ::
         :: add. restraining           0.000000000000 Eh    ::
         :: total charge               0.000000000006 e     ::
         :::::::::::::::::::::::::::::::::::::::::::::::::::::

           -------------------------------------------------
          |                Property Printout                |
           -------------------------------------------------

    * Orbital Energies and Occupations

         #    Occupation            Energy/Eh            Energy/eV
      -------------------------------------------------------------
         1        2.0000           -1.0855585             -29.5396
       ...           ...                  ...                  ...
        60        2.0000           -0.4603387             -12.5265
        61        2.0000           -0.4568957             -12.4328
        62        2.0000           -0.4500739             -12.2471
        63        2.0000           -0.4440548             -12.0833
        64        2.0000           -0.4392059             -11.9514
        65        2.0000           -0.4358443             -11.8599
        66        2.0000           -0.4350597             -11.8386
        67        2.0000           -0.4317696             -11.7490
        68        2.0000           -0.4296899             -11.6925
        69        2.0000           -0.4289802             -11.6731
        70        1.9995           -0.4257017             -11.5839
        71        1.7045           -0.4194695             -11.4143
        72        1.3522           -0.4185040             -11.3881 (HOMO)
        73        0.6448           -0.4170993             -11.3498 (LUMO)
        74        0.2990           -0.4161531             -11.3241
        75        0.0000           -0.4074764             -11.0880
        76                         -0.3832501             -10.4288
        77                         -0.3761997             -10.2369
        78                         -0.3720786             -10.1248
        79                         -0.3552793              -9.6676
        80                         -0.3446155              -9.3775
        81                         -0.3426874              -9.3250
        82                         -0.3267041              -8.8901
        83                         -0.3105063              -8.4493
       ...                                ...                  ...
       133                          1.3084148              35.6038
      -------------------------------------------------------------
                  HL-Gap            0.0014047 Eh            0.0382 eV
             Fermi-level           -0.4178049 Eh          -11.3690 eV

     #   Z          covCN         q      C6AA      α(0)
     1   8 O        0.861    -0.339    20.491     6.069
     2   6 C        2.809     0.332    21.360     7.572
     3   6 C        1.969     0.005    30.949     8.984
     4   6 C        1.963     0.053    29.727     8.805
     5   6 C        1.952     0.000    31.079     9.003
     6   6 C        1.897     0.006    30.947     8.985
     7   7 N        2.722     0.080    19.860     6.619
     8   6 C        1.902    -0.035    32.042     9.142
     9   6 C        1.845     0.031    30.349     8.899
    10   8 O        1.696    -0.109    15.964     5.394
    11   6 C        1.845     0.049    29.897     8.833
    12   6 C        1.898    -0.054    32.569     9.217
    13   7 N        1.839    -0.165    25.377     7.465
    14   6 C        2.883     0.197    23.816     8.001
    15   6 C        1.972    -0.085    33.397     9.333
    16   6 C        2.970     0.017    27.628     8.622
    17   6 C        2.856     0.196    23.838     8.002
    18   7 N        1.831    -0.142    24.861     7.389
    19   6 C        2.891     0.135    25.055     8.207
    20   6 C        1.991    -0.043    32.211     9.166
    21   6 C        1.987    -0.032    31.913     9.123
    22   6 C        2.805     0.189    23.968     8.021
    23   9 F        0.787    -0.161    10.839     3.889
    24   6 C        2.877     0.089    26.008     8.360
    25  17 Cl       0.962    -0.072   101.405    15.406
    26   6 C        2.033    -0.065    32.764     9.245
    27   7 N        1.833    -0.146    24.949     7.402
    28   6 C        1.934     0.155    27.335     8.443
    29   7 N        1.837    -0.117    24.313     7.307
    30   6 C        2.954     0.128    25.197     8.233
    31   6 C        1.930     0.014    30.719     8.951
    32   7 N        1.842    -0.111    24.179     7.287

 Mol. C6AA /au·bohr⁶  :      28441.160750
 Mol. C8AA /au·bohr⁸  :     785864.814700
 Mol. α(0) /au        :        265.371978


Wiberg/Mayer (AO) data.
largest (>0.10) Wiberg bond orders for each atom

 ---------------------------------------------------------------------------
     #   Z sym  total        # sym  WBO       # sym  WBO       # sym  WBO
 ---------------------------------------------------------------------------
     1   8 O    2.049 --     2 C    1.727    13 N    0.124
     2   6 C    3.948 --     1 O    1.727    13 N    1.121     3 C    1.020
     3   6 C    3.887 --     4 C    2.521     2 C    1.020     6 C    0.129
     4   6 C    3.956 --     3 C    2.521     5 C    1.242
     5   6 C    3.416 --     6 C    1.846     4 C    1.242
     6   6 C    3.341 --     5 C    1.846     7 N    1.118     3 C    0.129
     7   7 N    3.584 --    12 C    1.165     6 C    1.118     8 C    1.104
     8   6 C    2.946 --     9 C    1.254     7 N    1.104    12 C    0.340
                            11 C    0.160
     9   6 C    3.199 --     8 C    1.254    10 O    1.238    11 C    0.341
                            12 C    0.231
    10   8 O    2.506 --     9 C    1.238    11 C    1.090
    11   6 C    3.001 --    12 C    1.266    10 O    1.090     9 C    0.341
                             8 C    0.160
    12   6 C    3.220 --    11 C    1.266     7 N    1.165     8 C    0.340
                             9 C    0.231
    13   7 N    3.010 --    14 C    1.533     2 C    1.121     1 O    0.124
    14   6 C    3.938 --    13 N    1.533    32 N    1.169    15 C    1.069
    15   6 C    3.607 --    16 C    1.691    14 C    1.069    31 C    0.389
                            32 N    0.111
    16   6 C    3.966 --    15 C    1.691    30 C    1.025    17 C    0.999
    17   6 C    3.951 --    18 N    1.414    27 N    1.313    16 C    0.999
    18   7 N    3.217 --    17 C    1.414    19 C    1.188    28 C    0.218
    19   6 C    3.909 --    26 C    1.294    20 C    1.248    18 N    1.188
    20   6 C    3.675 --    21 C    1.724    19 C    1.248    26 C    0.340
                            24 C    0.101
    21   6 C    3.409 --    20 C    1.724    22 C    1.365    26 C    0.136
    22   6 C    3.798 --    21 C    1.365    24 C    1.260    23 F    0.998
    23   9 F    1.146 --    22 C    0.998
    24   6 C    3.896 --    26 C    1.454    22 C    1.260    25 Cl   1.004
                            20 C    0.101
    25  17 Cl   1.182 --    24 C    1.004
    26   6 C    3.394 --    24 C    1.454    19 C    1.294    20 C    0.340
                            21 C    0.136
    27   7 N    3.193 --    28 C    1.522    17 C    1.313
    28   6 C    3.751 --    29 N    1.690    27 N    1.522    18 N    0.218
    29   7 N    3.207 --    28 C    1.690    30 C    1.199
    30   6 C    3.820 --    31 C    1.373    29 N    1.199    16 C    1.025
    31   6 C    3.679 --    32 N    1.688    30 C    1.373    15 C    0.389
    32   7 N    3.261 --    31 C    1.688    14 C    1.169    15 C    0.111
 ---------------------------------------------------------------------------

Topologies differ in total number of bonds
Writing topology from bond orders to xtbtopo.mol

molecular dipole:
                 x           y           z       tot (Debye)
 q only:       -1.412       1.117      -0.204
   full:       -1.371       0.778       0.446       4.165
molecular quadrupole (traceless):
                xx          xy          yy          xz          yz          zz
Note: The following floating-point exceptions are signalling: IEEE_UNDERFLOW_FLAG IEEE_DENORMAL
normal termination of xtb
 q only:        1.797       1.967       1.146       4.624      16.721      -2.942
  q+dip:       -3.384      -1.575       6.090       3.640      19.977      -2.706
   full:        1.875      -0.755       3.498       3.556      22.886      -5.372


           -------------------------------------------------
          | TOTAL ENERGY              -80.766976710403 Eh   |
          | GRADIENT NORM               0.459597873466 Eh/α |
          | HOMO-LUMO GAP               0.038225039992 eV   |
           -------------------------------------------------

------------------------------------------------------------------------
 * finished run on 2026/07/23 at 16:41:33.764     
------------------------------------------------------------------------
 total:
 * wall-time:     0 d,  0 h,  0 min,  0.602 sec
 *  cpu-time:     0 d,  0 h,  0 min,  0.504 sec
 * ratio c/w:     0.837 speedup
 SCF:
 * wall-time:     0 d,  0 h,  0 min,  0.575 sec
 *  cpu-time:     0 d,  0 h,  0 min,  0.485 sec
 * ratio c/w:     0.844 speedup

