      -----------------------------------------------------------      
     |                   =====================                   |     
     |                           x T B                           |     
     |                   =====================                   |     
     |                         S. Grimme                         |     
     |          Mulliken Center for Theoretical Chemistry        |     
     |                    University of Bonn                     |     
      -----------------------------------------------------------      

   * xtb version 6.6.1 (unknown) compiled by 'builduser@buildhost' on 2023-08-07

   xtb is free software: you can redistribute it and/or modify it under
   the terms of the GNU Lesser General Public License as published by
   the Free Software Foundation, either version 3 of the License, or
   (at your option) any later version.
   
   xtb is distributed in the hope that it will be useful,
   but WITHOUT ANY WARRANTY; without even the implied warranty of
   MERCHANTABILITY or FITNESS FOR A PARTICULAR PURPOSE.  See the
   GNU Lesser General Public License for more details.
   
   Cite this work as:
   * C. Bannwarth, E. Caldeweyher, S. Ehlert, A. Hansen, P. Pracht,
     J. Seibert, S. Spicher, S. Grimme, WIREs Comput. Mol. Sci., 2020, 11,
     e01493. DOI: 10.1002/wcms.1493
   
   for GFN2-xTB:
   * C. Bannwarth, S. Ehlert and S. Grimme., J. Chem. Theory Comput., 2019,
     15, 1652-1671. DOI: 10.1021/acs.jctc.8b01176
   for GFN1-xTB:
   * S. Grimme, C. Bannwarth, P. Shushkov, J. Chem. Theory Comput., 2017,
     13, 1989-2009. DOI: 10.1021/acs.jctc.7b00118
   for GFN0-xTB:
   * P. Pracht, E. Caldeweyher, S. Ehlert, S. Grimme, ChemRxiv, 2019, preprint.
     DOI: 10.26434/chemrxiv.8326202.v1
   for GFN-FF:
   * S. Spicher and S. Grimme, Angew. Chem. Int. Ed., 2020, 59, 15665-15673.
     DOI: 10.1002/anie.202004239
   
   for ALPB and GBSA implicit solvation:
   * S. Ehlert, M. Stahn, S. Spicher, S. Grimme, J. Chem. Theory Comput.,
     2021, 17, 4250-4261. DOI: 10.1021/acs.jctc.1c00471
   
   for DFT-D4:
   * E. Caldeweyher, C. Bannwarth and S. Grimme, J. Chem. Phys., 2017,
     147, 034112. DOI: 10.1063/1.4993215
   * E. Caldeweyher, S. Ehlert, A. Hansen, H. Neugebauer, S. Spicher,
     C. Bannwarth and S. Grimme, J. Chem. Phys., 2019, 150, 154122.
     DOI: 10.1063/1.5090222
   * E. Caldeweyher, J.-M. Mewes, S. Ehlert and S. Grimme, Phys. Chem. Chem. Phys.
     2020, 22, 8499-8512. DOI: 10.1039/D0CP00502A
   
   for sTDA-xTB:
   * S. Grimme and C. Bannwarth, J. Chem. Phys., 2016, 145, 054103.
     DOI: 10.1063/1.4959605
   
   in the mass-spec context:
   * V. Asgeirsson, C. Bauer and S. Grimme, Chem. Sci., 2017, 8, 4879.
     DOI: 10.1039/c7sc00601b
   * J. Koopman and S. Grimme, ACS Omega 2019, 4, 12, 15120-15133.
     DOI: 10.1021/acsomega.9b02011
   
   for metadynamics refer to:
   * S. Grimme, J. Chem. Theory Comput., 2019, 155, 2847-2862
     DOI: 10.1021/acs.jctc.9b00143
   
   for SPH calculations refer to:
   * S. Spicher and S. Grimme, J. Chem. Theory Comput., 2021, 17, 1701-1714
     DOI: 10.1021/acs.jctc.0c01306
   
   with help from (in alphabetical order)
   P. Atkinson, C. Bannwarth, F. Bohle, G. Brandenburg, E. Caldeweyher
   M. Checinski, S. Dohm, S. Ehlert, S. Ehrlich, I. Gerasimov, C. Hölzer
   A. Katbashev, J. Koopman, C. Lavigne, S. Lehtola, F. März, M. Müller,
   F. Musil, H. Neugebauer, J. Pisarek, C. Plett, P. Pracht, F. Pultar,
   J. Seibert, P. Shushkov, S. Spicher, M. Stahn, M. Steiner, T. Strunk,
   J. Stückrath, T. Rose, and J. Unsleber
   
 * started run on 2026/07/23 at 16:43:33.192     

           -------------------------------------------------
          |                Calculation Setup                |
           -------------------------------------------------

          program call               : xtb /home/selva/covalent_quantum_benchmark/data/quantum/erbB_xyz/ERBB2__CHEMBL93464__state02.xyz --gfn2 --chrg 0 --uhf 0 --iterations 300
          coordinate file            : /home/selva/covalent_quantum_benchmark/data/quantum/erbB_xyz/ERBB2__CHEMBL93464__state02.xyz
          omp threads                :                    24

   ID    Z sym.   atoms
    1    6 C      1-4, 7-10, 12, 14, 16-20, 22-24
    2    8 O      5
    3    7 N      6, 11, 13, 15
    4   35 Br     21

           -------------------------------------------------
          |                 G F N 2 - x T B                 |
           -------------------------------------------------

        Reference                      10.1021/acs.jctc.8b01176
      * Hamiltonian:
        H0-scaling (s, p, d)           1.850000    2.230000    2.230000
        zeta-weighting                 0.500000
      * Dispersion:
        s8                             2.700000
        a1                             0.520000
        a2                             5.000000
        s9                             5.000000
      * Repulsion:
        kExp                           1.500000    1.000000
        rExp                           1.000000
      * Coulomb:
        alpha                          2.000000
        third order                    shell-resolved
        anisotropic                    true
        a3                             3.000000
        a5                             4.000000
        cn-shift                       1.200000
        cn-exp                         4.000000
        max-rad                        5.000000


          ...................................................
          :                      SETUP                      :
          :.................................................:
          :  # basis functions                 102          :
          :  # atomic orbitals                 101          :
          :  # shells                           49          :
          :  # electrons                       105          :
          :  max. iterations                   300          :
          :  Hamiltonian                  GFN2-xTB          :
          :  restarted?                      false          :
          :  GBSA solvation                  false          :
          :  PC potential                    false          :
          :  electronic temp.          300.0000000     K    :
          :  accuracy                    1.0000000          :
          :  -> integral cutoff          0.2500000E+02      :
          :  -> integral neglect         0.1000000E-07      :
          :  -> SCF convergence          0.1000000E-05 Eh   :
          :  -> wf. convergence          0.1000000E-03 e    :
          :  Broyden damping             0.4000000          :
          ...................................................

 iter      E             dE          RMSdq      gap      omega  full diag
   1    -57.6193191 -0.576193E+02  0.863E+00    0.47       0.0  T
   2    -49.4802327  0.813909E+01  0.113E+01    0.01       1.0  T
   3    -47.5631621  0.191707E+01  0.110E+01    0.02       1.0  T
   4    -53.7312843 -0.616812E+01  0.790E+00    0.03       1.0  T
   5    -56.2400267 -0.250874E+01  0.628E+00    0.21       1.0  T
   6    -57.7339365 -0.149391E+01  0.410E+00    0.81       1.0  T
   7    -56.9883357  0.745601E+00  0.390E+00    0.05       1.0  T
   8    -57.7507478 -0.762412E+00  0.318E+00    0.38       1.0  T
   9    -57.7692138 -0.184660E-01  0.281E+00    0.43       1.0  T
  10    -57.9271765 -0.157963E+00  0.208E+00    0.23       1.0  T
  11    -57.9020476  0.251289E-01  0.215E+00    0.43       1.0  T
  12    -58.0023879 -0.100340E+00  0.151E+00    0.30       1.0  T
  13    -58.0064357 -0.404773E-02  0.137E+00    0.33       1.0  T
  14    -58.0366614 -0.302257E-01  0.108E+00    0.23       1.0  T
  15    -58.0252654  0.113960E-01  0.114E+00    0.43       1.0  T
  16    -58.0434772 -0.182118E-01  0.786E-01    0.38       1.0  T
  17    -58.0485231 -0.504592E-02  0.712E-01    0.30       1.0  T
  18    -58.0625398 -0.140167E-01  0.362E-01    0.29       1.0  T
  19    -58.0658380 -0.329818E-02  0.248E-01    0.25       1.0  T
  20    -58.0651881  0.649848E-03  0.238E-01    0.27       1.0  T
  21    -58.0665889 -0.140080E-02  0.131E-01    0.26       1.0  T
  22    -58.0666764 -0.874699E-04  0.133E-01    0.24       1.0  T
  23    -58.0671081 -0.431654E-03  0.688E-02    0.25       1.0  T
  24    -58.0672445 -0.136401E-03  0.357E-02    0.24       1.0  T
  25    -58.0672262  0.182763E-04  0.296E-02    0.25       1.0  T
  26    -58.0672590 -0.328368E-04  0.184E-02    0.25       1.1  T
  27    -58.0672697 -0.106996E-04  0.137E-02    0.25       1.5  T
  28    -58.0672604  0.935202E-05  0.185E-02    0.24       1.1  T
  29    -58.0672660 -0.561653E-05  0.120E-02    0.24       1.7  T
  30    -58.0672703 -0.433071E-05  0.798E-03    0.24       2.6  T
  31    -58.0672732 -0.293979E-05  0.430E-03    0.24       4.7  T
  32    -58.0672736 -0.306642E-06  0.316E-03    0.24       6.5  T
  33    -58.0672738 -0.236394E-06  0.140E-03    0.24      14.6  T
  34    -58.0672738 -0.254845E-07  0.596E-04    0.24      34.3  T
  35    -58.0672738  0.541931E-10  0.383E-04    0.24      53.3  T

   *** convergence criteria satisfied after 35 iterations ***

         #    Occupation            Energy/Eh            Energy/eV
      -------------------------------------------------------------
         1        2.0000           -0.8674774             -23.6053
       ...           ...                  ...                  ...
        47        2.0000           -0.4384367             -11.9305
        48        2.0000           -0.4358475             -11.8600
        49        2.0000           -0.4335761             -11.7982
        50        1.9974           -0.4256104             -11.5814
        51        1.9809           -0.4236932             -11.5293
        52        1.7966           -0.4212502             -11.4628
        53        1.2157           -0.4187710             -11.3953 (HOMO)
        54        0.0089           -0.4097902             -11.1510 (LUMO)
        55        0.0006           -0.4071567             -11.0793
        56                         -0.3955422             -10.7633
        57                         -0.3916216             -10.6566
        58                         -0.3590666              -9.7707
       ...                                ...                  ...
       101                          0.6093995              16.5826
      -------------------------------------------------------------
                  HL-Gap            0.0089808 Eh            0.2444 eV
             Fermi-level           -0.4171111 Eh          -11.3502 eV

 SCC (total)                   0 d,  0 h,  0 min,  0.319 sec
 SCC setup                      ...        0 min,  0.000 sec (  0.122%)
 Dispersion                     ...        0 min,  0.004 sec (  1.296%)
 classical contributions        ...        0 min,  0.001 sec (  0.312%)
 integral evaluation            ...        0 min,  0.012 sec (  3.729%)
 iterations                     ...        0 min,  0.226 sec ( 70.978%)
 molecular gradient             ...        0 min,  0.072 sec ( 22.627%)
 printout                       ...        0 min,  0.003 sec (  0.924%)

         :::::::::::::::::::::::::::::::::::::::::::::::::::::
         ::                     SUMMARY                     ::
         :::::::::::::::::::::::::::::::::::::::::::::::::::::
         :: total energy             -57.370705959444 Eh    ::
         :: gradient norm              0.376750239743 Eh/a0 ::
         :: HOMO-LUMO gap              0.244380966895 eV    ::
         ::.................................................::
         :: SCC energy               -58.067273816504 Eh    ::
         :: -> isotropic ES            0.035010195207 Eh    ::
         :: -> anisotropic ES          0.005503633354 Eh    ::
         :: -> anisotropic XC          0.035123741430 Eh    ::
         :: -> dispersion             -0.032585117215 Eh    ::
         :: repulsion energy           0.696952521111 Eh    ::
         :: add. restraining           0.000000000000 Eh    ::
         :: total charge               0.000000000159 e     ::
         :::::::::::::::::::::::::::::::::::::::::::::::::::::

           -------------------------------------------------
          |                Property Printout                |
           -------------------------------------------------

    * Orbital Energies and Occupations

         #    Occupation            Energy/Eh            Energy/eV
      -------------------------------------------------------------
         1        2.0000           -0.8674774             -23.6053
       ...           ...                  ...                  ...
        41        2.0000           -0.4734975             -12.8845
        42        2.0000           -0.4688726             -12.7587
        43        2.0000           -0.4558383             -12.4040
        44        2.0000           -0.4487916             -12.2122
        45        2.0000           -0.4436155             -12.0714
        46        2.0000           -0.4428443             -12.0504
        47        2.0000           -0.4384367             -11.9305
        48        2.0000           -0.4358475             -11.8600
        49        2.0000           -0.4335761             -11.7982
        50        1.9974           -0.4256104             -11.5814
        51        1.9809           -0.4236932             -11.5293
        52        1.7966           -0.4212502             -11.4628
        53        1.2157           -0.4187710             -11.3953 (HOMO)
        54        0.0089           -0.4097902             -11.1510 (LUMO)
        55        0.0006           -0.4071567             -11.0793
        56                         -0.3955422             -10.7633
        57                         -0.3916216             -10.6566
        58                         -0.3590666              -9.7707
        59                         -0.3514287              -9.5629
        60                         -0.3257493              -8.8641
        61                         -0.3159206              -8.5966
        62                         -0.3069808              -8.3534
        63                         -0.2930101              -7.9732
        64                         -0.2854642              -7.7679
       ...                                ...                  ...
       101                          0.6093995              16.5826
      -------------------------------------------------------------
                  HL-Gap            0.0089808 Eh            0.2444 eV
             Fermi-level           -0.4171111 Eh          -11.3502 eV

     #   Z          covCN         q      C6AA      α(0)
     1   6 C        0.981    -0.065    37.937    10.345
     2   6 C        1.965     0.073    29.237     8.732
     3   6 C        1.971     0.031    30.256     8.883
     4   6 C        2.753     0.321    21.552     7.602
     5   8 O        0.857    -0.326    20.266     6.036
     6   7 N        1.835    -0.191    25.955     7.550
     7   6 C        2.895     0.143    24.882     8.179
     8   6 C        1.988    -0.022    31.630     9.082
     9   6 C        1.992    -0.007    31.232     9.025
    10   6 C        2.950     0.123    25.300     8.250
    11   7 N        1.830    -0.158    25.206     7.440
    12   6 C        1.889     0.170    27.027     8.396
    13   7 N        1.832    -0.210    26.410     7.615
    14   6 C        2.857     0.205    23.663     7.973
    15   7 N        1.836    -0.163    25.315     7.456
    16   6 C        2.934     0.134    25.083     8.214
    17   6 C        1.992     0.008    30.848     8.970
    18   6 C        1.987    -0.018    31.529     9.068
    19   6 C        2.062     0.008    30.742     8.956
    20   6 C        2.907     0.113    25.508     8.281
    21  35 Br       1.069    -0.063   186.748    22.034
    22   6 C        2.066    -0.078    33.077     9.290
    23   6 C        2.978     0.005    27.907     8.665
    24   6 C        1.993    -0.033    31.913     9.123

 Mol. C6AA /au·bohr⁶  :      18160.624492
 Mol. C8AA /au·bohr⁸  :     550822.630231
 Mol. α(0) /au        :        215.165933


Wiberg/Mayer (AO) data.
largest (>0.10) Wiberg bond orders for each atom

 ---------------------------------------------------------------------------
     #   Z sym  total        # sym  WBO       # sym  WBO       # sym  WBO
 ---------------------------------------------------------------------------
Note: The following floating-point exceptions are signalling: IEEE_UNDERFLOW_FLAG IEEE_DENORMAL
normal termination of xtb
     1   6 C    2.336 --     2 C    1.690     3 C    0.279     5 O    0.174
                             6 N    0.150
     2   6 C    3.861 --     3 C    2.077     1 C    1.690
     3   6 C    3.679 --     2 C    2.077     4 C    0.976     1 C    0.279
                             5 O    0.160
     4   6 C    3.945 --     5 O    1.613     6 N    1.247     3 C    0.976
     5   8 O    2.214 --     4 C    1.613     1 C    0.174     3 C    0.160
                             6 N    0.151
     6   7 N    3.126 --     4 C    1.247     7 C    1.229     5 O    0.151
                             1 C    0.150     9 C    0.136
     7   6 C    3.915 --    24 C    1.285     8 C    1.230     6 N    1.229
     8   6 C    3.701 --     9 C    1.730     7 C    1.230    24 C    0.236
     9   6 C    3.609 --     8 C    1.730    10 C    1.324    24 C    0.214
                             6 N    0.136
    10   6 C    3.869 --     9 C    1.324    23 C    1.201    11 N    1.080
    11   7 N    3.131 --    12 C    1.709    10 C    1.080
    12   6 C    3.840 --    11 N    1.709    13 N    1.629    15 N    0.120
    13   7 N    3.207 --    12 C    1.629    14 C    1.155    15 N    0.122
    14   6 C    3.954 --    15 N    1.579    13 N    1.155    23 C    1.026
    15   7 N    3.237 --    14 C    1.579    16 C    1.091    13 N    0.122
                            12 C    0.120
    16   6 C    3.953 --    22 C    1.354    17 C    1.321    15 N    1.091
                            19 C    0.101
    17   6 C    3.746 --    18 C    1.624    16 C    1.321    19 C    0.385
                            22 C    0.154    20 C    0.101
    18   6 C    3.733 --    19 C    1.629    17 C    1.624    22 C    0.377
    19   6 C    3.743 --    18 C    1.629    20 C    1.366    17 C    0.385
                            22 C    0.157    16 C    0.101
    20   6 C    3.927 --    22 C    1.415    19 C    1.366    21 Br   0.994
                            17 C    0.101
    21  35 Br   1.198 --    20 C    0.994
    22   6 C    3.578 --    20 C    1.415    16 C    1.354    18 C    0.377
                            19 C    0.157    17 C    0.154
    23   6 C    3.950 --    24 C    1.446    10 C    1.201    14 C    1.026
    24   6 C    3.524 --    23 C    1.446     7 C    1.285     8 C    0.236
                             9 C    0.214
 ---------------------------------------------------------------------------

Topologies differ in total number of bonds
Writing topology from bond orders to xtbtopo.mol

molecular dipole:
                 x           y           z       tot (Debye)
 q only:        0.386      -0.138       0.878
   full:       -0.039       0.575       1.242       3.479
molecular quadrupole (traceless):
                xx          xy          yy          xz          yz          zz
 q only:       -6.886       1.786       3.680      -8.521       1.916       3.207
  q+dip:      -17.560      -0.986       6.628     -12.525       3.353      10.932
   full:      -14.725      -0.916       4.913     -17.141       1.994       9.812


           -------------------------------------------------
          | TOTAL ENERGY              -57.370705959444 Eh   |
          | GRADIENT NORM               0.376750239743 Eh/α |
          | HOMO-LUMO GAP               0.244380966895 eV   |
           -------------------------------------------------

------------------------------------------------------------------------
 * finished run on 2026/07/23 at 16:43:33.530     
------------------------------------------------------------------------
 total:
 * wall-time:     0 d,  0 h,  0 min,  0.338 sec
 *  cpu-time:     0 d,  0 h,  0 min,  0.269 sec
 * ratio c/w:     0.794 speedup
 SCF:
 * wall-time:     0 d,  0 h,  0 min,  0.319 sec
 *  cpu-time:     0 d,  0 h,  0 min,  0.249 sec
 * ratio c/w:     0.780 speedup

