      -----------------------------------------------------------      
     |                   =====================                   |     
     |                           x T B                           |     
     |                   =====================                   |     
     |                         S. Grimme                         |     
     |          Mulliken Center for Theoretical Chemistry        |     
     |                    University of Bonn                     |     
      -----------------------------------------------------------      

   * xtb version 6.6.1 (unknown) compiled by 'builduser@buildhost' on 2023-08-07

   xtb is free software: you can redistribute it and/or modify it under
   the terms of the GNU Lesser General Public License as published by
   the Free Software Foundation, either version 3 of the License, or
   (at your option) any later version.
   
   xtb is distributed in the hope that it will be useful,
   but WITHOUT ANY WARRANTY; without even the implied warranty of
   MERCHANTABILITY or FITNESS FOR A PARTICULAR PURPOSE.  See the
   GNU Lesser General Public License for more details.
   
   Cite this work as:
   * C. Bannwarth, E. Caldeweyher, S. Ehlert, A. Hansen, P. Pracht,
     J. Seibert, S. Spicher, S. Grimme, WIREs Comput. Mol. Sci., 2020, 11,
     e01493. DOI: 10.1002/wcms.1493
   
   for GFN2-xTB:
   * C. Bannwarth, S. Ehlert and S. Grimme., J. Chem. Theory Comput., 2019,
     15, 1652-1671. DOI: 10.1021/acs.jctc.8b01176
   for GFN1-xTB:
   * S. Grimme, C. Bannwarth, P. Shushkov, J. Chem. Theory Comput., 2017,
     13, 1989-2009. DOI: 10.1021/acs.jctc.7b00118
   for GFN0-xTB:
   * P. Pracht, E. Caldeweyher, S. Ehlert, S. Grimme, ChemRxiv, 2019, preprint.
     DOI: 10.26434/chemrxiv.8326202.v1
   for GFN-FF:
   * S. Spicher and S. Grimme, Angew. Chem. Int. Ed., 2020, 59, 15665-15673.
     DOI: 10.1002/anie.202004239
   
   for ALPB and GBSA implicit solvation:
   * S. Ehlert, M. Stahn, S. Spicher, S. Grimme, J. Chem. Theory Comput.,
     2021, 17, 4250-4261. DOI: 10.1021/acs.jctc.1c00471
   
   for DFT-D4:
   * E. Caldeweyher, C. Bannwarth and S. Grimme, J. Chem. Phys., 2017,
     147, 034112. DOI: 10.1063/1.4993215
   * E. Caldeweyher, S. Ehlert, A. Hansen, H. Neugebauer, S. Spicher,
     C. Bannwarth and S. Grimme, J. Chem. Phys., 2019, 150, 154122.
     DOI: 10.1063/1.5090222
   * E. Caldeweyher, J.-M. Mewes, S. Ehlert and S. Grimme, Phys. Chem. Chem. Phys.
     2020, 22, 8499-8512. DOI: 10.1039/D0CP00502A
   
   for sTDA-xTB:
   * S. Grimme and C. Bannwarth, J. Chem. Phys., 2016, 145, 054103.
     DOI: 10.1063/1.4959605
   
   in the mass-spec context:
   * V. Asgeirsson, C. Bauer and S. Grimme, Chem. Sci., 2017, 8, 4879.
     DOI: 10.1039/c7sc00601b
   * J. Koopman and S. Grimme, ACS Omega 2019, 4, 12, 15120-15133.
     DOI: 10.1021/acsomega.9b02011
   
   for metadynamics refer to:
   * S. Grimme, J. Chem. Theory Comput., 2019, 155, 2847-2862
     DOI: 10.1021/acs.jctc.9b00143
   
   for SPH calculations refer to:
   * S. Spicher and S. Grimme, J. Chem. Theory Comput., 2021, 17, 1701-1714
     DOI: 10.1021/acs.jctc.0c01306
   
   with help from (in alphabetical order)
   P. Atkinson, C. Bannwarth, F. Bohle, G. Brandenburg, E. Caldeweyher
   M. Checinski, S. Dohm, S. Ehlert, S. Ehrlich, I. Gerasimov, C. Hölzer
   A. Katbashev, J. Koopman, C. Lavigne, S. Lehtola, F. März, M. Müller,
   F. Musil, H. Neugebauer, J. Pisarek, C. Plett, P. Pracht, F. Pultar,
   J. Seibert, P. Shushkov, S. Spicher, M. Stahn, M. Steiner, T. Strunk,
   J. Stückrath, T. Rose, and J. Unsleber
   
 * started run on 2026/07/23 at 16:40:19.531     

           -------------------------------------------------
          |                Calculation Setup                |
           -------------------------------------------------

          program call               : xtb /home/selva/covalent_quantum_benchmark/data/quantum/erbB_xyz/ERBB2__CHEMBL175556__state01.xyz --gfn2 --chrg 0 --uhf 0 --iterations 300
          coordinate file            : /home/selva/covalent_quantum_benchmark/data/quantum/erbB_xyz/ERBB2__CHEMBL175556__state01.xyz
          omp threads                :                    24

   ID    Z sym.   atoms
    1    6 C      1, 2, 4-6, 8-10, 12, 14-17, 19-26, 28-31, 33, 35-37, 39,
                  40, 42, 43
    2    8 O      3, 18, 34, 41
    3    7 N      7, 11, 13, 32, 38
    4   17 Cl     27

           -------------------------------------------------
          |                 G F N 2 - x T B                 |
           -------------------------------------------------

        Reference                      10.1021/acs.jctc.8b01176
      * Hamiltonian:
        H0-scaling (s, p, d)           1.850000    2.230000    2.230000
        zeta-weighting                 0.500000
      * Dispersion:
        s8                             2.700000
        a1                             0.520000
        a2                             5.000000
        s9                             5.000000
      * Repulsion:
        kExp                           1.500000    1.000000
        rExp                           1.000000
      * Coulomb:
        alpha                          2.000000
        third order                    shell-resolved
        anisotropic                    true
        a3                             3.000000
        a5                             4.000000
        cn-shift                       1.200000
        cn-exp                         4.000000
        max-rad                        5.000000


          ...................................................
          :                      SETUP                      :
          :.................................................:
          :  # basis functions                 178          :
          :  # atomic orbitals                 177          :
          :  # shells                           87          :
          :  # electrons                       188          :
          :  max. iterations                   300          :
          :  Hamiltonian                  GFN2-xTB          :
          :  restarted?                      false          :
          :  GBSA solvation                  false          :
          :  PC potential                    false          :
          :  electronic temp.          300.0000000     K    :
          :  accuracy                    1.0000000          :
          :  -> integral cutoff          0.2500000E+02      :
          :  -> integral neglect         0.1000000E-07      :
          :  -> SCF convergence          0.1000000E-05 Eh   :
          :  -> wf. convergence          0.1000000E-03 e    :
          :  Broyden damping             0.4000000          :
          ...................................................

 iter      E             dE          RMSdq      gap      omega  full diag
   1   -104.1778555 -0.104178E+03  0.841E+00    0.01       0.0  T
   2    -91.7430639  0.124348E+02  0.112E+01    0.11       1.0  T
   3    -80.4767147  0.112663E+02  0.111E+01    0.05       1.0  T
   4    -79.2657378  0.121098E+01  0.112E+01    0.16       1.0  T
   5    -90.3371720 -0.110714E+02  0.897E+00    0.02       1.0  T
   6   -101.7387721 -0.114016E+02  0.623E+00    0.16       1.0  T
   7   -102.6406847 -0.901913E+00  0.515E+00    0.01       1.0  T
   8    -99.2035317  0.343715E+01  0.611E+00    0.02       1.0  T
   9   -103.6704876 -0.446696E+01  0.375E+00    0.06       1.0  T
  10   -102.7278534  0.942634E+00  0.441E+00    0.02       1.0  T
  11   -104.1401000 -0.141225E+01  0.310E+00    0.05       1.0  T
  12   -103.7707917  0.369308E+00  0.336E+00    0.02       1.0  T
  13   -104.0340490 -0.263257E+00  0.300E+00    0.14       1.0  T
  14   -104.3936876 -0.359639E+00  0.247E+00    0.09       1.0  T
  15   -104.3194658  0.742218E-01  0.248E+00    0.12       1.0  T
  16   -104.5664841 -0.247018E+00  0.206E+00    0.06       1.0  T
  17   -104.4062338  0.160250E+00  0.231E+00    0.13       1.0  T
  18   -104.6236791 -0.217445E+00  0.187E+00    0.03       1.0  T
  19   -104.7877975 -0.164118E+00  0.171E+00    0.02       1.0  T
  20   -104.5267732  0.261024E+00  0.184E+00    0.05       1.0  T
  21   -104.7000909 -0.173318E+00  0.208E+00    0.11       1.0  T
  22   -104.7768100 -0.767191E-01  0.187E+00    0.09       1.0  T
  23   -104.8515957 -0.747857E-01  0.169E+00    0.07       1.0  T
  24   -104.8646911 -0.130953E-01  0.162E+00    0.06       1.0  T
  25   -104.8538045  0.108866E-01  0.163E+00    0.06       1.0  T
  26   -104.9322526 -0.784482E-01  0.136E+00    0.06       1.0  T
  27   -104.8099353  0.122317E+00  0.156E+00    0.04       1.0  T
  28   -105.0424266 -0.232491E+00  0.780E-01    0.02       1.0  T
  29   -105.0394901  0.293650E-02  0.765E-01    0.02       1.0  T
  30   -105.0299732  0.951693E-02  0.730E-01    0.03       1.0  T
  31   -105.0563127 -0.263395E-01  0.548E-01    0.02       1.0  T
  32   -105.0389443  0.173683E-01  0.575E-01    0.02       1.0  T
  33   -105.0576477 -0.187034E-01  0.453E-01    0.02       1.0  T
  34   -105.0015236  0.561241E-01  0.749E-01    0.02       1.0  T
  35   -105.0453705 -0.438469E-01  0.520E-01    0.01       1.0  T
  36   -105.0653557 -0.199852E-01  0.381E-01    0.00       1.0  T
  37   -105.0671817 -0.182595E-02  0.324E-01    0.00       1.0  T
  38   -105.0704746 -0.329293E-02  0.271E-01    0.01       1.0  T
  39   -105.0806308 -0.101562E-01  0.125E-01    0.02       1.0  T
  40   -105.0806303  0.530728E-06  0.103E-01    0.02       1.0  T
  41   -105.0803349  0.295388E-03  0.982E-02    0.02       1.0  T
  42   -105.0812916 -0.956696E-03  0.559E-02    0.02       1.0  T
  43   -105.0809748  0.316838E-03  0.649E-02    0.02       1.0  T
  44   -105.0815665 -0.591719E-03  0.306E-02    0.02       1.0  T
  45   -105.0810446  0.521871E-03  0.603E-02    0.02       1.0  T
  46   -105.0816198 -0.575226E-03  0.227E-02    0.02       1.0  T
  47   -105.0815609  0.589367E-04  0.257E-02    0.02       1.0  T
  48   -105.0816165 -0.555673E-04  0.141E-02    0.02       1.1  T
  49   -105.0816303 -0.138250E-04  0.939E-03    0.02       1.6  T
  50   -105.0816323 -0.204782E-05  0.785E-03    0.02       1.9  T
  51   -105.0816344 -0.205082E-05  0.589E-03    0.02       2.6  T
  52   -105.0816380 -0.360195E-05  0.254E-03    0.02       6.0  T
  53   -105.0816386 -0.615144E-06  0.187E-03    0.02       8.2  T
  54   -105.0816383  0.334921E-06  0.234E-03    0.02       6.5  T
  55   -105.0816371  0.113267E-05  0.339E-03    0.02       4.5  T
  56   -105.0816387 -0.156096E-05  0.120E-03    0.02      12.7  T
  57   -105.0816387  0.656266E-08  0.108E-03    0.02      14.1  T
  58   -105.0816387 -0.228845E-07  0.912E-04    0.02      16.7  T
  59   -105.0816388 -0.405574E-07  0.645E-04    0.02      23.7  T

   *** convergence criteria satisfied after 59 iterations ***

         #    Occupation            Energy/Eh            Energy/eV
      -------------------------------------------------------------
         1        2.0000           -1.0958617             -29.8199
       ...           ...                  ...                  ...
        88        1.9990           -0.4327398             -11.7754
        89        1.9981           -0.4321031             -11.7581
        90        1.9956           -0.4313276             -11.7370
        91        1.9441           -0.4288804             -11.6704
        92        1.8120           -0.4276616             -11.6373
        93        1.3902           -0.4262916             -11.6000
        94        1.3269           -0.4261535             -11.5962 (HOMO)
        95        0.9982           -0.4255054             -11.5786 (LUMO)
        96        0.3989           -0.4241886             -11.5428
        97        0.1365           -0.4230255             -11.5111
        98        0.0006           -0.4178003             -11.3689
        99                         -0.3944873             -10.7345
       ...                                ...                  ...
       177                          1.0481689              28.5221
      -------------------------------------------------------------
                  HL-Gap            0.0006481 Eh            0.0176 eV
             Fermi-level           -0.4255088 Eh          -11.5787 eV

 SCC (total)                   0 d,  0 h,  0 min,  1.358 sec
 SCC setup                      ...        0 min,  0.000 sec (  0.023%)
 Dispersion                     ...        0 min,  0.002 sec (  0.137%)
 classical contributions        ...        0 min,  0.001 sec (  0.057%)
 integral evaluation            ...        0 min,  0.008 sec (  0.554%)
 iterations                     ...        0 min,  1.314 sec ( 96.712%)
 molecular gradient             ...        0 min,  0.028 sec (  2.070%)
 printout                       ...        0 min,  0.006 sec (  0.445%)

         :::::::::::::::::::::::::::::::::::::::::::::::::::::
         ::                     SUMMARY                     ::
         :::::::::::::::::::::::::::::::::::::::::::::::::::::
         :: total energy            -103.945048266286 Eh    ::
         :: gradient norm              0.564109330089 Eh/a0 ::
         :: HOMO-LUMO gap              0.017636008065 eV    ::
         ::.................................................::
         :: SCC energy              -105.081638767829 Eh    ::
         :: -> isotropic ES            0.044032674949 Eh    ::
         :: -> anisotropic ES          0.010344510780 Eh    ::
         :: -> anisotropic XC          0.062123855242 Eh    ::
         :: -> dispersion             -0.069247551404 Eh    ::
         :: repulsion energy           1.134321694706 Eh    ::
         :: add. restraining           0.000000000000 Eh    ::
         :: total charge              -0.000000000000 e     ::
         :::::::::::::::::::::::::::::::::::::::::::::::::::::

           -------------------------------------------------
          |                Property Printout                |
           -------------------------------------------------

    * Orbital Energies and Occupations

         #    Occupation            Energy/Eh            Energy/eV
      -------------------------------------------------------------
         1        2.0000           -1.0958617             -29.8199
       ...           ...                  ...                  ...
        82        2.0000           -0.4464390             -12.1482
        83        2.0000           -0.4439764             -12.0812
        84        2.0000           -0.4418157             -12.0224
        85        2.0000           -0.4409771             -11.9996
        86        2.0000           -0.4383312             -11.9276
        87        1.9999           -0.4348663             -11.8333
        88        1.9990           -0.4327398             -11.7754
        89        1.9981           -0.4321031             -11.7581
        90        1.9956           -0.4313276             -11.7370
        91        1.9441           -0.4288804             -11.6704
        92        1.8120           -0.4276616             -11.6373
        93        1.3902           -0.4262916             -11.6000
        94        1.3269           -0.4261535             -11.5962 (HOMO)
        95        0.9982           -0.4255054             -11.5786 (LUMO)
        96        0.3989           -0.4241886             -11.5428
        97        0.1365           -0.4230255             -11.5111
        98        0.0006           -0.4178003             -11.3689
        99                         -0.3944873             -10.7345
       100                         -0.3931319             -10.6977
       101                         -0.3912022             -10.6452
       102                         -0.3729370             -10.1481
       103                         -0.3699227             -10.0661
       104                         -0.3693125             -10.0495
       105                         -0.3632814              -9.8854
       ...                                ...                  ...
       177                          1.0481689              28.5221
      -------------------------------------------------------------
                  HL-Gap            0.0006481 Eh            0.0176 eV
             Fermi-level           -0.4255088 Eh          -11.5787 eV

     #   Z          covCN         q      C6AA      α(0)
     1   6 C        0.976    -0.094    38.847    10.466
     2   6 C        1.848     0.085    29.010     8.701
     3   8 O        1.702    -0.134    16.330     5.456
     4   6 C        2.862     0.157    24.601     8.130
     5   6 C        1.986    -0.075    33.087     9.289
     6   6 C        2.915     0.115    25.477     8.277
     7   7 N        1.831    -0.125    24.492     7.334
     8   6 C        1.934     0.095    28.722     8.655
     9   6 C        2.951     0.027    27.398     8.585
    10   6 C        1.906     0.127    27.998     8.545
    11   7 N        0.911    -0.171    24.697     7.188
    12   6 C        2.902     0.137    25.009     8.200
    13   7 N        1.836    -0.111    24.186     7.288
    14   6 C        2.914     0.126    25.237     8.238
    15   6 C        1.993    -0.040    32.110     9.151
    16   6 C        1.986    -0.042    32.168     9.159
    17   6 C        2.915     0.158    24.578     8.130
    18   8 O        1.701    -0.167    16.821     5.537
    19   6 C        1.874     0.052    29.817     8.820
    20   6 C        2.958     0.077    26.278     8.408
    21   6 C        1.989    -0.012    31.363     9.044
    22   6 C        1.984     0.006    30.897     8.977
    23   6 C        1.986     0.036    30.134     8.865
    24   6 C        1.985     0.014    30.687     8.946
    25   6 C        1.988     0.006    30.903     8.978
    26   6 C        2.877     0.090    26.004     8.360
    27  17 Cl       0.960    -0.074   101.461    15.410
    28   6 C        2.031    -0.090    33.466     9.343
    29   6 C        2.964     0.014    27.698     8.633
    30   6 C        1.994    -0.062    32.721     9.238
    31   6 C        2.929     0.101    25.760     8.324
    32   7 N        1.832    -0.148    24.996     7.409
    33   6 C        2.788     0.292    22.049     7.692
    34   8 O        0.862    -0.362    20.940     6.135
    35   6 C        1.968     0.013    30.737     8.953
    36   6 C        1.967     0.005    30.931     8.981
    37   6 C        1.905     0.002    31.054     9.000
    38   7 N        2.721     0.076    19.930     6.630
    39   6 C        1.901    -0.015    31.519     9.067
    40   6 C        1.841     0.048    29.941     8.840
    41   8 O        1.695    -0.122    16.162     5.428
    42   6 C        1.841     0.050    29.884     8.831
    43   6 C        1.899    -0.064    32.852     9.257

 Mol. C6AA /au·bohr⁶  :      52578.512417
 Mol. C8AA /au·bohr⁸  :    1471107.716213
 Mol. α(0) /au        :        363.895446


Wiberg/Mayer (AO) data.
largest (>0.10) Wiberg bond orders for each atom

 ---------------------------------------------------------------------------
     #   Z sym  total        # sym  WBO       # sym  WBO       # sym  WBO
 ---------------------------------------------------------------------------
     1   6 C    2.353 --     2 C    2.074
     2   6 C    3.377 --     1 C    2.074     3 O    1.118
     3   8 O    2.409 --     2 C    1.118     4 C    1.067
     4   6 C    3.903 --     5 C    1.463    31 C    1.114     3 O    1.067
     5   6 C    3.712 --     4 C    1.463     6 C    1.398    30 C    0.422
     6   6 C    3.896 --     5 C    1.398     7 N    1.162    29 C    1.111
     7   7 N    3.189 --     8 C    1.678     6 C    1.162
     8   6 C    3.718 --     7 N    1.678     9 C    1.588    13 N    0.109
     9   6 C    3.877 --     8 C    1.588    10 C    1.099    12 C    0.987
    10   6 C    3.946 --    11 N    2.793     9 C    1.099
    11   7 N    2.984 --    10 C    2.793
    12   6 C    3.942 --    13 N    1.669    29 C    1.028     9 C    0.987
    13   7 N    3.238 --    12 C    1.669    14 C    1.095     8 C    0.109
    14   6 C    3.924 --    28 C    1.325    15 C    1.294    13 N    1.095
    15   6 C    3.650 --    16 C    1.694    14 C    1.294    28 C    0.279
                            26 C    0.109
    16   6 C    3.485 --    15 C    1.694    17 C    1.362    28 C    0.172
    17   6 C    3.870 --    16 C    1.362    26 C    1.249    18 O    0.978
    18   8 O    2.334 --    19 C    1.116    17 C    0.978
    19   6 C    2.843 --    18 O    1.116    20 C    1.112    22 C    0.101
    20   6 C    3.899 --    25 C    1.296    21 C    1.289    19 C    1.112
                            23 C    0.101
Note: The following floating-point exceptions are signalling: IEEE_UNDERFLOW_FLAG IEEE_DENORMAL
normal termination of xtb
    21   6 C    3.503 --    22 C    1.647    20 C    1.289    24 C    0.223
                            23 C    0.189
    22   6 C    3.629 --    21 C    1.647    23 C    1.564    25 C    0.198
                            19 C    0.101
    23   6 C    3.748 --    24 C    1.597    22 C    1.564    25 C    0.195
                            21 C    0.189    20 C    0.101
    24   6 C    3.612 --    25 C    1.669    23 C    1.597    21 C    0.223
    25   6 C    3.540 --    24 C    1.669    20 C    1.296    22 C    0.198
                            23 C    0.195
    26   6 C    3.892 --    28 C    1.443    17 C    1.249    27 Cl   1.004
                            15 C    0.109
    27  17 Cl   1.183 --    26 C    1.004
    28   6 C    3.513 --    26 C    1.443    14 C    1.325    15 C    0.279
                            16 C    0.172
    29   6 C    3.928 --    30 C    1.525     6 C    1.111    12 C    1.028
    30   6 C    3.746 --    29 C    1.525    31 C    1.365     5 C    0.422
    31   6 C    3.936 --    30 C    1.365    32 N    1.206     4 C    1.114
    32   7 N    3.243 --    33 C    1.486    31 C    1.206    34 O    0.174
    33   6 C    3.939 --    32 N    1.486    34 O    1.392    35 C    0.967
    34   8 O    1.865 --    33 C    1.392    32 N    0.174
    35   6 C    3.654 --    36 C    2.308    33 C    0.967    37 C    0.115
    36   6 C    3.820 --    35 C    2.308    37 C    1.284
    37   6 C    3.255 --    36 C    1.284    38 N    1.245    42 C    0.193
                            43 C    0.132    35 C    0.115
    38   7 N    3.586 --    37 C    1.245    43 C    1.083    39 C    1.041
    39   6 C    2.943 --    40 C    1.499    38 N    1.041    43 C    0.145
    40   6 C    2.844 --    39 C    1.499    41 O    1.144
    41   8 O    2.492 --    42 C    1.146    40 C    1.144
    42   6 C    2.900 --    43 C    1.418    41 O    1.146    37 C    0.193
    43   6 C    2.934 --    42 C    1.418    38 N    1.083    39 C    0.145
                            37 C    0.132
 ---------------------------------------------------------------------------

Topologies differ in total number of bonds
Writing topology from bond orders to xtbtopo.mol

molecular dipole:
                 x           y           z       tot (Debye)
 q only:        1.241       0.429      -0.422
   full:        1.375       0.227      -0.293       3.620
molecular quadrupole (traceless):
                xx          xy          yy          xz          yz          zz
 q only:      -10.383       6.270      -0.846      17.635      -7.875      11.228
  q+dip:      -18.984      -4.158       6.213      31.237      -0.020      12.772
   full:      -19.187      -5.959       8.539      32.590      -2.694      10.648


           -------------------------------------------------
          | TOTAL ENERGY             -103.945048266286 Eh   |
          | GRADIENT NORM               0.564109330089 Eh/α |
          | HOMO-LUMO GAP               0.017636008065 eV   |
           -------------------------------------------------

------------------------------------------------------------------------
 * finished run on 2026/07/23 at 16:40:20.912     
------------------------------------------------------------------------
 total:
 * wall-time:     0 d,  0 h,  0 min,  1.381 sec
 *  cpu-time:     0 d,  0 h,  0 min,  1.379 sec
 * ratio c/w:     0.998 speedup
 SCF:
 * wall-time:     0 d,  0 h,  0 min,  1.359 sec
 *  cpu-time:     0 d,  0 h,  0 min,  1.357 sec
 * ratio c/w:     0.998 speedup

