      -----------------------------------------------------------      
     |                   =====================                   |     
     |                           x T B                           |     
     |                   =====================                   |     
     |                         S. Grimme                         |     
     |          Mulliken Center for Theoretical Chemistry        |     
     |                    University of Bonn                     |     
      -----------------------------------------------------------      

   * xtb version 6.6.1 (unknown) compiled by 'builduser@buildhost' on 2023-08-07

   xtb is free software: you can redistribute it and/or modify it under
   the terms of the GNU Lesser General Public License as published by
   the Free Software Foundation, either version 3 of the License, or
   (at your option) any later version.
   
   xtb is distributed in the hope that it will be useful,
   but WITHOUT ANY WARRANTY; without even the implied warranty of
   MERCHANTABILITY or FITNESS FOR A PARTICULAR PURPOSE.  See the
   GNU Lesser General Public License for more details.
   
   Cite this work as:
   * C. Bannwarth, E. Caldeweyher, S. Ehlert, A. Hansen, P. Pracht,
     J. Seibert, S. Spicher, S. Grimme, WIREs Comput. Mol. Sci., 2020, 11,
     e01493. DOI: 10.1002/wcms.1493
   
   for GFN2-xTB:
   * C. Bannwarth, S. Ehlert and S. Grimme., J. Chem. Theory Comput., 2019,
     15, 1652-1671. DOI: 10.1021/acs.jctc.8b01176
   for GFN1-xTB:
   * S. Grimme, C. Bannwarth, P. Shushkov, J. Chem. Theory Comput., 2017,
     13, 1989-2009. DOI: 10.1021/acs.jctc.7b00118
   for GFN0-xTB:
   * P. Pracht, E. Caldeweyher, S. Ehlert, S. Grimme, ChemRxiv, 2019, preprint.
     DOI: 10.26434/chemrxiv.8326202.v1
   for GFN-FF:
   * S. Spicher and S. Grimme, Angew. Chem. Int. Ed., 2020, 59, 15665-15673.
     DOI: 10.1002/anie.202004239
   
   for ALPB and GBSA implicit solvation:
   * S. Ehlert, M. Stahn, S. Spicher, S. Grimme, J. Chem. Theory Comput.,
     2021, 17, 4250-4261. DOI: 10.1021/acs.jctc.1c00471
   
   for DFT-D4:
   * E. Caldeweyher, C. Bannwarth and S. Grimme, J. Chem. Phys., 2017,
     147, 034112. DOI: 10.1063/1.4993215
   * E. Caldeweyher, S. Ehlert, A. Hansen, H. Neugebauer, S. Spicher,
     C. Bannwarth and S. Grimme, J. Chem. Phys., 2019, 150, 154122.
     DOI: 10.1063/1.5090222
   * E. Caldeweyher, J.-M. Mewes, S. Ehlert and S. Grimme, Phys. Chem. Chem. Phys.
     2020, 22, 8499-8512. DOI: 10.1039/D0CP00502A
   
   for sTDA-xTB:
   * S. Grimme and C. Bannwarth, J. Chem. Phys., 2016, 145, 054103.
     DOI: 10.1063/1.4959605
   
   in the mass-spec context:
   * V. Asgeirsson, C. Bauer and S. Grimme, Chem. Sci., 2017, 8, 4879.
     DOI: 10.1039/c7sc00601b
   * J. Koopman and S. Grimme, ACS Omega 2019, 4, 12, 15120-15133.
     DOI: 10.1021/acsomega.9b02011
   
   for metadynamics refer to:
   * S. Grimme, J. Chem. Theory Comput., 2019, 155, 2847-2862
     DOI: 10.1021/acs.jctc.9b00143
   
   for SPH calculations refer to:
   * S. Spicher and S. Grimme, J. Chem. Theory Comput., 2021, 17, 1701-1714
     DOI: 10.1021/acs.jctc.0c01306
   
   with help from (in alphabetical order)
   P. Atkinson, C. Bannwarth, F. Bohle, G. Brandenburg, E. Caldeweyher
   M. Checinski, S. Dohm, S. Ehlert, S. Ehrlich, I. Gerasimov, C. Hölzer
   A. Katbashev, J. Koopman, C. Lavigne, S. Lehtola, F. März, M. Müller,
   F. Musil, H. Neugebauer, J. Pisarek, C. Plett, P. Pracht, F. Pultar,
   J. Seibert, P. Shushkov, S. Spicher, M. Stahn, M. Steiner, T. Strunk,
   J. Stückrath, T. Rose, and J. Unsleber
   
 * started run on 2026/07/23 at 16:37:14.429     

           -------------------------------------------------
          |                Calculation Setup                |
           -------------------------------------------------

          program call               : xtb /home/selva/covalent_quantum_benchmark/data/quantum/erbB_xyz/EGFR__CHEMBL118205__state00.xyz --gfn2 --chrg 0 --uhf 0 --iterations 300
          coordinate file            : /home/selva/covalent_quantum_benchmark/data/quantum/erbB_xyz/EGFR__CHEMBL118205__state00.xyz
          omp threads                :                    24

   ID    Z sym.   atoms
    1    6 C      1, 3-8, 10, 13-15, 17, 19-24, 26
    2    8 O      2, 12, 25, 27
    3    7 N      9, 11, 18
    4   16 S      16

           -------------------------------------------------
          |                 G F N 2 - x T B                 |
           -------------------------------------------------

        Reference                      10.1021/acs.jctc.8b01176
      * Hamiltonian:
        H0-scaling (s, p, d)           1.850000    2.230000    2.230000
        zeta-weighting                 0.500000
      * Dispersion:
        s8                             2.700000
        a1                             0.520000
        a2                             5.000000
        s9                             5.000000
      * Repulsion:
        kExp                           1.500000    1.000000
        rExp                           1.000000
      * Coulomb:
        alpha                          2.000000
        third order                    shell-resolved
        anisotropic                    true
        a3                             3.000000
        a5                             4.000000
        cn-shift                       1.200000
        cn-exp                         4.000000
        max-rad                        5.000000


          ...................................................
          :                      SETUP                      :
          :.................................................:
          :  # basis functions                 114          :
          :  # atomic orbitals                 113          :
          :  # shells                           55          :
          :  # electrons                       121          :
          :  max. iterations                   300          :
          :  Hamiltonian                  GFN2-xTB          :
          :  restarted?                      false          :
          :  GBSA solvation                  false          :
          :  PC potential                    false          :
          :  electronic temp.          300.0000000     K    :
          :  accuracy                    1.0000000          :
          :  -> integral cutoff          0.2500000E+02      :
          :  -> integral neglect         0.1000000E-07      :
          :  -> SCF convergence          0.1000000E-05 Eh   :
          :  -> wf. convergence          0.1000000E-03 e    :
          :  Broyden damping             0.4000000          :
          ...................................................

 iter      E             dE          RMSdq      gap      omega  full diag
   1    -68.0413243 -0.680413E+02  0.879E+00    0.29       0.0  T
   2    -64.3527228  0.368860E+01  0.981E+00    0.24       1.0  T
   3    -58.4176730  0.593505E+01  0.107E+01    0.37       1.0  T
   4    -60.5910771 -0.217340E+01  0.905E+00    0.04       1.0  T
   5    -64.3607407 -0.376966E+01  0.756E+00    0.41       1.0  T
   6    -67.1085118 -0.274777E+01  0.560E+00    0.07       1.0  T
   7    -67.1640176 -0.555058E-01  0.518E+00    0.05       1.0  T
   8    -66.8323407  0.331677E+00  0.567E+00    0.07       1.0  T
   9    -67.5680198 -0.735679E+00  0.463E+00    0.11       1.0  T
  10    -68.0624726 -0.494453E+00  0.374E+00    0.26       1.0  T
  11    -68.0401543  0.223182E-01  0.364E+00    0.27       1.0  T
  12    -68.0643371 -0.241828E-01  0.349E+00    0.24       1.0  T
  13    -68.2356367 -0.171300E+00  0.289E+00    0.26       1.0  T
  14    -68.3876522 -0.152015E+00  0.237E+00    0.26       1.0  T
  15    -68.2831173  0.104535E+00  0.252E+00    0.29       1.0  T
  16    -68.5194659 -0.236349E+00  0.135E+00    0.08       1.0  T
  17    -68.4981786  0.212873E-01  0.141E+00    0.09       1.0  T
  18    -68.5263430 -0.281644E-01  0.115E+00    0.02       1.0  T
  19    -68.4421207  0.842223E-01  0.173E+00    0.04       1.0  T
  20    -68.1416974  0.300423E+00  0.305E+00    0.07       1.0  T
  21    -68.2814983 -0.139801E+00  0.244E+00    0.08       1.0  T
  22    -68.3684966 -0.869984E-01  0.205E+00    0.07       1.0  T
  23    -68.4308392 -0.623426E-01  0.172E+00    0.05       1.0  T
  24    -68.4756163 -0.447771E-01  0.137E+00    0.02       1.0  T
  25    -68.4034945  0.721218E-01  0.180E+00    0.20       1.0  T
  26    -68.4942225 -0.907280E-01  0.125E+00    0.11       1.0  T
  27    -68.5148822 -0.206596E-01  0.108E+00    0.08       1.0  T
  28    -68.5333022 -0.184200E-01  0.909E-01    0.07       1.0  T
  29    -68.5250319  0.827029E-02  0.988E-01    0.07       1.0  T
  30    -68.4979074  0.271245E-01  0.122E+00    0.10       1.0  T
  31    -68.5589906 -0.610832E-01  0.599E-01    0.05       1.0  T
  32    -68.5571770  0.181354E-02  0.611E-01    0.05       1.0  T
  33    -68.5745763 -0.173993E-01  0.206E-01    0.02       1.0  T
  34    -68.5722358  0.234052E-02  0.283E-01    0.02       1.0  T
  35    -68.5744462 -0.221043E-02  0.142E-01    0.02       1.0  T
  36    -68.5745720 -0.125764E-03  0.984E-02    0.02       1.0  T
  37    -68.5748173 -0.245315E-03  0.521E-02    0.02       1.0  T
  38    -68.5746851  0.132233E-03  0.701E-02    0.03       1.0  T
  39    -68.5742943  0.390764E-03  0.112E-01    0.03       1.0  T
  40    -68.5748057 -0.511374E-03  0.438E-02    0.03       1.0  T
  41    -68.5747809  0.247359E-04  0.470E-02    0.03       1.0  T
  42    -68.5748604 -0.795054E-04  0.234E-02    0.03       1.0  T
  43    -68.5748713 -0.108888E-04  0.173E-02    0.03       1.1  T
  44    -68.5748831 -0.118181E-04  0.706E-03    0.03       2.7  T
  45    -68.5748838 -0.640127E-06  0.595E-03    0.02       3.2  T
  46    -68.5748851 -0.131671E-05  0.284E-03    0.02       6.8  T
  47    -68.5748854 -0.304623E-06  0.132E-03    0.02      14.6  T
  48    -68.5748855 -0.836361E-07  0.333E-04    0.02      57.8  T
  49    -68.5748855  0.319316E-08  0.423E-04    0.02      45.5  T

   *** convergence criteria satisfied after 49 iterations ***

         #    Occupation            Energy/Eh            Energy/eV
      -------------------------------------------------------------
         1        2.0000           -0.8233027             -22.4032
       ...           ...                  ...                  ...
        55        2.0000           -0.4551946             -12.3865
        56        2.0000           -0.4525116             -12.3135
        57        2.0000           -0.4402885             -11.9809
        58        1.9800           -0.4325864             -11.7713
        59        1.9600           -0.4319117             -11.7529
        60        1.7498           -0.4299952             -11.7008
        61        0.8251           -0.4273723             -11.6294 (HOMO)
        62        0.4848           -0.4264631             -11.6047 (LUMO)
        63        0.0003           -0.4190390             -11.4026
        64        0.0000           -0.4143685             -11.2755
        65                         -0.4059300             -11.0459
        66                         -0.3993069             -10.8657
       ...                                ...                  ...
       113                          1.0265407              27.9336
      -------------------------------------------------------------
                  HL-Gap            0.0009092 Eh            0.0247 eV
             Fermi-level           -0.4278009 Eh          -11.6411 eV

 SCC (total)                   0 d,  0 h,  0 min,  0.478 sec
 SCC setup                      ...        0 min,  0.002 sec (  0.338%)
 Dispersion                     ...        0 min,  0.001 sec (  0.209%)
 classical contributions        ...        0 min,  0.001 sec (  0.299%)
 integral evaluation            ...        0 min,  0.006 sec (  1.186%)
 iterations                     ...        0 min,  0.451 sec ( 94.305%)
 molecular gradient             ...        0 min,  0.014 sec (  2.830%)
 printout                       ...        0 min,  0.004 sec (  0.821%)

         :::::::::::::::::::::::::::::::::::::::::::::::::::::
         ::                     SUMMARY                     ::
         :::::::::::::::::::::::::::::::::::::::::::::::::::::
         :: total energy             -67.806734450509 Eh    ::
         :: gradient norm              0.411211686026 Eh/a0 ::
         :: HOMO-LUMO gap              0.024740726320 eV    ::
         ::.................................................::
         :: SCC energy               -68.574885489103 Eh    ::
         :: -> isotropic ES            0.078046645318 Eh    ::
         :: -> anisotropic ES          0.007014110180 Eh    ::
         :: -> anisotropic XC          0.043132643291 Eh    ::
         :: -> dispersion             -0.038214116933 Eh    ::
         :: repulsion energy           0.767909320845 Eh    ::
         :: add. restraining           0.000000000000 Eh    ::
         :: total charge              -0.000000000174 e     ::
         :::::::::::::::::::::::::::::::::::::::::::::::::::::

           -------------------------------------------------
          |                Property Printout                |
           -------------------------------------------------

    * Orbital Energies and Occupations

         #    Occupation            Energy/Eh            Energy/eV
      -------------------------------------------------------------
         1        2.0000           -0.8233027             -22.4032
       ...           ...                  ...                  ...
        49        2.0000           -0.4856723             -13.2158
        50        2.0000           -0.4812191             -13.0946
        51        2.0000           -0.4703979             -12.8002
        52        2.0000           -0.4696189             -12.7790
        53        2.0000           -0.4683106             -12.7434
        54        2.0000           -0.4597291             -12.5099
        55        2.0000           -0.4551946             -12.3865
        56        2.0000           -0.4525116             -12.3135
        57        2.0000           -0.4402885             -11.9809
        58        1.9800           -0.4325864             -11.7713
        59        1.9600           -0.4319117             -11.7529
        60        1.7498           -0.4299952             -11.7008
        61        0.8251           -0.4273723             -11.6294 (HOMO)
        62        0.4848           -0.4264631             -11.6047 (LUMO)
        63        0.0003           -0.4190390             -11.4026
        64        0.0000           -0.4143685             -11.2755
        65                         -0.4059300             -11.0459
        66                         -0.3993069             -10.8657
        67                         -0.3938521             -10.7173
        68                         -0.3656369              -9.9495
        69                         -0.3513537              -9.5608
        70                         -0.3372413              -9.1768
        71                         -0.3053239              -8.3083
        72                         -0.2876063              -7.8262
       ...                                ...                  ...
       113                          1.0265407              27.9336
      -------------------------------------------------------------
                  HL-Gap            0.0009092 Eh            0.0247 eV
             Fermi-level           -0.4278009 Eh          -11.6411 eV

     #   Z          covCN         q      C6AA      α(0)
     1   6 C        0.871     0.002    35.107     9.895
     2   8 O        1.703    -0.013    14.653     5.168
     3   6 C        2.857     0.145    24.848     8.170
     4   6 C        1.990    -0.064    32.770     9.245
     5   6 C        2.961     0.075    26.313     8.414
     6   6 C        1.985     0.032    30.220     8.878
     7   6 C        2.945     0.050    26.871     8.502
     8   6 C        1.904     0.149    27.501     8.469
     9   7 N        0.911    -0.131    23.847     7.063
    10   6 C        2.756     0.311    21.721     7.632
    11   7 N        0.916    -0.221    25.791     7.342
    12   8 O        0.859    -0.319    20.132     6.016
    13   6 C        1.998    -0.038    32.044     9.142
    14   6 C        2.987     0.042    27.051     8.532
    15   6 C        1.950    -0.023    31.679     9.089
    16  16 S        2.014     0.106   136.788    19.685
    17   6 C        3.208     0.249    22.332     7.694
    18   7 N        1.899    -0.203    26.245     7.595
    19   6 C        3.171     0.102    25.401     8.233
    20   6 C        1.987    -0.034    31.966     9.131
    21   6 C        1.985     0.042    29.989     8.844
    22   6 C        1.997     0.043    29.943     8.837
    23   6 C        1.977    -0.070    32.970     9.273
    24   6 C        3.106     0.149    24.652     8.135
    25   8 O        1.725    -0.184    17.073     5.579
    26   6 C        2.847     0.199    23.780     7.992
    27   8 O        0.854    -0.395    21.585     6.229

 Mol. C6AA /au·bohr⁶  :      20834.732608
 Mol. C8AA /au·bohr⁸  :     592836.666500
 Mol. α(0) /au        :        228.783182


Wiberg/Mayer (AO) data.
largest (>0.10) Wiberg bond orders for each atom

 ---------------------------------------------------------------------------
     #   Z sym  total        # sym  WBO       # sym  WBO       # sym  WBO
 ---------------------------------------------------------------------------
     1   6 C    1.974 --     2 O    1.544     4 C    0.108
     2   8 O    2.656 --     1 C    1.544     3 C    1.033
     3   6 C    3.861 --     4 C    1.431    26 C    1.121     2 O    1.033
     4   6 C    3.693 --     3 C    1.431     5 C    1.295    13 C    0.422
                            27 O    0.123     1 C    0.108
     5   6 C    3.957 --     4 C    1.295    13 C    1.265     6 C    1.209
     6   6 C    3.789 --     7 C    1.857     5 C    1.209     9 N    0.171
                            12 O    0.163    11 N    0.153
     7   6 C    3.923 --     6 C    1.857     8 C    1.046    10 C    0.838
     8   6 C    3.933 --     9 N    2.783     7 C    1.046
     9   7 N    3.092 --     8 C    2.783     6 C    0.171
    10   6 C    3.917 --    12 O    1.579    11 N    1.429     7 C    0.838
    11   7 N    1.924 --    10 C    1.429    12 O    0.209     6 C    0.153
    12   8 O    2.017 --    10 C    1.579    11 N    0.209     6 C    0.163
    13   6 C    3.731 --    14 C    1.464     5 C    1.265     4 C    0.422
                            27 O    0.167    15 C    0.115
    14   6 C    3.943 --    13 C    1.464    15 C    1.139    26 C    1.125
    15   6 C    2.806 --    16 S    1.303    14 C    1.139    13 C    0.115
    16  16 S    2.532 --    15 C    1.303    17 C    1.010
    17   6 C    3.918 --    18 N    1.571    25 O    1.104    16 S    1.010
    18   7 N    3.074 --    17 C    1.571    19 C    1.203    25 O    0.119
    19   6 C    3.962 --    20 C    1.320    18 N    1.203    24 C    1.190
    20   6 C    3.751 --    21 C    1.713    19 C    1.320    23 C    0.458
                            22 C    0.147
    21   6 C    3.889 --    22 C    1.845    20 C    1.713    23 C    0.132
                            24 C    0.100
    22   6 C    3.871 --    21 C    1.845    23 C    1.664    20 C    0.147
    23   6 C    3.709 --    22 C    1.664    24 C    1.363    20 C    0.458
                            21 C    0.132
    24   6 C    3.901 --    23 C    1.363    19 C    1.190    25 O    1.066
                            21 C    0.100
    25   8 O    2.429 --    17 C    1.104    24 C    1.066    18 N    0.119
    26   6 C    3.937 --    27 O    1.465    14 C    1.125     3 C    1.121
    27   8 O    1.980 --    26 C    1.465    13 C    0.167     4 C    0.123
 ---------------------------------------------------------------------------

Topologies differ in total number of bonds
Writing topology from bond orders to xtbtopo.mol

molecular dipole:
                 x           y           z       tot (Debye)
 q only:        1.805      -0.920       1.248
   full:        2.503      -0.748       1.456       7.602
molecular quadrupole (traceless):
                xx          xy          yy          xz          yz          zz
 q only:       11.445       4.019      18.319     -14.384      16.438     -29.764
  q+dip:       16.259       9.690       6.338     -10.039      19.769     -22.598
   full:       18.762      10.322       5.449     -10.079      21.168     -24.211


           -------------------------------------------------
Note: The following floating-point exceptions are signalling: IEEE_UNDERFLOW_FLAG IEEE_DENORMAL
normal termination of xtb
          | TOTAL ENERGY              -67.806734450509 Eh   |
          | GRADIENT NORM               0.411211686026 Eh/α |
          | HOMO-LUMO GAP               0.024740726320 eV   |
           -------------------------------------------------

------------------------------------------------------------------------
 * finished run on 2026/07/23 at 16:37:14.927     
------------------------------------------------------------------------
 total:
 * wall-time:     0 d,  0 h,  0 min,  0.497 sec
 *  cpu-time:     0 d,  0 h,  0 min,  0.408 sec
 * ratio c/w:     0.820 speedup
 SCF:
 * wall-time:     0 d,  0 h,  0 min,  0.478 sec
 *  cpu-time:     0 d,  0 h,  0 min,  0.389 sec
 * ratio c/w:     0.814 speedup

