      -----------------------------------------------------------      
     |                   =====================                   |     
     |                           x T B                           |     
     |                   =====================                   |     
     |                         S. Grimme                         |     
     |          Mulliken Center for Theoretical Chemistry        |     
     |                    University of Bonn                     |     
      -----------------------------------------------------------      

   * xtb version 6.6.1 (unknown) compiled by 'builduser@buildhost' on 2023-08-07

   xtb is free software: you can redistribute it and/or modify it under
   the terms of the GNU Lesser General Public License as published by
   the Free Software Foundation, either version 3 of the License, or
   (at your option) any later version.
   
   xtb is distributed in the hope that it will be useful,
   but WITHOUT ANY WARRANTY; without even the implied warranty of
   MERCHANTABILITY or FITNESS FOR A PARTICULAR PURPOSE.  See the
   GNU Lesser General Public License for more details.
   
   Cite this work as:
   * C. Bannwarth, E. Caldeweyher, S. Ehlert, A. Hansen, P. Pracht,
     J. Seibert, S. Spicher, S. Grimme, WIREs Comput. Mol. Sci., 2020, 11,
     e01493. DOI: 10.1002/wcms.1493
   
   for GFN2-xTB:
   * C. Bannwarth, S. Ehlert and S. Grimme., J. Chem. Theory Comput., 2019,
     15, 1652-1671. DOI: 10.1021/acs.jctc.8b01176
   for GFN1-xTB:
   * S. Grimme, C. Bannwarth, P. Shushkov, J. Chem. Theory Comput., 2017,
     13, 1989-2009. DOI: 10.1021/acs.jctc.7b00118
   for GFN0-xTB:
   * P. Pracht, E. Caldeweyher, S. Ehlert, S. Grimme, ChemRxiv, 2019, preprint.
     DOI: 10.26434/chemrxiv.8326202.v1
   for GFN-FF:
   * S. Spicher and S. Grimme, Angew. Chem. Int. Ed., 2020, 59, 15665-15673.
     DOI: 10.1002/anie.202004239
   
   for ALPB and GBSA implicit solvation:
   * S. Ehlert, M. Stahn, S. Spicher, S. Grimme, J. Chem. Theory Comput.,
     2021, 17, 4250-4261. DOI: 10.1021/acs.jctc.1c00471
   
   for DFT-D4:
   * E. Caldeweyher, C. Bannwarth and S. Grimme, J. Chem. Phys., 2017,
     147, 034112. DOI: 10.1063/1.4993215
   * E. Caldeweyher, S. Ehlert, A. Hansen, H. Neugebauer, S. Spicher,
     C. Bannwarth and S. Grimme, J. Chem. Phys., 2019, 150, 154122.
     DOI: 10.1063/1.5090222
   * E. Caldeweyher, J.-M. Mewes, S. Ehlert and S. Grimme, Phys. Chem. Chem. Phys.
     2020, 22, 8499-8512. DOI: 10.1039/D0CP00502A
   
   for sTDA-xTB:
   * S. Grimme and C. Bannwarth, J. Chem. Phys., 2016, 145, 054103.
     DOI: 10.1063/1.4959605
   
   in the mass-spec context:
   * V. Asgeirsson, C. Bauer and S. Grimme, Chem. Sci., 2017, 8, 4879.
     DOI: 10.1039/c7sc00601b
   * J. Koopman and S. Grimme, ACS Omega 2019, 4, 12, 15120-15133.
     DOI: 10.1021/acsomega.9b02011
   
   for metadynamics refer to:
   * S. Grimme, J. Chem. Theory Comput., 2019, 155, 2847-2862
     DOI: 10.1021/acs.jctc.9b00143
   
   for SPH calculations refer to:
   * S. Spicher and S. Grimme, J. Chem. Theory Comput., 2021, 17, 1701-1714
     DOI: 10.1021/acs.jctc.0c01306
   
   with help from (in alphabetical order)
   P. Atkinson, C. Bannwarth, F. Bohle, G. Brandenburg, E. Caldeweyher
   M. Checinski, S. Dohm, S. Ehlert, S. Ehrlich, I. Gerasimov, C. Hölzer
   A. Katbashev, J. Koopman, C. Lavigne, S. Lehtola, F. März, M. Müller,
   F. Musil, H. Neugebauer, J. Pisarek, C. Plett, P. Pracht, F. Pultar,
   J. Seibert, P. Shushkov, S. Spicher, M. Stahn, M. Steiner, T. Strunk,
   J. Stückrath, T. Rose, and J. Unsleber
   
 * started run on 2026/07/23 at 16:39:03.929     

           -------------------------------------------------
          |                Calculation Setup                |
           -------------------------------------------------

          program call               : xtb /home/selva/covalent_quantum_benchmark/data/quantum/erbB_xyz/EGFR__CHEMBL57251__state01.xyz --gfn2 --chrg 0 --uhf 0 --iterations 300
          coordinate file            : /home/selva/covalent_quantum_benchmark/data/quantum/erbB_xyz/EGFR__CHEMBL57251__state01.xyz
          omp threads                :                    24

   ID    Z sym.   atoms
    1    6 C      1, 3-6, 8, 10, 11, 13-17, 19, 21, 22, 24, 25
    2    8 O      2, 9, 18, 20, 23
    3    7 N      7, 12

           -------------------------------------------------
          |                 G F N 2 - x T B                 |
           -------------------------------------------------

        Reference                      10.1021/acs.jctc.8b01176
      * Hamiltonian:
        H0-scaling (s, p, d)           1.850000    2.230000    2.230000
        zeta-weighting                 0.500000
      * Dispersion:
        s8                             2.700000
        a1                             0.520000
        a2                             5.000000
        s9                             5.000000
      * Repulsion:
        kExp                           1.500000    1.000000
        rExp                           1.000000
      * Coulomb:
        alpha                          2.000000
        third order                    shell-resolved
        anisotropic                    true
        a3                             3.000000
        a5                             4.000000
        cn-shift                       1.200000
        cn-exp                         4.000000
        max-rad                        5.000000


          ...................................................
          :                      SETUP                      :
          :.................................................:
          :  # basis functions                 100          :
          :  # atomic orbitals                 100          :
          :  # shells                           50          :
          :  # electrons                       112          :
          :  max. iterations                   300          :
          :  Hamiltonian                  GFN2-xTB          :
          :  restarted?                      false          :
          :  GBSA solvation                  false          :
          :  PC potential                    false          :
          :  electronic temp.          300.0000000     K    :
          :  accuracy                    1.0000000          :
          :  -> integral cutoff          0.2500000E+02      :
          :  -> integral neglect         0.1000000E-07      :
          :  -> SCF convergence          0.1000000E-05 Eh   :
          :  -> wf. convergence          0.1000000E-03 e    :
          :  Broyden damping             0.4000000          :
          ...................................................

 iter      E             dE          RMSdq      gap      omega  full diag
   1    -63.2088490 -0.632088E+02  0.964E+00    0.17       0.0  T
   2    -51.1251480  0.120837E+02  0.141E+01    0.83       1.0  T
   3    -52.9859972 -0.186085E+01  0.113E+01    0.18       1.0  T
   4    -60.9706475 -0.798465E+01  0.860E+00    0.05       1.0  T
   5    -63.1449691 -0.217432E+01  0.578E+00    0.01       1.0  T
   6    -63.1486820 -0.371286E-02  0.535E+00    0.20       1.0  T
   7    -64.0149866 -0.866305E+00  0.277E+00    0.08       1.0  T
   8    -64.0656730 -0.506864E-01  0.262E+00    0.08       1.0  T
   9    -64.0944470 -0.287740E-01  0.246E+00    0.08       1.0  T
  10    -64.0893297  0.511727E-02  0.236E+00    0.16       1.0  T
  11    -63.6673734  0.421956E+00  0.373E+00    0.01       1.0  T
  12    -63.2603930  0.406980E+00  0.463E+00    0.08       1.0  T
  13    -63.9440557 -0.683663E+00  0.284E+00    0.09       1.0  T
  14    -63.5744730  0.369583E+00  0.439E+00    0.11       1.0  T
  15    -63.4317947  0.142678E+00  0.468E+00    0.09       1.0  T
  16    -63.6448780 -0.213083E+00  0.411E+00    0.04       1.0  T
  17    -64.1347685 -0.489891E+00  0.167E+00    0.06       1.0  T
  18    -64.1627758 -0.280073E-01  0.139E+00    0.05       1.0  T
  19    -64.1033095  0.594663E-01  0.194E+00    0.04       1.0  T
  20    -64.0781877  0.251218E-01  0.209E+00    0.04       1.0  T
  21    -64.2058383 -0.127651E+00  0.748E-01    0.09       1.0  T
  22    -64.2119190 -0.608070E-02  0.617E-01    0.10       1.0  T
  23    -64.2174644 -0.554544E-02  0.529E-01    0.09       1.0  T
  24    -64.2159284  0.153603E-02  0.555E-01    0.10       1.0  T
  25    -64.2234548 -0.752640E-02  0.391E-01    0.08       1.0  T
  26    -64.2261694 -0.271466E-02  0.284E-01    0.08       1.0  T
  27    -64.2281844 -0.201496E-02  0.182E-01    0.07       1.0  T
  28    -64.2275615  0.622876E-03  0.203E-01    0.08       1.0  T
  29    -64.2277832 -0.221666E-03  0.225E-01    0.06       1.0  T
  30    -64.2295186 -0.173537E-02  0.388E-02    0.07       1.0  T
  31    -64.2292401  0.278412E-03  0.840E-02    0.06       1.0  T
  32    -64.2291831  0.570882E-04  0.915E-02    0.06       1.0  T
  33    -64.2295141 -0.331054E-03  0.360E-02    0.06       1.0  T
  34    -64.2295626 -0.485379E-04  0.165E-02    0.06       1.2  T
  35    -64.2295574  0.523116E-05  0.199E-02    0.06       1.0  T
  36    -64.2295660 -0.857361E-05  0.118E-02    0.06       1.7  T
  37    -64.2295699 -0.390084E-05  0.678E-03    0.06       3.0  T
  38    -64.2295702 -0.293338E-06  0.609E-03    0.06       3.3  T
  39    -64.2295710 -0.826729E-06  0.345E-03    0.06       5.8  T
  40    -64.2295715 -0.451211E-06  0.161E-03    0.06      12.4  T
  41    -64.2295715 -0.174093E-07  0.151E-03    0.06      13.3  T
  42    -64.2295716 -0.870485E-07  0.590E-04    0.06      33.9  T
  43    -64.2295716 -0.124985E-07  0.345E-04    0.06      58.0  T

   *** convergence criteria satisfied after 43 iterations ***

         #    Occupation            Energy/Eh            Energy/eV
      -------------------------------------------------------------
         1        2.0000           -0.8398668             -22.8539
       ...           ...                  ...                  ...
        50        2.0000           -0.4712126             -12.8223
        51        2.0000           -0.4681833             -12.7399
        52        2.0000           -0.4639685             -12.6252
        53        2.0000           -0.4615018             -12.5581
        54        1.9994           -0.4547297             -12.3738
        55        1.9815           -0.4514775             -12.2853
        56        1.5344           -0.4481705             -12.1953 (HOMO)
        57        0.4350           -0.4458211             -12.1314 (LUMO)
        58        0.0461           -0.4434772             -12.0676
        59        0.0036           -0.4410374             -12.0012
        60                         -0.4260951             -11.5946
        61                         -0.4221909             -11.4884
       ...                                ...                  ...
       100                          1.0200783              27.7577
      -------------------------------------------------------------
                  HL-Gap            0.0023494 Eh            0.0639 eV
             Fermi-level           -0.4470374 Eh          -12.1645 eV

 SCC (total)                   0 d,  0 h,  0 min,  0.301 sec
 SCC setup                      ...        0 min,  0.000 sec (  0.136%)
 Dispersion                     ...        0 min,  0.006 sec (  1.887%)
 classical contributions        ...        0 min,  0.001 sec (  0.378%)
 integral evaluation            ...        0 min,  0.008 sec (  2.546%)
 iterations                     ...        0 min,  0.265 sec ( 87.838%)
 molecular gradient             ...        0 min,  0.021 sec (  6.915%)
 printout                       ...        0 min,  0.001 sec (  0.284%)

         :::::::::::::::::::::::::::::::::::::::::::::::::::::
         ::                     SUMMARY                     ::
         :::::::::::::::::::::::::::::::::::::::::::::::::::::
         :: total energy             -63.522507862734 Eh    ::
         :: gradient norm              0.546498033337 Eh/a0 ::
         :: HOMO-LUMO gap              0.063930234969 eV    ::
         ::.................................................::
         :: SCC energy               -64.229571577702 Eh    ::
         :: -> isotropic ES            0.069215792534 Eh    ::
         :: -> anisotropic ES          0.009374055880 Eh    ::
         :: -> anisotropic XC          0.028913222191 Eh    ::
         :: -> dispersion             -0.037489521529 Eh    ::
         :: repulsion energy           0.706415885779 Eh    ::
         :: add. restraining           0.000000000000 Eh    ::
         :: total charge              -0.000000000022 e     ::
         :::::::::::::::::::::::::::::::::::::::::::::::::::::

           -------------------------------------------------
          |                Property Printout                |
           -------------------------------------------------

    * Orbital Energies and Occupations

         #    Occupation            Energy/Eh            Energy/eV
      -------------------------------------------------------------
         1        2.0000           -0.8398668             -22.8539
       ...           ...                  ...                  ...
        44        2.0000           -0.5000690             -13.6076
        45        2.0000           -0.4940006             -13.4424
        46        2.0000           -0.4918253             -13.3832
        47        2.0000           -0.4895003             -13.3200
        48        2.0000           -0.4827934             -13.1375
        49        2.0000           -0.4782570             -13.0140
        50        2.0000           -0.4712126             -12.8223
        51        2.0000           -0.4681833             -12.7399
        52        2.0000           -0.4639685             -12.6252
        53        2.0000           -0.4615018             -12.5581
        54        1.9994           -0.4547297             -12.3738
        55        1.9815           -0.4514775             -12.2853
        56        1.5344           -0.4481705             -12.1953 (HOMO)
        57        0.4350           -0.4458211             -12.1314 (LUMO)
        58        0.0461           -0.4434772             -12.0676
        59        0.0036           -0.4410374             -12.0012
        60                         -0.4260951             -11.5946
        61                         -0.4221909             -11.4884
        62                         -0.4151849             -11.2978
        63                         -0.3927452             -10.6871
        64                         -0.3829198             -10.4198
        65                         -0.3513152              -9.5598
        66                         -0.3170106              -8.6263
        67                         -0.3114119              -8.4740
       ...                                ...                  ...
       100                          1.0200783              27.7577
      -------------------------------------------------------------
                  HL-Gap            0.0023494 Eh            0.0639 eV
             Fermi-level           -0.4470374 Eh          -12.1645 eV

     #   Z          covCN         q      C6AA      α(0)
     1   6 C        0.871     0.027    34.376     9.791
     2   8 O        1.704     0.004    14.430     5.129
     3   6 C        2.860     0.176    24.225     8.067
     4   6 C        1.985    -0.041    32.153     9.157
     5   6 C        1.994    -0.027    31.774     9.103
     6   6 C        2.931     0.099    25.809     8.331
     7   7 N        1.832    -0.165    25.373     7.464
     8   6 C        2.791     0.291    22.078     7.697
     9   8 O        0.861    -0.360    20.905     6.130
    10   6 C        2.945     0.052    26.841     8.497
    11   6 C        1.913     0.141    27.668     8.495
    12   7 N        0.911    -0.142    24.086     7.098
    13   6 C        1.991     0.020    30.522     8.922
    14   6 C        2.967     0.082    26.161     8.390
    15   6 C        1.992    -0.009    31.295     9.034
    16   6 C        1.986    -0.005    31.192     9.019
    17   6 C        2.845     0.225    23.276     7.907
    18   8 O        0.855    -0.271    19.262     5.884
    19   6 C        2.841     0.219    23.389     7.926
    20   8 O        0.854    -0.271    19.274     5.886
    21   6 C        1.992    -0.086    33.392     9.332
    22   6 C        2.856     0.138    24.995     8.194
    23   8 O        1.703    -0.027    14.837     5.201
    24   6 C        0.868     0.021    34.522     9.811
    25   6 C        1.988    -0.088    33.472     9.343

 Mol. C6AA /au·bohr⁶  :      16095.573073
 Mol. C8AA /au·bohr⁸  :     431810.124478
 Mol. α(0) /au        :        199.809716


Wiberg/Mayer (AO) data.
largest (>0.10) Wiberg bond orders for each atom

 ---------------------------------------------------------------------------
     #   Z sym  total        # sym  WBO       # sym  WBO       # sym  WBO
 ---------------------------------------------------------------------------
     1   6 C    1.960 --     2 O    1.594    25 C    0.107
     2   8 O    2.676 --     1 C    1.594     3 C    1.011
     3   6 C    3.872 --    25 C    1.333     4 C    1.286     2 O    1.011
     4   6 C    3.752 --     5 C    1.841     3 C    1.286    25 C    0.275
     5   6 C    3.854 --     4 C    1.841     6 C    1.340    24 C    0.282
                            25 C    0.140
     6   6 C    3.970 --     5 C    1.340     7 N    1.178    22 C    1.170
     7   7 N    3.252 --     8 C    1.528     6 C    1.178     9 O    0.183
                            13 C    0.101
     8   6 C    3.943 --     7 N    1.528     9 O    1.460    10 C    0.817
     9   8 O    2.051 --     8 C    1.460    13 C    0.222     7 N    0.183
    10   6 C    3.938 --    13 C    1.866    11 C    1.069     8 C    0.817
    11   6 C    3.944 --    12 N    2.804    10 C    1.069
    12   7 N    3.025 --    11 C    2.804    13 C    0.141
    13   6 C    3.801 --    10 C    1.866    14 C    1.182     9 O    0.222
                            12 N    0.141     7 N    0.101
    14   6 C    3.957 --    21 C    1.422    13 C    1.182    15 C    1.139
    15   6 C    3.691 --    16 C    1.758    14 C    1.139    21 C    0.317
                            18 O    0.194
    16   6 C    3.528 --    15 C    1.758    17 C    1.234    21 C    0.227
    17   6 C    3.942 --    18 O    1.591    16 C    1.234    19 C    0.973
    18   8 O    2.088 --    17 C    1.591    15 C    0.194    20 O    0.163
    19   6 C    3.928 --    20 O    1.579    21 C    1.243    17 C    0.973
    20   8 O    2.016 --    19 C    1.579    18 O    0.163
    21   6 C    3.469 --    14 C    1.422    19 C    1.243    15 C    0.317
                            16 C    0.227
    22   6 C    3.879 --    25 C    1.368     6 C    1.170    23 O    1.029
                            24 C    0.125
    23   8 O    2.668 --    24 C    1.550    22 C    1.029
    24   6 C    2.489 --    23 O    1.550    25 C    0.320     5 C    0.282
                            22 C    0.125
    25   6 C    3.638 --    22 C    1.368     3 C    1.333    24 C    0.320
                             4 C    0.275     5 C    0.140     1 C    0.107
 ---------------------------------------------------------------------------

Topologies differ in total number of bonds
Writing topology from bond orders to xtbtopo.mol

molecular dipole:
                 x           y           z       tot (Debye)
 q only:       -0.595      -1.135       1.570
   full:       -0.294      -0.820       0.965       3.304
molecular quadrupole (traceless):
                xx          xy          yy          xz          yz          zz
 q only:      -15.994     -13.909      15.423      -6.432      -3.466       0.572
  q+dip:      -24.622     -11.750      22.626      -7.090      -2.568       1.996
   full:      -30.747     -12.696      29.748      -6.317      -1.354       0.999


           -------------------------------------------------
          | TOTAL ENERGY              -63.522507862734 Eh   |
          | GRADIENT NORM               0.546498033337 Eh/α |
          | HOMO-LUMO GAP               0.063930234969 eV   |
           -------------------------------------------------

------------------------------------------------------------------------
 * finished run on 2026/07/23 at 16:39:04.255     
------------------------------------------------------------------------
 total:
 * wall-time:     0 d,  0 h,  0 min,  0.326 sec
 *  cpu-time:     0 d,  0 h,  0 min,  0.317 sec
 * ratio c/w:     0.974 speedup
 SCF:
Note: The following floating-point exceptions are signalling: IEEE_UNDERFLOW_FLAG IEEE_DENORMAL
normal termination of xtb
 * wall-time:     0 d,  0 h,  0 min,  0.302 sec
 *  cpu-time:     0 d,  0 h,  0 min,  0.299 sec
 * ratio c/w:     0.988 speedup

