      -----------------------------------------------------------      
     |                   =====================                   |     
     |                           x T B                           |     
     |                   =====================                   |     
     |                         S. Grimme                         |     
     |          Mulliken Center for Theoretical Chemistry        |     
     |                    University of Bonn                     |     
      -----------------------------------------------------------      

   * xtb version 6.6.1 (unknown) compiled by 'builduser@buildhost' on 2023-08-07

   xtb is free software: you can redistribute it and/or modify it under
   the terms of the GNU Lesser General Public License as published by
   the Free Software Foundation, either version 3 of the License, or
   (at your option) any later version.
   
   xtb is distributed in the hope that it will be useful,
   but WITHOUT ANY WARRANTY; without even the implied warranty of
   MERCHANTABILITY or FITNESS FOR A PARTICULAR PURPOSE.  See the
   GNU Lesser General Public License for more details.
   
   Cite this work as:
   * C. Bannwarth, E. Caldeweyher, S. Ehlert, A. Hansen, P. Pracht,
     J. Seibert, S. Spicher, S. Grimme, WIREs Comput. Mol. Sci., 2020, 11,
     e01493. DOI: 10.1002/wcms.1493
   
   for GFN2-xTB:
   * C. Bannwarth, S. Ehlert and S. Grimme., J. Chem. Theory Comput., 2019,
     15, 1652-1671. DOI: 10.1021/acs.jctc.8b01176
   for GFN1-xTB:
   * S. Grimme, C. Bannwarth, P. Shushkov, J. Chem. Theory Comput., 2017,
     13, 1989-2009. DOI: 10.1021/acs.jctc.7b00118
   for GFN0-xTB:
   * P. Pracht, E. Caldeweyher, S. Ehlert, S. Grimme, ChemRxiv, 2019, preprint.
     DOI: 10.26434/chemrxiv.8326202.v1
   for GFN-FF:
   * S. Spicher and S. Grimme, Angew. Chem. Int. Ed., 2020, 59, 15665-15673.
     DOI: 10.1002/anie.202004239
   
   for ALPB and GBSA implicit solvation:
   * S. Ehlert, M. Stahn, S. Spicher, S. Grimme, J. Chem. Theory Comput.,
     2021, 17, 4250-4261. DOI: 10.1021/acs.jctc.1c00471
   
   for DFT-D4:
   * E. Caldeweyher, C. Bannwarth and S. Grimme, J. Chem. Phys., 2017,
     147, 034112. DOI: 10.1063/1.4993215
   * E. Caldeweyher, S. Ehlert, A. Hansen, H. Neugebauer, S. Spicher,
     C. Bannwarth and S. Grimme, J. Chem. Phys., 2019, 150, 154122.
     DOI: 10.1063/1.5090222
   * E. Caldeweyher, J.-M. Mewes, S. Ehlert and S. Grimme, Phys. Chem. Chem. Phys.
     2020, 22, 8499-8512. DOI: 10.1039/D0CP00502A
   
   for sTDA-xTB:
   * S. Grimme and C. Bannwarth, J. Chem. Phys., 2016, 145, 054103.
     DOI: 10.1063/1.4959605
   
   in the mass-spec context:
   * V. Asgeirsson, C. Bauer and S. Grimme, Chem. Sci., 2017, 8, 4879.
     DOI: 10.1039/c7sc00601b
   * J. Koopman and S. Grimme, ACS Omega 2019, 4, 12, 15120-15133.
     DOI: 10.1021/acsomega.9b02011
   
   for metadynamics refer to:
   * S. Grimme, J. Chem. Theory Comput., 2019, 155, 2847-2862
     DOI: 10.1021/acs.jctc.9b00143
   
   for SPH calculations refer to:
   * S. Spicher and S. Grimme, J. Chem. Theory Comput., 2021, 17, 1701-1714
     DOI: 10.1021/acs.jctc.0c01306
   
   with help from (in alphabetical order)
   P. Atkinson, C. Bannwarth, F. Bohle, G. Brandenburg, E. Caldeweyher
   M. Checinski, S. Dohm, S. Ehlert, S. Ehrlich, I. Gerasimov, C. Hölzer
   A. Katbashev, J. Koopman, C. Lavigne, S. Lehtola, F. März, M. Müller,
   F. Musil, H. Neugebauer, J. Pisarek, C. Plett, P. Pracht, F. Pultar,
   J. Seibert, P. Shushkov, S. Spicher, M. Stahn, M. Steiner, T. Strunk,
   J. Stückrath, T. Rose, and J. Unsleber
   
 * started run on 2026/07/23 at 16:38:32.799     

           -------------------------------------------------
          |                Calculation Setup                |
           -------------------------------------------------

          program call               : xtb /home/selva/covalent_quantum_benchmark/data/quantum/erbB_xyz/EGFR__CHEMBL343875__state01.xyz --gfn2 --chrg 0 --uhf 0 --iterations 300
          coordinate file            : /home/selva/covalent_quantum_benchmark/data/quantum/erbB_xyz/EGFR__CHEMBL343875__state01.xyz
          omp threads                :                    24

   ID    Z sym.   atoms
    1    6 C      1, 2, 4-7, 9, 11-17, 19, 22, 23, 25, 26, 29, 30
    2    8 O      3, 21, 24, 27
    3   16 S      8, 10
    4    7 N      18, 20, 28

           -------------------------------------------------
          |                 G F N 2 - x T B                 |
           -------------------------------------------------

        Reference                      10.1021/acs.jctc.8b01176
      * Hamiltonian:
        H0-scaling (s, p, d)           1.850000    2.230000    2.230000
        zeta-weighting                 0.500000
      * Dispersion:
        s8                             2.700000
        a1                             0.520000
        a2                             5.000000
        s9                             5.000000
      * Repulsion:
        kExp                           1.500000    1.000000
        rExp                           1.000000
      * Coulomb:
        alpha                          2.000000
        third order                    shell-resolved
        anisotropic                    true
        a3                             3.000000
        a5                             4.000000
        cn-shift                       1.200000
        cn-exp                         4.000000
        max-rad                        5.000000


          ...................................................
          :                      SETUP                      :
          :.................................................:
          :  # basis functions                 132          :
          :  # atomic orbitals                 130          :
          :  # shells                           62          :
          :  # electrons                       135          :
          :  max. iterations                   300          :
          :  Hamiltonian                  GFN2-xTB          :
          :  restarted?                      false          :
          :  GBSA solvation                  false          :
          :  PC potential                    false          :
          :  electronic temp.          300.0000000     K    :
          :  accuracy                    1.0000000          :
          :  -> integral cutoff          0.2500000E+02      :
          :  -> integral neglect         0.1000000E-07      :
          :  -> SCF convergence          0.1000000E-05 Eh   :
          :  -> wf. convergence          0.1000000E-03 e    :
          :  Broyden damping             0.4000000          :
          ...................................................

 iter      E             dE          RMSdq      gap      omega  full diag
   1    -74.8627912 -0.748628E+02  0.917E+00    0.68       0.0  T
   2    -53.7927187  0.210701E+02  0.139E+01    0.10       1.0  T
   3    -50.8659785  0.292674E+01  0.142E+01    0.09       1.0  T
   4    -70.3079926 -0.194420E+02  0.883E+00    0.02       1.0  T
   5    -71.4312025 -0.112321E+01  0.779E+00    0.32       1.0  T
   6    -73.0280664 -0.159686E+01  0.728E+00    0.03       1.0  T
   7    -73.6186201 -0.590554E+00  0.596E+00    0.08       1.0  T
   8    -74.3736600 -0.755040E+00  0.459E+00    0.03       1.0  T
   9    -75.4391387 -0.106548E+01  0.418E+00    0.02       1.0  T
  10    -75.7813332 -0.342194E+00  0.272E+00    0.02       1.0  T
  11    -75.4564518  0.324881E+00  0.302E+00    0.03       1.0  T
  12    -75.0491368  0.407315E+00  0.390E+00    0.03       1.0  T
  13    -75.2714621 -0.222325E+00  0.324E+00    0.01       1.0  T
  14    -75.6175655 -0.346103E+00  0.254E+00    0.04       1.0  T
  15    -75.2399956  0.377570E+00  0.321E+00    0.02       1.0  T
  16    -75.8704484 -0.630453E+00  0.145E+00    0.02       1.0  T
  17    -75.8482688  0.221796E-01  0.155E+00    0.02       1.0  T
  18    -75.4227777  0.425491E+00  0.284E+00    0.02       1.0  T
  19    -75.5197190 -0.969413E-01  0.287E+00    0.05       1.0  T
  20    -75.4956570  0.240620E-01  0.294E+00    0.04       1.0  T
  21    -75.8167713 -0.321114E+00  0.144E+00    0.05       1.0  T
  22    -75.8209742 -0.420293E-02  0.133E+00    0.06       1.0  T
  23    -75.8354030 -0.144287E-01  0.123E+00    0.04       1.0  T
  24    -75.8577826 -0.223796E-01  0.111E+00    0.02       1.0  T
  25    -75.8610368 -0.325424E-02  0.105E+00    0.03       1.0  T
  26    -75.9043993 -0.433625E-01  0.454E-01    0.02       1.0  T
  27    -75.8991962  0.520312E-02  0.516E-01    0.01       1.0  T
  28    -75.8664262  0.327700E-01  0.876E-01    0.01       1.0  T
  29    -75.8770553 -0.106291E-01  0.837E-01    0.01       1.0  T
  30    -75.8850879 -0.803268E-02  0.685E-01    0.00       1.0  T
  31    -75.9001107 -0.150228E-01  0.453E-01    0.01       1.0  T
  32    -75.9025420 -0.243133E-02  0.387E-01    0.01       1.0  T
  33    -75.9063695 -0.382746E-02  0.315E-01    0.01       1.0  T
  34    -75.9099187 -0.354915E-02  0.213E-01    0.01       1.0  T
  35    -75.9109435 -0.102486E-02  0.191E-01    0.02       1.0  T
  36    -75.9125529 -0.160943E-02  0.107E-01    0.02       1.0  T
  37    -75.9129784 -0.425441E-03  0.814E-02    0.02       1.0  T
  38    -75.9132705 -0.292146E-03  0.218E-02    0.02       1.0  T
  39    -75.9130393  0.231259E-03  0.705E-02    0.02       1.0  T
  40    -75.9132478 -0.208531E-03  0.267E-02    0.02       1.0  T
  41    -75.9132734 -0.255850E-04  0.167E-02    0.02       1.1  T
  42    -75.9132841 -0.106811E-04  0.117E-02    0.02       1.6  T
  43    -75.9132861 -0.202535E-05  0.975E-03    0.02       1.9  T
  44    -75.9132906 -0.449150E-05  0.508E-03    0.02       3.6  T
  45    -75.9132918 -0.121475E-05  0.289E-03    0.02       6.3  T
  46    -75.9132923 -0.489117E-06  0.780E-04    0.02      23.4  T
  47    -75.9132923 -0.252706E-07  0.510E-04    0.02      35.8  T

   *** convergence criteria satisfied after 47 iterations ***

         #    Occupation            Energy/Eh            Energy/eV
      -------------------------------------------------------------
         1        2.0000           -0.8173137             -22.2402
       ...           ...                  ...                  ...
        62        2.0000           -0.4439925             -12.0817
        63        2.0000           -0.4372210             -11.8974
        64        2.0000           -0.4363511             -11.8737
        65        1.9979           -0.4318682             -11.7517
        66        1.9897           -0.4303355             -11.7100
        67        1.1480           -0.4254825             -11.5780
        68        0.8912           -0.4249456             -11.5634 (HOMO)
        69        0.5911           -0.4242751             -11.5451 (LUMO)
        70        0.3821           -0.4236944             -11.5293
        71        0.0000           -0.4095680             -11.1449
        72                         -0.4070629             -11.0767
        73                         -0.3978965             -10.8273
       ...                                ...                  ...
       130                          1.0323914              28.0928
      -------------------------------------------------------------
                  HL-Gap            0.0006705 Eh            0.0182 eV
             Fermi-level           -0.4251726 Eh          -11.5695 eV

 SCC (total)                   0 d,  0 h,  0 min,  0.487 sec
 SCC setup                      ...        0 min,  0.000 sec (  0.059%)
 Dispersion                     ...        0 min,  0.001 sec (  0.220%)
 classical contributions        ...        0 min,  0.001 sec (  0.109%)
 integral evaluation            ...        0 min,  0.007 sec (  1.397%)
 iterations                     ...        0 min,  0.452 sec ( 92.786%)
 molecular gradient             ...        0 min,  0.018 sec (  3.668%)
 printout                       ...        0 min,  0.008 sec (  1.742%)

         :::::::::::::::::::::::::::::::::::::::::::::::::::::
         ::                     SUMMARY                     ::
         :::::::::::::::::::::::::::::::::::::::::::::::::::::
         :: total energy             -75.109701477256 Eh    ::
         :: gradient norm              0.461106313112 Eh/a0 ::
         :: HOMO-LUMO gap              0.018244232986 eV    ::
         ::.................................................::
         :: SCC energy               -75.913292314119 Eh    ::
         :: -> isotropic ES            0.049050691246 Eh    ::
         :: -> anisotropic ES          0.007003930238 Eh    ::
         :: -> anisotropic XC          0.048520060667 Eh    ::
         :: -> dispersion             -0.046549098754 Eh    ::
         :: repulsion energy           0.802867389354 Eh    ::
         :: add. restraining           0.000000000000 Eh    ::
         :: total charge              -0.000000000000 e     ::
         :::::::::::::::::::::::::::::::::::::::::::::::::::::

           -------------------------------------------------
          |                Property Printout                |
           -------------------------------------------------

    * Orbital Energies and Occupations

         #    Occupation            Energy/Eh            Energy/eV
      -------------------------------------------------------------
         1        2.0000           -0.8173137             -22.2402
       ...           ...                  ...                  ...
        56        2.0000           -0.4698814             -12.7861
        57        2.0000           -0.4689392             -12.7605
        58        2.0000           -0.4679670             -12.7340
        59        2.0000           -0.4603987             -12.5281
        60        2.0000           -0.4524766             -12.3125
        61        2.0000           -0.4482635             -12.1979
        62        2.0000           -0.4439925             -12.0817
        63        2.0000           -0.4372210             -11.8974
        64        2.0000           -0.4363511             -11.8737
        65        1.9979           -0.4318682             -11.7517
        66        1.9897           -0.4303355             -11.7100
        67        1.1480           -0.4254825             -11.5780
        68        0.8912           -0.4249456             -11.5634 (HOMO)
        69        0.5911           -0.4242751             -11.5451 (LUMO)
        70        0.3821           -0.4236944             -11.5293
        71        0.0000           -0.4095680             -11.1449
        72                         -0.4070629             -11.0767
        73                         -0.3978965             -10.8273
        74                         -0.3906665             -10.6306
        75                         -0.3754370             -10.2162
        76                         -0.3725878             -10.1386
        77                         -0.3619027              -9.8479
        78                         -0.3384627              -9.2100
        79                         -0.3140077              -8.5446
       ...                                ...                  ...
       130                          1.0323914              28.0928
      -------------------------------------------------------------
                  HL-Gap            0.0006705 Eh            0.0182 eV
             Fermi-level           -0.4251726 Eh          -11.5695 eV

     #   Z          covCN         q      C6AA      α(0)
     1   6 C        0.976    -0.079    38.379    10.403
     2   6 C        1.844     0.113    28.358     8.603
     3   8 O        1.704    -0.104    15.896     5.383
     4   6 C        2.854     0.182    24.103     8.047
     5   6 C        1.993    -0.049    32.367     9.188
     6   6 C        1.997    -0.028    31.783     9.104
     7   6 C        2.989     0.034    27.232     8.560
     8  16 S        2.371     0.073   138.102    19.779
     9   6 C        3.006     0.132    25.095     8.217
    10  16 S        2.126     0.085   137.623    19.745
    11   6 C        1.951    -0.049    32.408     9.193
    12   6 C        2.982     0.031    27.305     8.571
    13   6 C        1.991    -0.041    32.140     9.155
    14   6 C        2.958     0.080    26.204     8.396
    15   6 C        1.996     0.029    30.289     8.888
    16   6 C        2.946     0.059    26.683     8.472
    17   6 C        1.912     0.131    27.908     8.532
    18   7 N        0.911    -0.150    24.257     7.123
    19   6 C        2.761     0.272    22.396     7.750
    20   7 N        0.916    -0.164    24.530     7.160
    21   8 O        0.855    -0.369    21.071     6.154
    22   6 C        1.977    -0.051    32.425     9.196
    23   6 C        2.833     0.135    25.046     8.201
    24   8 O        1.702    -0.022    14.764     5.188
    25   6 C        0.864     0.004    35.005     9.877
    26   6 C        2.825     0.241    22.981     7.855
    27   8 O        0.857    -0.280    19.425     5.909
    28   7 N        1.977    -0.221    26.629     7.653
    29   6 C        3.223     0.091    25.274     8.171
    30   6 C        1.988    -0.084    33.353     9.327

 Mol. C6AA /au·bohr⁶  :      28079.639399
 Mol. C8AA /au·bohr⁸  :     835840.213480
 Mol. α(0) /au        :        267.800696


Wiberg/Mayer (AO) data.
largest (>0.10) Wiberg bond orders for each atom

 ---------------------------------------------------------------------------
     #   Z sym  total        # sym  WBO       # sym  WBO       # sym  WBO
 ---------------------------------------------------------------------------
     1   6 C    2.100 --     2 C    1.923
     2   6 C    3.332 --     1 C    1.923     3 O    1.158
     3   8 O    2.382 --     2 C    1.158     4 C    1.064
     4   6 C    3.867 --    30 C    1.351     5 C    1.256     3 O    1.064
     5   6 C    3.681 --     6 C    1.715     4 C    1.256    30 C    0.371
     6   6 C    3.465 --     5 C    1.715     7 C    1.355    30 C    0.175
     7   6 C    3.889 --     6 C    1.355    29 C    1.199     8 S    1.120
     8  16 S    2.646 --     9 C    1.148     7 C    1.120    28 N    0.161
     9   6 C    3.936 --    28 N    1.586     8 S    1.148    10 S    1.014
    10  16 S    2.592 --    11 C    1.364     9 C    1.014
    11   6 C    2.849 --    10 S    1.364    12 C    1.111    13 C    0.104
    12   6 C    3.954 --    13 C    1.697    11 C    1.111    26 C    0.947
    13   6 C    3.708 --    12 C    1.697    14 C    1.102    22 C    0.398
                            27 O    0.150    11 C    0.104
    14   6 C    3.968 --    15 C    1.586    22 C    1.119    13 C    1.102
    15   6 C    3.794 --    14 C    1.586    16 C    1.557    20 N    0.228
                            18 N    0.126
    16   6 C    3.953 --    15 C    1.557    19 C    1.131    17 C    1.080
    17   6 C    3.940 --    18 N    2.797    16 C    1.080
    18   7 N    3.025 --    17 C    2.797    15 C    0.126
    19   6 C    3.944 --    20 N    1.519    21 O    1.230    16 C    1.131
    20   7 N    2.408 --    19 C    1.519    21 O    0.580    15 C    0.228
    21   8 O    1.917 --    19 C    1.230    20 N    0.580
    22   6 C    3.662 --    23 C    1.627    14 C    1.119    13 C    0.398
                            25 C    0.130    27 O    0.109
    23   6 C    3.858 --    22 C    1.627    24 O    1.017    26 C    0.959
    24   8 O    2.636 --    25 C    1.561    23 C    1.017
    25   6 C    1.907 --    24 O    1.561    22 C    0.130
    26   6 C    3.919 --    27 O    1.782    23 C    0.959    12 C    0.947
    27   8 O    2.203 --    26 C    1.782    13 C    0.150    22 C    0.109
    28   7 N    3.121 --     9 C    1.586    29 C    1.189     8 S    0.161
    29   6 C    3.944 --    30 C    1.353     7 C    1.199    28 N    1.189
    30   6 C    3.512 --    29 C    1.353     4 C    1.351     5 C    0.371
                             6 C    0.175
 ---------------------------------------------------------------------------

Topologies differ in total number of bonds
Writing topology from bond orders to xtbtopo.mol

molecular dipole:
                 x           y           z       tot (Debye)
 q only:        0.739      -2.397      -0.152
   full:        0.897      -3.297      -0.952       9.014
molecular quadrupole (traceless):
                xx          xy          yy          xz          yz          zz
 q only:       -8.943       9.110       6.247       5.522       5.589       2.696
  q+dip:       -5.792      17.699       0.479       5.183       2.615       5.312
   full:       -5.388      20.279      -2.772       8.735       0.164       8.160


           -------------------------------------------------
Note: The following floating-point exceptions are signalling: IEEE_UNDERFLOW_FLAG IEEE_DENORMAL
normal termination of xtb
          | TOTAL ENERGY              -75.109701477256 Eh   |
          | GRADIENT NORM               0.461106313112 Eh/α |
          | HOMO-LUMO GAP               0.018244232986 eV   |
           -------------------------------------------------

------------------------------------------------------------------------
 * finished run on 2026/07/23 at 16:38:33.300     
------------------------------------------------------------------------
 total:
 * wall-time:     0 d,  0 h,  0 min,  0.501 sec
 *  cpu-time:     0 d,  0 h,  0 min,  0.471 sec
 * ratio c/w:     0.941 speedup
 SCF:
 * wall-time:     0 d,  0 h,  0 min,  0.488 sec
 *  cpu-time:     0 d,  0 h,  0 min,  0.454 sec
 * ratio c/w:     0.931 speedup

