      -----------------------------------------------------------      
     |                   =====================                   |     
     |                           x T B                           |     
     |                   =====================                   |     
     |                         S. Grimme                         |     
     |          Mulliken Center for Theoretical Chemistry        |     
     |                    University of Bonn                     |     
      -----------------------------------------------------------      

   * xtb version 6.6.1 (unknown) compiled by 'builduser@buildhost' on 2023-08-07

   xtb is free software: you can redistribute it and/or modify it under
   the terms of the GNU Lesser General Public License as published by
   the Free Software Foundation, either version 3 of the License, or
   (at your option) any later version.
   
   xtb is distributed in the hope that it will be useful,
   but WITHOUT ANY WARRANTY; without even the implied warranty of
   MERCHANTABILITY or FITNESS FOR A PARTICULAR PURPOSE.  See the
   GNU Lesser General Public License for more details.
   
   Cite this work as:
   * C. Bannwarth, E. Caldeweyher, S. Ehlert, A. Hansen, P. Pracht,
     J. Seibert, S. Spicher, S. Grimme, WIREs Comput. Mol. Sci., 2020, 11,
     e01493. DOI: 10.1002/wcms.1493
   
   for GFN2-xTB:
   * C. Bannwarth, S. Ehlert and S. Grimme., J. Chem. Theory Comput., 2019,
     15, 1652-1671. DOI: 10.1021/acs.jctc.8b01176
   for GFN1-xTB:
   * S. Grimme, C. Bannwarth, P. Shushkov, J. Chem. Theory Comput., 2017,
     13, 1989-2009. DOI: 10.1021/acs.jctc.7b00118
   for GFN0-xTB:
   * P. Pracht, E. Caldeweyher, S. Ehlert, S. Grimme, ChemRxiv, 2019, preprint.
     DOI: 10.26434/chemrxiv.8326202.v1
   for GFN-FF:
   * S. Spicher and S. Grimme, Angew. Chem. Int. Ed., 2020, 59, 15665-15673.
     DOI: 10.1002/anie.202004239
   
   for ALPB and GBSA implicit solvation:
   * S. Ehlert, M. Stahn, S. Spicher, S. Grimme, J. Chem. Theory Comput.,
     2021, 17, 4250-4261. DOI: 10.1021/acs.jctc.1c00471
   
   for DFT-D4:
   * E. Caldeweyher, C. Bannwarth and S. Grimme, J. Chem. Phys., 2017,
     147, 034112. DOI: 10.1063/1.4993215
   * E. Caldeweyher, S. Ehlert, A. Hansen, H. Neugebauer, S. Spicher,
     C. Bannwarth and S. Grimme, J. Chem. Phys., 2019, 150, 154122.
     DOI: 10.1063/1.5090222
   * E. Caldeweyher, J.-M. Mewes, S. Ehlert and S. Grimme, Phys. Chem. Chem. Phys.
     2020, 22, 8499-8512. DOI: 10.1039/D0CP00502A
   
   for sTDA-xTB:
   * S. Grimme and C. Bannwarth, J. Chem. Phys., 2016, 145, 054103.
     DOI: 10.1063/1.4959605
   
   in the mass-spec context:
   * V. Asgeirsson, C. Bauer and S. Grimme, Chem. Sci., 2017, 8, 4879.
     DOI: 10.1039/c7sc00601b
   * J. Koopman and S. Grimme, ACS Omega 2019, 4, 12, 15120-15133.
     DOI: 10.1021/acsomega.9b02011
   
   for metadynamics refer to:
   * S. Grimme, J. Chem. Theory Comput., 2019, 155, 2847-2862
     DOI: 10.1021/acs.jctc.9b00143
   
   for SPH calculations refer to:
   * S. Spicher and S. Grimme, J. Chem. Theory Comput., 2021, 17, 1701-1714
     DOI: 10.1021/acs.jctc.0c01306
   
   with help from (in alphabetical order)
   P. Atkinson, C. Bannwarth, F. Bohle, G. Brandenburg, E. Caldeweyher
   M. Checinski, S. Dohm, S. Ehlert, S. Ehrlich, I. Gerasimov, C. Hölzer
   A. Katbashev, J. Koopman, C. Lavigne, S. Lehtola, F. März, M. Müller,
   F. Musil, H. Neugebauer, J. Pisarek, C. Plett, P. Pracht, F. Pultar,
   J. Seibert, P. Shushkov, S. Spicher, M. Stahn, M. Steiner, T. Strunk,
   J. Stückrath, T. Rose, and J. Unsleber
   
 * started run on 2026/07/23 at 16:40:38.911     

           -------------------------------------------------
          |                Calculation Setup                |
           -------------------------------------------------

          program call               : xtb /home/selva/covalent_quantum_benchmark/data/quantum/erbB_xyz/ERBB2__CHEMBL178654__state00.xyz --gfn2 --chrg 0 --uhf 0 --iterations 300
          coordinate file            : /home/selva/covalent_quantum_benchmark/data/quantum/erbB_xyz/ERBB2__CHEMBL178654__state00.xyz
          omp threads                :                    24

   ID    Z sym.   atoms
    1    6 C      1, 2, 4-6, 8-10, 12, 14-17, 19-24, 26, 27, 29-32, 34,
                  36-38, 40, 41
    2    8 O      3, 18, 35
    3    7 N      7, 11, 13, 33, 39
    4    9 F      25
    5   17 Cl     28

           -------------------------------------------------
          |                 G F N 2 - x T B                 |
           -------------------------------------------------

        Reference                      10.1021/acs.jctc.8b01176
      * Hamiltonian:
        H0-scaling (s, p, d)           1.850000    2.230000    2.230000
        zeta-weighting                 0.500000
      * Dispersion:
        s8                             2.700000
        a1                             0.520000
        a2                             5.000000
        s9                             5.000000
      * Repulsion:
        kExp                           1.500000    1.000000
        rExp                           1.000000
      * Coulomb:
        alpha                          2.000000
        third order                    shell-resolved
        anisotropic                    true
        a3                             3.000000
        a5                             4.000000
        cn-shift                       1.200000
        cn-exp                         4.000000
        max-rad                        5.000000


          ...................................................
          :                      SETUP                      :
          :.................................................:
          :  # basis functions                 170          :
          :  # atomic orbitals                 169          :
          :  # shells                           83          :
          :  # electrons                       181          :
          :  max. iterations                   300          :
          :  Hamiltonian                  GFN2-xTB          :
          :  restarted?                      false          :
          :  GBSA solvation                  false          :
          :  PC potential                    false          :
          :  electronic temp.          300.0000000     K    :
          :  accuracy                    1.0000000          :
          :  -> integral cutoff          0.2500000E+02      :
          :  -> integral neglect         0.1000000E-07      :
          :  -> SCF convergence          0.1000000E-05 Eh   :
          :  -> wf. convergence          0.1000000E-03 e    :
          :  Broyden damping             0.4000000          :
          ...................................................

 iter      E             dE          RMSdq      gap      omega  full diag
   1   -100.6100387 -0.100610E+03  0.874E+00    0.31       0.0  T
   2    -85.4053214  0.152047E+02  0.111E+01    0.06       1.0  T
   3    -67.5965358  0.178088E+02  0.118E+01    0.08       1.0  T
   4    -70.5476541 -0.295112E+01  0.121E+01    0.19       1.0  T
   5    -86.4009702 -0.158533E+02  0.978E+00    0.05       1.0  T
   6    -92.5126687 -0.611170E+01  0.722E+00    0.17       1.0  T
   7    -99.8812259 -0.736856E+01  0.469E+00    0.06       1.0  T
   8    -99.1297224  0.751503E+00  0.539E+00    0.09       1.0  T
   9    -99.1640542 -0.343318E-01  0.537E+00    0.24       1.0  T
  10   -100.9047984 -0.174074E+01  0.337E+00    0.21       1.0  T
  11    -99.9577093  0.947089E+00  0.382E+00    0.06       1.0  T
  12   -100.9218814 -0.964172E+00  0.311E+00    0.20       1.0  T
  13   -101.2046257 -0.282744E+00  0.245E+00    0.28       1.0  T
  14   -101.1334767  0.711490E-01  0.248E+00    0.23       1.0  T
  15   -101.2983110 -0.164834E+00  0.209E+00    0.04       1.0  T
  16   -101.4271110 -0.128800E+00  0.170E+00    0.05       1.0  T
  17   -101.3396037  0.875072E-01  0.185E+00    0.05       1.0  T
  18   -101.3873029 -0.476992E-01  0.179E+00    0.06       1.0  T
  19   -101.3114069  0.758960E-01  0.168E+00    0.07       1.0  T
  20   -101.5376268 -0.226220E+00  0.121E+00    0.04       1.0  T
  21   -101.5146634  0.229634E-01  0.118E+00    0.05       1.0  T
  22   -101.4716028  0.430606E-01  0.133E+00    0.05       1.0  T
  23   -101.5944962 -0.122893E+00  0.744E-01    0.09       1.0  T
  24   -101.5902581  0.423817E-02  0.646E-01    0.13       1.0  T
  25   -101.6153451 -0.250870E-01  0.494E-01    0.09       1.0  T
  26   -101.6048611  0.104840E-01  0.575E-01    0.08       1.0  T
  27   -101.6171001 -0.122391E-01  0.383E-01    0.12       1.0  T
  28   -101.5976752  0.194249E-01  0.532E-01    0.14       1.0  T
  29   -101.6028916 -0.521644E-02  0.476E-01    0.14       1.0  T
  30   -101.6226959 -0.198043E-01  0.245E-01    0.13       1.0  T
  31   -101.6237257 -0.102976E-02  0.212E-01    0.12       1.0  T
  32   -101.6247232 -0.997492E-03  0.178E-01    0.12       1.0  T
  33   -101.6251327 -0.409551E-03  0.156E-01    0.12       1.0  T
  34   -101.6265243 -0.139152E-02  0.108E-01    0.11       1.0  T
  35   -101.6266437 -0.119387E-03  0.829E-02    0.11       1.0  T
  36   -101.6268845 -0.240841E-03  0.531E-02    0.11       1.0  T
  37   -101.6270422 -0.157728E-03  0.415E-02    0.11       1.0  T
  38   -101.6269356  0.106612E-03  0.468E-02    0.11       1.0  T
  39   -101.6270591 -0.123502E-03  0.275E-02    0.11       1.0  T
  40   -101.6270774 -0.182619E-04  0.233E-02    0.11       1.0  T
  41   -101.6270980 -0.206221E-04  0.174E-02    0.11       1.0  T
  42   -101.6271000 -0.205460E-05  0.135E-02    0.11       1.2  T
  43   -101.6270943  0.574976E-05  0.144E-02    0.11       1.1  T
  44   -101.6271022 -0.787378E-05  0.100E-02    0.11       1.6  T
  45   -101.6271037 -0.152371E-05  0.803E-03    0.11       1.9  T
  46   -101.6271074 -0.373272E-05  0.432E-03    0.11       3.6  T
  47   -101.6271087 -0.124277E-05  0.139E-03    0.11      11.3  T
  48   -101.6271087 -0.509787E-08  0.147E-03    0.11      10.6  T
  49   -101.6271086  0.391363E-07  0.145E-03    0.11      10.8  T
  50   -101.6271088 -0.114092E-06  0.803E-04    0.11      19.5  T
  51   -101.6271088 -0.469932E-08  0.617E-04    0.11      25.3  T

   *** convergence criteria satisfied after 51 iterations ***

         #    Occupation            Energy/Eh            Energy/eV
      -------------------------------------------------------------
         1        2.0000           -1.0856016             -29.5407
       ...           ...                  ...                  ...
        85        1.9998           -0.4297843             -11.6950
        86        1.9980           -0.4273533             -11.6289
        87        1.9936           -0.4262589             -11.5991
        88        1.9632           -0.4245781             -11.5534
        89        1.9204           -0.4238082             -11.5324
        90        1.6022           -0.4219668             -11.4823
        91        1.3632           -0.4212221             -11.4620 (HOMO)
        92        0.1577           -0.4173462             -11.3566 (LUMO)
        93        0.0020           -0.4130717             -11.2403
        94        0.0000           -0.4058008             -11.0424
        95                         -0.4027600             -10.9597
        96                         -0.3949149             -10.7462
       ...                                ...                  ...
       169                          1.0416673              28.3452
      -------------------------------------------------------------
                  HL-Gap            0.0038759 Eh            0.1055 eV
             Fermi-level           -0.4202179 Eh          -11.4347 eV

 SCC (total)                   0 d,  0 h,  0 min,  1.151 sec
 SCC setup                      ...        0 min,  0.000 sec (  0.038%)
 Dispersion                     ...        0 min,  0.002 sec (  0.143%)
 classical contributions        ...        0 min,  0.001 sec (  0.067%)
 integral evaluation            ...        0 min,  0.006 sec (  0.519%)
 iterations                     ...        0 min,  1.077 sec ( 93.615%)
 molecular gradient             ...        0 min,  0.052 sec (  4.477%)
 printout                       ...        0 min,  0.013 sec (  1.136%)

         :::::::::::::::::::::::::::::::::::::::::::::::::::::
         ::                     SUMMARY                     ::
         :::::::::::::::::::::::::::::::::::::::::::::::::::::
         :: total energy            -100.509955404040 Eh    ::
         :: gradient norm              0.539927698375 Eh/a0 ::
         :: HOMO-LUMO gap              0.105467840657 eV    ::
         ::.................................................::
         :: SCC energy              -101.627108756533 Eh    ::
         :: -> isotropic ES            0.023003878292 Eh    ::
         :: -> anisotropic ES          0.008530173995 Eh    ::
         :: -> anisotropic XC          0.055584918378 Eh    ::
         :: -> dispersion             -0.058561983513 Eh    ::
         :: repulsion energy           1.116783893730 Eh    ::
         :: add. restraining           0.000000000000 Eh    ::
         :: total charge               0.000000000000 e     ::
         :::::::::::::::::::::::::::::::::::::::::::::::::::::

           -------------------------------------------------
          |                Property Printout                |
           -------------------------------------------------

    * Orbital Energies and Occupations

         #    Occupation            Energy/Eh            Energy/eV
      -------------------------------------------------------------
         1        2.0000           -1.0856016             -29.5407
       ...           ...                  ...                  ...
        79        2.0000           -0.4524546             -12.3119
        80        2.0000           -0.4518905             -12.2966
        81        2.0000           -0.4475143             -12.1775
        82        2.0000           -0.4363643             -11.8741
        83        2.0000           -0.4333783             -11.7928
        84        2.0000           -0.4309245             -11.7261
        85        1.9998           -0.4297843             -11.6950
        86        1.9980           -0.4273533             -11.6289
        87        1.9936           -0.4262589             -11.5991
        88        1.9632           -0.4245781             -11.5534
        89        1.9204           -0.4238082             -11.5324
        90        1.6022           -0.4219668             -11.4823
        91        1.3632           -0.4212221             -11.4620 (HOMO)
        92        0.1577           -0.4173462             -11.3566 (LUMO)
        93        0.0020           -0.4130717             -11.2403
        94        0.0000           -0.4058008             -11.0424
        95                         -0.4027600             -10.9597
        96                         -0.3949149             -10.7462
        97                         -0.3933806             -10.7044
        98                         -0.3896205             -10.6021
        99                         -0.3855870             -10.4924
       100                         -0.3712244             -10.1015
       101                         -0.3673755              -9.9968
       102                         -0.3607366              -9.8161
       ...                                ...                  ...
       169                          1.0416673              28.3452
      -------------------------------------------------------------
                  HL-Gap            0.0038759 Eh            0.1055 eV
             Fermi-level           -0.4202179 Eh          -11.4347 eV

     #   Z          covCN         q      C6AA      α(0)
     1   6 C        0.976    -0.095    38.903    10.474
     2   6 C        1.837     0.100    28.665     8.649
     3   8 O        1.703    -0.096    15.779     5.363
     4   6 C        2.856     0.164    24.457     8.106
     5   6 C        2.002    -0.087    33.422     9.336
     6   6 C        2.951     0.122    25.326     8.254
     7   7 N        1.845    -0.112    24.221     7.294
     8   6 C        1.970     0.063    29.470     8.767
     9   6 C        2.958     0.035    27.207     8.555
    10   6 C        1.907     0.123    28.081     8.558
    11   7 N        0.911    -0.177    24.834     7.208
    12   6 C        2.911     0.132    25.111     8.217
    13   7 N        1.828    -0.140    24.811     7.381
    14   6 C        2.892     0.136    25.026     8.202
    15   6 C        1.990    -0.068    32.896     9.262
    16   6 C        1.986    -0.046    32.275     9.175
    17   6 C        2.913     0.170    24.354     8.092
    18   8 O        1.702    -0.172    16.894     5.549
    19   6 C        1.874     0.039    30.136     8.867
    20   6 C        2.961     0.071    26.411     8.430
    21   6 C        1.989     0.017    30.611     8.935
    22   6 C        1.987    -0.021    31.610     9.080
    23   6 C        1.988    -0.006    31.204     9.021
    24   6 C        2.773     0.205    23.637     7.963
    25   9 F        0.787    -0.159    10.818     3.885
    26   6 C        1.991    -0.071    32.986     9.275
    27   6 C        2.875     0.089    26.008     8.360
    28  17 Cl       0.958    -0.063   101.118    15.384
    29   6 C        2.032    -0.051    32.378     9.190
    30   6 C        2.978     0.023    27.486     8.600
    31   6 C        1.990    -0.048    32.335     9.183
    32   6 C        2.896     0.120    25.356     8.256
    33   7 N        1.833    -0.230    26.883     7.683
    34   6 C        2.750     0.323    21.510     7.594
    35   8 O        0.858    -0.342    20.561     6.079
    36   6 C        1.970     0.003    31.000     8.991
    37   6 C        1.962     0.022    30.495     8.918
    38   6 C        1.905    -0.003    31.186     9.019
    39   7 N        2.721     0.197    17.987     6.299
    40   6 C        0.930    -0.085    38.244    10.360
    41   6 C        0.929    -0.083    38.149    10.347

 Mol. C6AA /au·bohr⁶  :      47496.989876
 Mol. C8AA /au·bohr⁸  :    1325768.046660
 Mol. α(0) /au        :        346.161570


Wiberg/Mayer (AO) data.
largest (>0.10) Wiberg bond orders for each atom

 ---------------------------------------------------------------------------
     #   Z sym  total        # sym  WBO       # sym  WBO       # sym  WBO
 ---------------------------------------------------------------------------
     1   6 C    2.495 --     2 C    2.173     3 O    0.116
     2   6 C    3.501 --     1 C    2.173     3 O    1.126
     3   8 O    2.482 --     2 C    1.126     4 C    1.109     1 C    0.116
     4   6 C    3.898 --     5 C    1.459     3 O    1.109    32 C    1.058
     5   6 C    3.672 --     4 C    1.459     6 C    1.395    31 C    0.478
     6   6 C    3.927 --     5 C    1.395     7 N    1.244    30 C    1.060
     7   7 N    3.284 --     8 C    1.661     6 C    1.244
     8   6 C    3.634 --     7 N    1.661     9 C    1.379    13 N    0.260
     9   6 C    3.940 --     8 C    1.379    12 C    1.232    10 C    1.081
    10   6 C    3.945 --    11 N    2.816     9 C    1.081
    11   7 N    3.000 --    10 C    2.816
    12   6 C    3.951 --    13 N    1.259     9 C    1.232    30 C    1.179
    13   7 N    3.207 --    12 C    1.259    14 C    1.237     8 C    0.260
    14   6 C    3.918 --    29 C    1.280    13 N    1.237    15 C    1.214
    15   6 C    3.647 --    16 C    1.724    14 C    1.214    29 C    0.305
                            27 C    0.100
    16   6 C    3.487 --    15 C    1.724    17 C    1.348    29 C    0.173
    17   6 C    3.801 --    16 C    1.348    27 C    1.240    18 O    0.975
    18   8 O    2.340 --    19 C    1.127    17 C    0.975
    19   6 C    2.758 --    18 O    1.127    20 C    1.054    23 C    0.121
    20   6 C    3.953 --    26 C    1.370    21 C    1.343    19 C    1.054
                            23 C    0.117
    21   6 C    3.783 --    22 C    1.659    20 C    1.343    23 C    0.332
                            26 C    0.168    24 C    0.102
    22   6 C    3.777 --    21 C    1.659    23 C    1.604    26 C    0.405
    23   6 C    3.766 --    22 C    1.604    24 C    1.351    21 C    0.332
                            26 C    0.155    19 C    0.121    20 C    0.117
    24   6 C    3.882 --    26 C    1.383    23 C    1.351    25 F    0.997
                            21 C    0.102
    25   9 F    1.169 --    24 C    0.997
    26   6 C    3.635 --    24 C    1.383    20 C    1.370    22 C    0.405
Note: The following floating-point exceptions are signalling: IEEE_UNDERFLOW_FLAG IEEE_DENORMAL
normal termination of xtb
                            21 C    0.168    23 C    0.155
    27   6 C    3.907 --    29 C    1.471    17 C    1.240    28 Cl   1.010
                            15 C    0.100
    28  17 Cl   1.195 --    27 C    1.010
    29   6 C    3.439 --    27 C    1.471    14 C    1.280    15 C    0.305
                            16 C    0.173
    30   6 C    3.947 --    31 C    1.449    12 C    1.179     6 C    1.060
    31   6 C    3.692 --    30 C    1.449    32 C    1.376     5 C    0.478
    32   6 C    3.934 --    31 C    1.376    33 N    1.290     4 C    1.058
    33   7 N    3.036 --    32 C    1.290    34 C    1.184
    34   6 C    3.919 --    35 O    1.672    33 N    1.184    36 C    0.985
    35   8 O    2.005 --    34 C    1.672
    36   6 C    3.797 --    37 C    2.275    34 C    0.985    40 C    0.157
                            41 C    0.149
    37   6 C    3.839 --    36 C    2.275    38 C    1.351
    38   6 C    3.397 --    37 C    1.351    39 N    0.960    41 C    0.470
                            40 C    0.464
    39   7 N    3.708 --    41 C    1.358    40 C    1.357    38 C    0.960
    40   6 C    2.543 --    39 N    1.357    41 C    0.506    38 C    0.464
                            36 C    0.157
    41   6 C    2.555 --    39 N    1.358    40 C    0.506    38 C    0.470
                            36 C    0.149
 ---------------------------------------------------------------------------

Topologies differ in total number of bonds
Writing topology from bond orders to xtbtopo.mol

molecular dipole:
                 x           y           z       tot (Debye)
 q only:        1.045       0.204      -0.126
   full:        0.982      -0.569      -0.166       2.914
molecular quadrupole (traceless):
                xx          xy          yy          xz          yz          zz
 q only:       -0.651     -14.925      -2.850       0.766     -13.151       3.501
  q+dip:       -3.438     -15.836      -6.235      -5.013     -10.386       9.673
   full:       -6.823     -17.238      -3.685      -5.609      -9.817      10.508


           -------------------------------------------------
          | TOTAL ENERGY             -100.509955404040 Eh   |
          | GRADIENT NORM               0.539927698375 Eh/α |
          | HOMO-LUMO GAP               0.105467840657 eV   |
           -------------------------------------------------

------------------------------------------------------------------------
 * finished run on 2026/07/23 at 16:40:40.098     
------------------------------------------------------------------------
 total:
 * wall-time:     0 d,  0 h,  0 min,  1.187 sec
 *  cpu-time:     0 d,  0 h,  0 min,  1.204 sec
 * ratio c/w:     1.014 speedup
 SCF:
 * wall-time:     0 d,  0 h,  0 min,  1.151 sec
 *  cpu-time:     0 d,  0 h,  0 min,  1.171 sec
 * ratio c/w:     1.017 speedup

