      -----------------------------------------------------------      
     |                   =====================                   |     
     |                           x T B                           |     
     |                   =====================                   |     
     |                         S. Grimme                         |     
     |          Mulliken Center for Theoretical Chemistry        |     
     |                    University of Bonn                     |     
      -----------------------------------------------------------      

   * xtb version 6.6.1 (unknown) compiled by 'builduser@buildhost' on 2023-08-07

   xtb is free software: you can redistribute it and/or modify it under
   the terms of the GNU Lesser General Public License as published by
   the Free Software Foundation, either version 3 of the License, or
   (at your option) any later version.
   
   xtb is distributed in the hope that it will be useful,
   but WITHOUT ANY WARRANTY; without even the implied warranty of
   MERCHANTABILITY or FITNESS FOR A PARTICULAR PURPOSE.  See the
   GNU Lesser General Public License for more details.
   
   Cite this work as:
   * C. Bannwarth, E. Caldeweyher, S. Ehlert, A. Hansen, P. Pracht,
     J. Seibert, S. Spicher, S. Grimme, WIREs Comput. Mol. Sci., 2020, 11,
     e01493. DOI: 10.1002/wcms.1493
   
   for GFN2-xTB:
   * C. Bannwarth, S. Ehlert and S. Grimme., J. Chem. Theory Comput., 2019,
     15, 1652-1671. DOI: 10.1021/acs.jctc.8b01176
   for GFN1-xTB:
   * S. Grimme, C. Bannwarth, P. Shushkov, J. Chem. Theory Comput., 2017,
     13, 1989-2009. DOI: 10.1021/acs.jctc.7b00118
   for GFN0-xTB:
   * P. Pracht, E. Caldeweyher, S. Ehlert, S. Grimme, ChemRxiv, 2019, preprint.
     DOI: 10.26434/chemrxiv.8326202.v1
   for GFN-FF:
   * S. Spicher and S. Grimme, Angew. Chem. Int. Ed., 2020, 59, 15665-15673.
     DOI: 10.1002/anie.202004239
   
   for ALPB and GBSA implicit solvation:
   * S. Ehlert, M. Stahn, S. Spicher, S. Grimme, J. Chem. Theory Comput.,
     2021, 17, 4250-4261. DOI: 10.1021/acs.jctc.1c00471
   
   for DFT-D4:
   * E. Caldeweyher, C. Bannwarth and S. Grimme, J. Chem. Phys., 2017,
     147, 034112. DOI: 10.1063/1.4993215
   * E. Caldeweyher, S. Ehlert, A. Hansen, H. Neugebauer, S. Spicher,
     C. Bannwarth and S. Grimme, J. Chem. Phys., 2019, 150, 154122.
     DOI: 10.1063/1.5090222
   * E. Caldeweyher, J.-M. Mewes, S. Ehlert and S. Grimme, Phys. Chem. Chem. Phys.
     2020, 22, 8499-8512. DOI: 10.1039/D0CP00502A
   
   for sTDA-xTB:
   * S. Grimme and C. Bannwarth, J. Chem. Phys., 2016, 145, 054103.
     DOI: 10.1063/1.4959605
   
   in the mass-spec context:
   * V. Asgeirsson, C. Bauer and S. Grimme, Chem. Sci., 2017, 8, 4879.
     DOI: 10.1039/c7sc00601b
   * J. Koopman and S. Grimme, ACS Omega 2019, 4, 12, 15120-15133.
     DOI: 10.1021/acsomega.9b02011
   
   for metadynamics refer to:
   * S. Grimme, J. Chem. Theory Comput., 2019, 155, 2847-2862
     DOI: 10.1021/acs.jctc.9b00143
   
   for SPH calculations refer to:
   * S. Spicher and S. Grimme, J. Chem. Theory Comput., 2021, 17, 1701-1714
     DOI: 10.1021/acs.jctc.0c01306
   
   with help from (in alphabetical order)
   P. Atkinson, C. Bannwarth, F. Bohle, G. Brandenburg, E. Caldeweyher
   M. Checinski, S. Dohm, S. Ehlert, S. Ehrlich, I. Gerasimov, C. Hölzer
   A. Katbashev, J. Koopman, C. Lavigne, S. Lehtola, F. März, M. Müller,
   F. Musil, H. Neugebauer, J. Pisarek, C. Plett, P. Pracht, F. Pultar,
   J. Seibert, P. Shushkov, S. Spicher, M. Stahn, M. Steiner, T. Strunk,
   J. Stückrath, T. Rose, and J. Unsleber
   
 * started run on 2026/07/23 at 16:40:18.793     

           -------------------------------------------------
          |                Calculation Setup                |
           -------------------------------------------------

          program call               : xtb /home/selva/covalent_quantum_benchmark/data/quantum/erbB_xyz/ERBB2__CHEMBL175513__state03.xyz --gfn2 --chrg 0 --uhf 0 --iterations 300
          coordinate file            : /home/selva/covalent_quantum_benchmark/data/quantum/erbB_xyz/ERBB2__CHEMBL175513__state03.xyz
          omp threads                :                    24

   ID    Z sym.   atoms
    1    6 C      1, 2, 4-6, 8-10, 12, 14-17, 19, 20, 22-27, 29, 31-34, 36,
                  38-40, 42, 43
    2    8 O      3, 18, 37
    3    7 N      7, 11, 13, 21, 35, 41
    4   16 S      28
    5   17 Cl     30

           -------------------------------------------------
          |                 G F N 2 - x T B                 |
           -------------------------------------------------

        Reference                      10.1021/acs.jctc.8b01176
      * Hamiltonian:
        H0-scaling (s, p, d)           1.850000    2.230000    2.230000
        zeta-weighting                 0.500000
      * Dispersion:
        s8                             2.700000
        a1                             0.520000
        a2                             5.000000
        s9                             5.000000
      * Repulsion:
        kExp                           1.500000    1.000000
        rExp                           1.000000
      * Coulomb:
        alpha                          2.000000
        third order                    shell-resolved
        anisotropic                    true
        a3                             3.000000
        a5                             4.000000
        cn-shift                       1.200000
        cn-exp                         4.000000
        max-rad                        5.000000


          ...................................................
          :                      SETUP                      :
          :.................................................:
          :  # basis functions                 184          :
          :  # atomic orbitals                 182          :
          :  # shells                           88          :
          :  # electrons                       189          :
          :  max. iterations                   300          :
          :  Hamiltonian                  GFN2-xTB          :
          :  restarted?                      false          :
          :  GBSA solvation                  false          :
          :  PC potential                    false          :
          :  electronic temp.          300.0000000     K    :
          :  accuracy                    1.0000000          :
          :  -> integral cutoff          0.2500000E+02      :
          :  -> integral neglect         0.1000000E-07      :
          :  -> SCF convergence          0.1000000E-05 Eh   :
          :  -> wf. convergence          0.1000000E-03 e    :
          :  Broyden damping             0.4000000          :
          ...................................................

 iter      E             dE          RMSdq      gap      omega  full diag
   1   -104.0712785 -0.104071E+03  0.877E+00    0.43       0.0  T
   2    -79.8058020  0.242655E+02  0.125E+01    0.10       1.0  T
   3    -70.1743385  0.963146E+01  0.128E+01    0.34       1.0  T
   4    -83.8046154 -0.136303E+02  0.112E+01    0.11       1.0  T
   5    -99.2939454 -0.154893E+02  0.720E+00    0.30       1.0  T
   6   -101.2737732 -0.197983E+01  0.619E+00    0.19       1.0  T
   7   -102.3625911 -0.108882E+01  0.566E+00    0.12       1.0  T
   8   -103.3452049 -0.982614E+00  0.453E+00    0.10       1.0  T
   9   -104.2432799 -0.898075E+00  0.369E+00    0.06       1.0  T
  10   -104.3263081 -0.830282E-01  0.336E+00    0.29       1.0  T
  11   -103.5445252  0.781783E+00  0.455E+00    0.08       1.0  T
  12   -104.5528862 -0.100836E+01  0.308E+00    0.06       1.0  T
  13   -104.5788541 -0.259679E-01  0.304E+00    0.06       1.0  T
  14   -104.2245095  0.354345E+00  0.333E+00    0.03       1.0  T
  15   -105.0762783 -0.851769E+00  0.236E+00    0.03       1.0  T
  16   -104.9873846  0.888937E-01  0.223E+00    0.06       1.0  T
  17   -104.6806633  0.306721E+00  0.264E+00    0.03       1.0  T
  18   -104.8268989 -0.146236E+00  0.218E+00    0.11       1.0  T
  19   -104.9383744 -0.111475E+00  0.176E+00    0.04       1.0  T
  20   -105.2446949 -0.306321E+00  0.809E-01    0.02       1.0  T
  21   -105.1381318  0.106563E+00  0.124E+00    0.03       1.0  T
  22   -105.1461756 -0.804380E-02  0.116E+00    0.02       1.0  T
  23   -105.0607686  0.854069E-01  0.146E+00    0.03       1.0  T
  24   -105.2299250 -0.169156E+00  0.676E-01    0.03       1.0  T
  25   -105.1512273  0.786977E-01  0.104E+00    0.03       1.0  T
  26   -105.1293663  0.218610E-01  0.108E+00    0.02       1.0  T
  27   -105.1423598 -0.129935E-01  0.104E+00    0.02       1.0  T
  28   -105.1806043 -0.382445E-01  0.837E-01    0.03       1.0  T
  29   -105.2153256 -0.347213E-01  0.676E-01    0.02       1.0  T
  30   -105.2732476 -0.579220E-01  0.229E-01    0.02       1.0  T
  31   -105.2712267  0.202088E-02  0.243E-01    0.02       1.0  T
  32   -105.2719512 -0.724537E-03  0.232E-01    0.02       1.0  T
  33   -105.2469069  0.250444E-01  0.507E-01    0.02       1.0  T
  34   -105.2569127 -0.100058E-01  0.426E-01    0.02       1.0  T
  35   -105.2740918 -0.171791E-01  0.203E-01    0.02       1.0  T
  36   -105.2774005 -0.330871E-02  0.124E-01    0.02       1.0  T
  37   -105.2771247  0.275760E-03  0.129E-01    0.02       1.0  T
  38   -105.2782079 -0.108315E-02  0.738E-02    0.02       1.0  T
  39   -105.2771858  0.102214E-02  0.121E-01    0.02       1.0  T
  40   -105.2776281 -0.442359E-03  0.100E-01    0.02       1.0  T
  41   -105.2778456 -0.217444E-03  0.844E-02    0.01       1.0  T
  42   -105.2782648 -0.419246E-03  0.565E-02    0.01       1.0  T
  43   -105.2785298 -0.265031E-03  0.307E-02    0.01       1.0  T
  44   -105.2785726 -0.427982E-04  0.221E-02    0.01       1.0  T
  45   -105.2786174 -0.448169E-04  0.118E-02    0.01       1.3  T
  46   -105.2786209 -0.349513E-05  0.811E-03    0.01       1.9  T
  47   -105.2786230 -0.200686E-05  0.522E-03    0.01       2.9  T
  48   -105.2786219  0.100832E-05  0.473E-03    0.01       3.2  T
  49   -105.2786239 -0.191308E-05  0.201E-03    0.01       7.6  T
  50   -105.2786239 -0.608011E-07  0.183E-03    0.01       8.3  T
  51   -105.2786240 -0.707123E-07  0.114E-03    0.01      13.4  T
  52   -105.2786240  0.952411E-09  0.972E-04    0.01      15.7  T
  53   -105.2786240 -0.155651E-08  0.702E-04    0.01      21.7  T

   *** convergence criteria satisfied after 53 iterations ***

         #    Occupation            Energy/Eh            Energy/eV
      -------------------------------------------------------------
         1        2.0000           -1.0908384             -29.6832
       ...           ...                  ...                  ...
        89        1.9998           -0.4321197             -11.7586
        90        1.9901           -0.4284908             -11.6598
        91        1.9557           -0.4270452             -11.6205
        92        1.8177           -0.4256138             -11.5815
        93        1.7975           -0.4255005             -11.5785
        94        1.4588           -0.4243210             -11.5464
        95        1.0721           -0.4234573             -11.5229 (HOMO)
        96        0.8318           -0.4229602             -11.5093 (LUMO)
        97        0.0765           -0.4201115             -11.4318
        98        0.0000           -0.4074004             -11.0859
        99                         -0.3973851             -10.8134
       100                         -0.3919131             -10.6645
       ...                                ...                  ...
       182                          1.0487069              28.5368
      -------------------------------------------------------------
                  HL-Gap            0.0004971 Eh            0.0135 eV
             Fermi-level           -0.4233089 Eh          -11.5188 eV

 SCC (total)                   0 d,  0 h,  0 min,  0.986 sec
 SCC setup                      ...        0 min,  0.000 sec (  0.039%)
 Dispersion                     ...        0 min,  0.002 sec (  0.182%)
 classical contributions        ...        0 min,  0.001 sec (  0.087%)
 integral evaluation            ...        0 min,  0.009 sec (  0.871%)
 iterations                     ...        0 min,  0.931 sec ( 94.485%)
 molecular gradient             ...        0 min,  0.031 sec (  3.132%)
 printout                       ...        0 min,  0.012 sec (  1.200%)

         :::::::::::::::::::::::::::::::::::::::::::::::::::::
         ::                     SUMMARY                     ::
         :::::::::::::::::::::::::::::::::::::::::::::::::::::
         :: total energy            -104.097721393334 Eh    ::
         :: gradient norm              0.551624666436 Eh/a0 ::
         :: HOMO-LUMO gap              0.013525868765 eV    ::
         ::.................................................::
         :: SCC energy              -105.278623987236 Eh    ::
         :: -> isotropic ES            0.020492991495 Eh    ::
         :: -> anisotropic ES          0.011702341514 Eh    ::
         :: -> anisotropic XC          0.062193967192 Eh    ::
         :: -> dispersion             -0.066957725028 Eh    ::
         :: repulsion energy           1.180332629943 Eh    ::
         :: add. restraining           0.000000000000 Eh    ::
         :: total charge               0.000000000857 e     ::
         :::::::::::::::::::::::::::::::::::::::::::::::::::::

           -------------------------------------------------
          |                Property Printout                |
           -------------------------------------------------

    * Orbital Energies and Occupations

         #    Occupation            Energy/Eh            Energy/eV
      -------------------------------------------------------------
         1        2.0000           -1.0908384             -29.6832
       ...           ...                  ...                  ...
        83        2.0000           -0.4426068             -12.0439
        84        2.0000           -0.4415836             -12.0161
        85        2.0000           -0.4403257             -11.9819
        86        2.0000           -0.4389848             -11.9454
        87        2.0000           -0.4385139             -11.9326
        88        2.0000           -0.4352542             -11.8439
        89        1.9998           -0.4321197             -11.7586
        90        1.9901           -0.4284908             -11.6598
        91        1.9557           -0.4270452             -11.6205
        92        1.8177           -0.4256138             -11.5815
        93        1.7975           -0.4255005             -11.5785
        94        1.4588           -0.4243210             -11.5464
        95        1.0721           -0.4234573             -11.5229 (HOMO)
        96        0.8318           -0.4229602             -11.5093 (LUMO)
        97        0.0765           -0.4201115             -11.4318
        98        0.0000           -0.4074004             -11.0859
        99                         -0.3973851             -10.8134
       100                         -0.3919131             -10.6645
       101                         -0.3915181             -10.6538
       102                         -0.3891401             -10.5890
       103                         -0.3782434             -10.2925
       104                         -0.3653522              -9.9417
       105                         -0.3625005              -9.8641
       106                         -0.3609244              -9.8213
       ...                                ...                  ...
       182                          1.0487069              28.5368
      -------------------------------------------------------------
                  HL-Gap            0.0004971 Eh            0.0135 eV
             Fermi-level           -0.4233089 Eh          -11.5188 eV

     #   Z          covCN         q      C6AA      α(0)
     1   6 C        0.976    -0.090    38.730    10.451
     2   6 C        1.842     0.091    28.873     8.680
     3   8 O        1.703    -0.123    16.164     5.428
     4   6 C        2.857     0.162    24.497     8.112
     5   6 C        2.001    -0.077    33.124     9.295
     6   6 C        2.950     0.119    25.382     8.263
     7   7 N        1.844    -0.115    24.266     7.301
     8   6 C        1.969     0.063    29.482     8.768
     9   6 C        2.958     0.035    27.212     8.556
    10   6 C        1.907     0.123    28.077     8.558
    11   7 N        0.911    -0.175    24.798     7.202
    12   6 C        2.909     0.130    25.164     8.226
    13   7 N        1.827    -0.147    24.959     7.403
    14   6 C        2.891     0.136    25.023     8.201
    15   6 C        1.990    -0.071    32.970     9.273
    16   6 C        1.986    -0.051    32.427     9.196
    17   6 C        2.921     0.159    24.559     8.127
    18   8 O        1.702    -0.135    16.338     5.457
    19   6 C        1.905    -0.002    31.176     9.017
    20   6 C        2.998     0.134    25.053     8.211
    21   7 N        1.933    -0.193    26.000     7.561
    22   6 C        3.214     0.102    25.114     8.154
    23   6 C        1.988    -0.034    31.948     9.128
    24   6 C        1.983     0.037    30.106     8.861
    25   6 C        1.988     0.040    30.037     8.851
    26   6 C        1.998    -0.052    32.453     9.200
    27   6 C        2.987     0.037    27.160     8.549
    28  16 S        2.290     0.090   137.438    19.731
    29   6 C        2.876     0.093    25.930     8.348
    30  17 Cl       0.959    -0.074   101.448    15.409
    31   6 C        2.033    -0.055    32.477     9.204
    32   6 C        2.978     0.022    27.512     8.604
    33   6 C        1.995    -0.056    32.558     9.215
    34   6 C        2.941     0.101    25.773     8.326
    35   7 N        1.832    -0.157    25.179     7.436
    36   6 C        2.797     0.298    21.944     7.674
    37   8 O        0.860    -0.363    20.959     6.138
    38   6 C        1.965    -0.026    31.754     9.100
    39   6 C        1.965     0.040    30.037     8.851
    40   6 C        1.913    -0.026    31.793     9.106
    41   7 N        2.721     0.170    18.402     6.371
    42   6 C        0.941    -0.074    37.951    10.326
    43   6 C        0.935    -0.089    38.383    10.381

 Mol. C6AA /au·bohr⁶  :      56095.468743
 Mol. C8AA /au·bohr⁸  :    1619576.653542
 Mol. α(0) /au        :        378.249490


Wiberg/Mayer (AO) data.
largest (>0.10) Wiberg bond orders for each atom

 ---------------------------------------------------------------------------
     #   Z sym  total        # sym  WBO       # sym  WBO       # sym  WBO
 ---------------------------------------------------------------------------
     1   6 C    2.116 --     2 C    1.973
     2   6 C    3.240 --     1 C    1.973     3 O    1.123
     3   8 O    2.387 --     2 C    1.123     4 C    1.078
     4   6 C    3.883 --     5 C    1.469    34 C    1.098     3 O    1.078
     5   6 C    3.627 --     4 C    1.469     6 C    1.382    33 C    0.387
     6   6 C    3.915 --     5 C    1.382     7 N    1.245    32 C    1.072
     7   7 N    3.279 --     8 C    1.654     6 C    1.245
     8   6 C    3.635 --     7 N    1.654     9 C    1.391    13 N    0.245
     9   6 C    3.940 --     8 C    1.391    12 C    1.225    10 C    1.081
    10   6 C    3.945 --    11 N    2.816     9 C    1.081
    11   7 N    2.998 --    10 C    2.816
    12   6 C    3.952 --    13 N    1.253     9 C    1.225    32 C    1.190
    13   7 N    3.185 --    12 C    1.253    14 C    1.238     8 C    0.245
    14   6 C    3.922 --    31 C    1.279    13 N    1.238    15 C    1.217
    15   6 C    3.635 --    16 C    1.698    14 C    1.217    31 C    0.375
                            29 C    0.100
    16   6 C    3.462 --    15 C    1.698    17 C    1.362    31 C    0.157
    17   6 C    3.819 --    16 C    1.362    29 C    1.254    18 O    1.010
    18   8 O    2.483 --    19 C    1.337    17 C    1.010
    19   6 C    2.667 --    18 O    1.337    20 C    1.095
    20   6 C    3.953 --    21 N    1.570    28 S    1.131    19 C    1.095
    21   7 N    3.115 --    20 C    1.570    22 C    1.197    28 S    0.144
    22   6 C    3.956 --    23 C    1.317    27 C    1.202    21 N    1.197
    23   6 C    3.670 --    24 C    1.711    22 C    1.317    26 C    0.379
                            25 C    0.145
    24   6 C    3.894 --    25 C    1.825    23 C    1.711    26 C    0.125
                            27 C    0.103
Note: The following floating-point exceptions are signalling: IEEE_UNDERFLOW_FLAG IEEE_DENORMAL
normal termination of xtb
    25   6 C    3.879 --    24 C    1.825    26 C    1.681    23 C    0.145
    26   6 C    3.654 --    25 C    1.681    27 C    1.371    23 C    0.379
                            24 C    0.125
    27   6 C    3.938 --    26 C    1.371    22 C    1.202    28 S    1.110
                            24 C    0.103
    28  16 S    2.664 --    20 C    1.131    27 C    1.110    21 N    0.144
    29   6 C    3.901 --    31 C    1.460    17 C    1.254    30 Cl   1.005
                            15 C    0.100
    30  17 Cl   1.189 --    29 C    1.005
    31   6 C    3.423 --    29 C    1.460    14 C    1.279    15 C    0.375
                            16 C    0.157
    32   6 C    3.935 --    33 C    1.415    12 C    1.190     6 C    1.072
    33   6 C    3.637 --    34 C    1.444    32 C    1.415     5 C    0.387
    34   6 C    3.923 --    33 C    1.444    35 N    1.162     4 C    1.098
    35   7 N    3.178 --    36 C    1.497    34 C    1.162    37 O    0.194
    36   6 C    3.940 --    35 N    1.497    37 O    1.393    38 C    0.956
    37   8 O    1.976 --    36 C    1.393    35 N    0.194    38 C    0.125
                            40 C    0.110
    38   6 C    3.731 --    39 C    2.267    36 C    0.956    40 C    0.134
                            37 O    0.125    43 C    0.116
    39   6 C    3.825 --    38 C    2.267    40 C    1.334
    40   6 C    3.197 --    39 C    1.334    41 N    1.061    43 C    0.416
                            38 C    0.134    37 O    0.110
    41   7 N    3.675 --    42 C    1.286    43 C    1.283    40 C    1.061
    42   6 C    1.958 --    41 N    1.286    43 C    0.504
    43   6 C    2.395 --    41 N    1.283    42 C    0.504    40 C    0.416
                            38 C    0.116
 ---------------------------------------------------------------------------

Topologies differ in total number of bonds
Writing topology from bond orders to xtbtopo.mol

molecular dipole:
                 x           y           z       tot (Debye)
 q only:        1.351       2.041       1.273
   full:        2.365       1.332       1.563       7.962
molecular quadrupole (traceless):
                xx          xy          yy          xz          yz          zz
 q only:       17.249     -28.903     -29.832      21.747      -3.258      12.583
  q+dip:       23.606     -45.557     -38.364      31.817      -2.489      14.758
   full:       21.299     -45.174     -37.408      32.203       0.170      16.109


           -------------------------------------------------
          | TOTAL ENERGY             -104.097721393334 Eh   |
          | GRADIENT NORM               0.551624666436 Eh/α |
          | HOMO-LUMO GAP               0.013525868765 eV   |
           -------------------------------------------------

------------------------------------------------------------------------
 * finished run on 2026/07/23 at 16:40:19.800     
------------------------------------------------------------------------
 total:
 * wall-time:     0 d,  0 h,  0 min,  1.007 sec
 *  cpu-time:     0 d,  0 h,  0 min,  1.013 sec
 * ratio c/w:     1.006 speedup
 SCF:
 * wall-time:     0 d,  0 h,  0 min,  0.986 sec
 *  cpu-time:     0 d,  0 h,  0 min,  0.992 sec
 * ratio c/w:     1.006 speedup

