      -----------------------------------------------------------      
     |                   =====================                   |     
     |                           x T B                           |     
     |                   =====================                   |     
     |                         S. Grimme                         |     
     |          Mulliken Center for Theoretical Chemistry        |     
     |                    University of Bonn                     |     
      -----------------------------------------------------------      

   * xtb version 6.6.1 (unknown) compiled by 'builduser@buildhost' on 2023-08-07

   xtb is free software: you can redistribute it and/or modify it under
   the terms of the GNU Lesser General Public License as published by
   the Free Software Foundation, either version 3 of the License, or
   (at your option) any later version.
   
   xtb is distributed in the hope that it will be useful,
   but WITHOUT ANY WARRANTY; without even the implied warranty of
   MERCHANTABILITY or FITNESS FOR A PARTICULAR PURPOSE.  See the
   GNU Lesser General Public License for more details.
   
   Cite this work as:
   * C. Bannwarth, E. Caldeweyher, S. Ehlert, A. Hansen, P. Pracht,
     J. Seibert, S. Spicher, S. Grimme, WIREs Comput. Mol. Sci., 2020, 11,
     e01493. DOI: 10.1002/wcms.1493
   
   for GFN2-xTB:
   * C. Bannwarth, S. Ehlert and S. Grimme., J. Chem. Theory Comput., 2019,
     15, 1652-1671. DOI: 10.1021/acs.jctc.8b01176
   for GFN1-xTB:
   * S. Grimme, C. Bannwarth, P. Shushkov, J. Chem. Theory Comput., 2017,
     13, 1989-2009. DOI: 10.1021/acs.jctc.7b00118
   for GFN0-xTB:
   * P. Pracht, E. Caldeweyher, S. Ehlert, S. Grimme, ChemRxiv, 2019, preprint.
     DOI: 10.26434/chemrxiv.8326202.v1
   for GFN-FF:
   * S. Spicher and S. Grimme, Angew. Chem. Int. Ed., 2020, 59, 15665-15673.
     DOI: 10.1002/anie.202004239
   
   for ALPB and GBSA implicit solvation:
   * S. Ehlert, M. Stahn, S. Spicher, S. Grimme, J. Chem. Theory Comput.,
     2021, 17, 4250-4261. DOI: 10.1021/acs.jctc.1c00471
   
   for DFT-D4:
   * E. Caldeweyher, C. Bannwarth and S. Grimme, J. Chem. Phys., 2017,
     147, 034112. DOI: 10.1063/1.4993215
   * E. Caldeweyher, S. Ehlert, A. Hansen, H. Neugebauer, S. Spicher,
     C. Bannwarth and S. Grimme, J. Chem. Phys., 2019, 150, 154122.
     DOI: 10.1063/1.5090222
   * E. Caldeweyher, J.-M. Mewes, S. Ehlert and S. Grimme, Phys. Chem. Chem. Phys.
     2020, 22, 8499-8512. DOI: 10.1039/D0CP00502A
   
   for sTDA-xTB:
   * S. Grimme and C. Bannwarth, J. Chem. Phys., 2016, 145, 054103.
     DOI: 10.1063/1.4959605
   
   in the mass-spec context:
   * V. Asgeirsson, C. Bauer and S. Grimme, Chem. Sci., 2017, 8, 4879.
     DOI: 10.1039/c7sc00601b
   * J. Koopman and S. Grimme, ACS Omega 2019, 4, 12, 15120-15133.
     DOI: 10.1021/acsomega.9b02011
   
   for metadynamics refer to:
   * S. Grimme, J. Chem. Theory Comput., 2019, 155, 2847-2862
     DOI: 10.1021/acs.jctc.9b00143
   
   for SPH calculations refer to:
   * S. Spicher and S. Grimme, J. Chem. Theory Comput., 2021, 17, 1701-1714
     DOI: 10.1021/acs.jctc.0c01306
   
   with help from (in alphabetical order)
   P. Atkinson, C. Bannwarth, F. Bohle, G. Brandenburg, E. Caldeweyher
   M. Checinski, S. Dohm, S. Ehlert, S. Ehrlich, I. Gerasimov, C. Hölzer
   A. Katbashev, J. Koopman, C. Lavigne, S. Lehtola, F. März, M. Müller,
   F. Musil, H. Neugebauer, J. Pisarek, C. Plett, P. Pracht, F. Pultar,
   J. Seibert, P. Shushkov, S. Spicher, M. Stahn, M. Steiner, T. Strunk,
   J. Stückrath, T. Rose, and J. Unsleber
   
 * started run on 2026/07/23 at 16:39:04.384     

           -------------------------------------------------
          |                Calculation Setup                |
           -------------------------------------------------

          program call               : xtb /home/selva/covalent_quantum_benchmark/data/quantum/erbB_xyz/EGFR__CHEMBL607707__state01.xyz --gfn2 --chrg 0 --uhf 0 --iterations 300
          coordinate file            : /home/selva/covalent_quantum_benchmark/data/quantum/erbB_xyz/EGFR__CHEMBL607707__state01.xyz
          omp threads                :                    24

   ID    Z sym.   atoms
    1    6 C      1, 2, 4-6, 8-10, 12, 14-17, 19, 21-24, 26, 28-30, 32, 33
    2    8 O      3, 27
    3    7 N      7, 11, 13, 25, 31
    4    9 F      18
    5   17 Cl     20

           -------------------------------------------------
          |                 G F N 2 - x T B                 |
           -------------------------------------------------

        Reference                      10.1021/acs.jctc.8b01176
      * Hamiltonian:
        H0-scaling (s, p, d)           1.850000    2.230000    2.230000
        zeta-weighting                 0.500000
      * Dispersion:
        s8                             2.700000
        a1                             0.520000
        a2                             5.000000
        s9                             5.000000
      * Repulsion:
        kExp                           1.500000    1.000000
        rExp                           1.000000
      * Coulomb:
        alpha                          2.000000
        third order                    shell-resolved
        anisotropic                    true
        a3                             3.000000
        a5                             4.000000
        cn-shift                       1.200000
        cn-exp                         4.000000
        max-rad                        5.000000


          ...................................................
          :                      SETUP                      :
          :.................................................:
          :  # basis functions                 138          :
          :  # atomic orbitals                 137          :
          :  # shells                           67          :
          :  # electrons                       147          :
          :  max. iterations                   300          :
          :  Hamiltonian                  GFN2-xTB          :
          :  restarted?                      false          :
          :  GBSA solvation                  false          :
          :  PC potential                    false          :
          :  electronic temp.          300.0000000     K    :
          :  accuracy                    1.0000000          :
          :  -> integral cutoff          0.2500000E+02      :
          :  -> integral neglect         0.1000000E-07      :
          :  -> SCF convergence          0.1000000E-05 Eh   :
          :  -> wf. convergence          0.1000000E-03 e    :
          :  Broyden damping             0.4000000          :
          ...................................................

 iter      E             dE          RMSdq      gap      omega  full diag
   1    -81.5722961 -0.815723E+02  0.904E+00    0.12       0.0  T
   2    -65.1387856  0.164335E+02  0.131E+01    0.31       1.0  T
   3    -64.5984083  0.540377E+00  0.115E+01    0.80       1.0  T
   4    -68.2672780 -0.366887E+01  0.106E+01    0.14       1.0  T
   5    -79.0743132 -0.108070E+02  0.726E+00    0.17       1.0  T
   6    -72.8488192  0.622549E+01  0.840E+00    0.03       1.0  T
   7    -81.4205795 -0.857176E+01  0.529E+00    0.09       1.0  T
   8    -81.1402395  0.280340E+00  0.512E+00    0.02       1.0  T
   9    -81.8255541 -0.685315E+00  0.421E+00    0.32       1.0  T
  10    -81.9908098 -0.165256E+00  0.354E+00    0.08       1.0  T
  11    -82.3424153 -0.351606E+00  0.288E+00    0.03       1.0  T
  12    -82.6863904 -0.343975E+00  0.222E+00    0.05       1.0  T
  13    -82.6869300 -0.539604E-03  0.222E+00    0.05       1.0  T
  14    -82.4773345  0.209596E+00  0.271E+00    0.07       1.0  T
  15    -82.5144059 -0.370714E-01  0.268E+00    0.03       1.0  T
  16    -82.5107386  0.366730E-02  0.260E+00    0.03       1.0  T
  17    -82.3570956  0.153643E+00  0.270E+00    0.02       1.0  T
  18    -81.3835112  0.973584E+00  0.363E+00    0.09       1.0  T
  19    -82.3078644 -0.924353E+00  0.238E+00    0.12       1.0  T
  20    -82.1278980  0.179966E+00  0.279E+00    0.17       1.0  T
  21    -82.6352166 -0.507319E+00  0.138E+00    0.03       1.0  T
  22    -82.5922364  0.429802E-01  0.147E+00    0.05       1.0  T
  23    -82.4975124  0.947241E-01  0.171E+00    0.04       1.0  T
  24    -82.6095585 -0.112046E+00  0.139E+00    0.01       1.0  T
  25    -82.7146040 -0.105046E+00  0.821E-01    0.05       1.0  T
  26    -82.7221989 -0.759488E-02  0.790E-01    0.04       1.0  T
  27    -82.7289268 -0.672788E-02  0.720E-01    0.05       1.0  T
  28    -82.7261989  0.272787E-02  0.711E-01    0.05       1.0  T
  29    -82.7196308  0.656814E-02  0.748E-01    0.06       1.0  T
  30    -82.7051890  0.144417E-01  0.851E-01    0.07       1.0  T
  31    -82.7484609 -0.432719E-01  0.340E-01    0.08       1.0  T
  32    -82.7502037 -0.174280E-02  0.268E-01    0.07       1.0  T
  33    -82.7512694 -0.106566E-02  0.299E-01    0.08       1.0  T
  34    -82.7515321 -0.262707E-03  0.278E-01    0.08       1.0  T
  35    -82.7477724  0.375972E-02  0.352E-01    0.08       1.0  T
  36    -82.7525067 -0.473437E-02  0.194E-01    0.08       1.0  T
  37    -82.7498888  0.261791E-02  0.263E-01    0.08       1.0  T
  38    -82.7511640 -0.127520E-02  0.190E-01    0.07       1.0  T
  39    -82.7527914 -0.162735E-02  0.122E-01    0.08       1.0  T
  40    -82.7529970 -0.205625E-03  0.864E-02    0.07       1.0  T
  41    -82.7530545 -0.574841E-04  0.779E-02    0.07       1.0  T
  42    -82.7532899 -0.235395E-03  0.452E-02    0.07       1.0  T
  43    -82.7533398 -0.498896E-04  0.289E-02    0.07       1.0  T
  44    -82.7533457 -0.595899E-05  0.130E-02    0.07       1.3  T
  45    -82.7533463 -0.576187E-06  0.114E-02    0.07       1.5  T
  46    -82.7533485 -0.222636E-05  0.905E-03    0.07       1.9  T
  47    -82.7533525 -0.398415E-05  0.526E-03    0.07       3.3  T
  48    -82.7533540 -0.146698E-05  0.261E-03    0.07       6.7  T
  49    -82.7533545 -0.492024E-06  0.598E-04    0.07      29.1  T
  50    -82.7533544  0.177397E-07  0.866E-04    0.07      20.1  T

   *** convergence criteria satisfied after 50 iterations ***

         #    Occupation            Energy/Eh            Energy/eV
      -------------------------------------------------------------
         1        2.0000           -1.0904481             -29.6726
       ...           ...                  ...                  ...
        68        2.0000           -0.4375474             -11.9063
        69        1.9971           -0.4332289             -11.7888
        70        1.9847           -0.4316257             -11.7451
        71        1.9597           -0.4306847             -11.7195
        72        1.8286           -0.4292034             -11.6792
        73        1.7147           -0.4286195             -11.6633
        74        1.2385           -0.4271744             -11.6240 (HOMO)
        75        0.2756           -0.4245193             -11.5518 (LUMO)
        76        0.0006           -0.4184386             -11.3863
        77        0.0004           -0.4180226             -11.3750
        78                         -0.4070605             -11.0767
        79                         -0.3970998             -10.8056
       ...                                ...                  ...
       137                          1.0429395              28.3798
      -------------------------------------------------------------
                  HL-Gap            0.0026550 Eh            0.0722 eV
             Fermi-level           -0.4265902 Eh          -11.6081 eV

 SCC (total)                   0 d,  0 h,  0 min,  0.705 sec
 SCC setup                      ...        0 min,  0.000 sec (  0.058%)
 Dispersion                     ...        0 min,  0.001 sec (  0.177%)
 classical contributions        ...        0 min,  0.001 sec (  0.079%)
 integral evaluation            ...        0 min,  0.005 sec (  0.653%)
 iterations                     ...        0 min,  0.656 sec ( 93.049%)
 molecular gradient             ...        0 min,  0.034 sec (  4.842%)
 printout                       ...        0 min,  0.008 sec (  1.137%)

         :::::::::::::::::::::::::::::::::::::::::::::::::::::
         ::                     SUMMARY                     ::
         :::::::::::::::::::::::::::::::::::::::::::::::::::::
         :: total energy             -81.863183737638 Eh    ::
         :: gradient norm              0.504220251381 Eh/a0 ::
         :: HOMO-LUMO gap              0.072247328104 eV    ::
         ::.................................................::
         :: SCC energy               -82.753354448795 Eh    ::
         :: -> isotropic ES            0.026571259342 Eh    ::
         :: -> anisotropic ES          0.002783012006 Eh    ::
         :: -> anisotropic XC          0.045584916320 Eh    ::
         :: -> dispersion             -0.049082928636 Eh    ::
         :: repulsion energy           0.889362374381 Eh    ::
         :: add. restraining           0.000000000000 Eh    ::
         :: total charge               0.000000000038 e     ::
         :::::::::::::::::::::::::::::::::::::::::::::::::::::

           -------------------------------------------------
          |                Property Printout                |
           -------------------------------------------------

    * Orbital Energies and Occupations

         #    Occupation            Energy/Eh            Energy/eV
      -------------------------------------------------------------
         1        2.0000           -1.0904481             -29.6726
       ...           ...                  ...                  ...
        62        2.0000           -0.4612303             -12.5507
        63        2.0000           -0.4580421             -12.4640
        64        2.0000           -0.4556046             -12.3976
        65        2.0000           -0.4498569             -12.2412
        66        2.0000           -0.4463773             -12.1465
        67        2.0000           -0.4381826             -11.9236
        68        2.0000           -0.4375474             -11.9063
        69        1.9971           -0.4332289             -11.7888
        70        1.9847           -0.4316257             -11.7451
        71        1.9597           -0.4306847             -11.7195
        72        1.8286           -0.4292034             -11.6792
        73        1.7147           -0.4286195             -11.6633
        74        1.2385           -0.4271744             -11.6240 (HOMO)
        75        0.2756           -0.4245193             -11.5518 (LUMO)
        76        0.0006           -0.4184386             -11.3863
        77        0.0004           -0.4180226             -11.3750
        78                         -0.4070605             -11.0767
        79                         -0.3970998             -10.8056
        80                         -0.3892488             -10.5920
        81                         -0.3722757             -10.1301
        82                         -0.3706480             -10.0858
        83                         -0.3662028              -9.9649
        84                         -0.3394718              -9.2375
        85                         -0.3341055              -9.0915
       ...                                ...                  ...
       137                          1.0429395              28.3798
      -------------------------------------------------------------
                  HL-Gap            0.0026550 Eh            0.0722 eV
             Fermi-level           -0.4265902 Eh          -11.6081 eV

     #   Z          covCN         q      C6AA      α(0)
     1   6 C        0.976    -0.088    38.650    10.440
     2   6 C        1.872     0.080    29.117     8.716
     3   8 O        1.702    -0.118    16.094     5.416
     4   6 C        2.892     0.163    24.476     8.111
     5   6 C        1.987    -0.067    32.857     9.257
     6   6 C        2.915     0.119    25.383     8.262
     7   7 N        1.831    -0.115    24.263     7.299
     8   6 C        1.933     0.091    28.825     8.670
     9   6 C        2.952     0.032    27.277     8.566
    10   6 C        1.907     0.127    27.989     8.544
    11   7 N        0.911    -0.166    24.593     7.172
    12   6 C        2.897     0.135    25.050     8.206
    13   7 N        1.836    -0.105    24.071     7.271
    14   6 C        2.911     0.126    25.243     8.239
    15   6 C        1.994    -0.032    31.900     9.121
    16   6 C        1.987    -0.027    31.781     9.104
    17   6 C        2.806     0.184    24.057     8.036
    18   9 F        0.787    -0.159    10.823     3.886
    19   6 C        2.878     0.091    25.982     8.356
    20  17 Cl       0.962    -0.050   100.714    15.353
    21   6 C        2.029    -0.085    33.340     9.326
    22   6 C        2.962     0.010    27.792     8.647
    23   6 C        1.997    -0.064    32.772     9.245
    24   6 C        2.920     0.126    25.247     8.240
    25   7 N        1.831    -0.175    25.587     7.496
    26   6 C        2.781     0.295    21.990     7.681
    27   8 O        0.859    -0.414    21.966     6.284
    28   6 C        1.969     0.023    30.484     8.916
    29   6 C        1.968     0.017    30.629     8.937
    30   6 C        1.906     0.005    30.993     8.991
    31   7 N        2.721     0.199    17.948     6.292
    32   6 C        0.931    -0.080    38.079    10.338
    33   6 C        0.931    -0.078    37.999    10.327

 Mol. C6AA /au·bohr⁶  :      30885.729567
 Mol. C8AA /au·bohr⁸  :     861287.129904
 Mol. α(0) /au        :        278.745646


Wiberg/Mayer (AO) data.
largest (>0.10) Wiberg bond orders for each atom

 ---------------------------------------------------------------------------
     #   Z sym  total        # sym  WBO       # sym  WBO       # sym  WBO
 ---------------------------------------------------------------------------
     1   6 C    2.190 --     2 C    1.969
     2   6 C    3.253 --     1 C    1.969     3 O    1.141
     3   8 O    2.384 --     2 C    1.141     4 C    1.026
     4   6 C    3.900 --     5 C    1.513    24 C    1.133     3 O    1.026
     5   6 C    3.686 --     4 C    1.513     6 C    1.347    23 C    0.410
     6   6 C    3.887 --     5 C    1.347     7 N    1.190    22 C    1.118
     7   7 N    3.155 --     8 C    1.652     6 C    1.190
     8   6 C    3.661 --     7 N    1.652     9 C    1.580    13 N    0.115
     9   6 C    3.862 --     8 C    1.580    10 C    1.099    12 C    0.987
    10   6 C    3.946 --    11 N    2.795     9 C    1.099
    11   7 N    2.976 --    10 C    2.795
    12   6 C    3.942 --    13 N    1.665    22 C    1.034     9 C    0.987
    13   7 N    3.247 --    12 C    1.665    14 C    1.101     8 C    0.115
    14   6 C    3.920 --    21 C    1.325    15 C    1.289    13 N    1.101
    15   6 C    3.609 --    16 C    1.673    14 C    1.289    21 C    0.322
                            19 C    0.103
    16   6 C    3.470 --    15 C    1.673    17 C    1.383    21 C    0.189
    17   6 C    3.834 --    16 C    1.383    19 C    1.257    18 F    0.997
    18   9 F    1.150 --    17 C    0.997
    19   6 C    3.893 --    21 C    1.437    17 C    1.257    20 Cl   1.011
                            15 C    0.103
    20  17 Cl   1.206 --    19 C    1.011
    21   6 C    3.465 --    19 C    1.437    14 C    1.325    15 C    0.322
                            16 C    0.189
    22   6 C    3.946 --    23 C    1.518     6 C    1.118    12 C    1.034
    23   6 C    3.724 --    22 C    1.518    24 C    1.347     5 C    0.410
    24   6 C    3.935 --    23 C    1.347    25 N    1.210     4 C    1.133
    25   7 N    3.151 --    26 C    1.418    24 C    1.210    27 O    0.201
    26   6 C    3.942 --    25 N    1.418    27 O    1.403    28 C    1.023
    27   8 O    1.856 --    26 C    1.403    25 N    0.201
    28   6 C    3.805 --    29 C    2.289    26 C    1.023    32 C    0.176
                            33 C    0.157
    29   6 C    3.835 --    28 C    2.289    30 C    1.334
    30   6 C    3.398 --    29 C    1.334    31 N    0.963    33 C    0.491
                            32 C    0.485
    31   7 N    3.706 --    32 C    1.356    33 C    1.353    30 C    0.963
    32   6 C    2.571 --    31 N    1.356    33 C    0.507    30 C    0.485
                            28 C    0.176
    33   6 C    2.558 --    31 N    1.353    32 C    0.507    30 C    0.491
                            28 C    0.157
Note: The following floating-point exceptions are signalling: IEEE_UNDERFLOW_FLAG IEEE_DENORMAL
normal termination of xtb
 ---------------------------------------------------------------------------

Topologies differ in total number of bonds
Writing topology from bond orders to xtbtopo.mol

molecular dipole:
                 x           y           z       tot (Debye)
 q only:        0.565      -1.200      -1.052
   full:        0.347      -0.687      -0.556       2.413
molecular quadrupole (traceless):
                xx          xy          yy          xz          yz          zz
 q only:      -11.163      16.767       9.290       0.855      -8.244       1.873
  q+dip:      -10.547      26.195       1.764      -1.718      -4.142       8.783
   full:      -11.607      26.628      -2.635       1.103      -3.904      14.242


           -------------------------------------------------
          | TOTAL ENERGY              -81.863183737638 Eh   |
          | GRADIENT NORM               0.504220251381 Eh/α |
          | HOMO-LUMO GAP               0.072247328104 eV   |
           -------------------------------------------------

------------------------------------------------------------------------
 * finished run on 2026/07/23 at 16:39:05.112     
------------------------------------------------------------------------
 total:
 * wall-time:     0 d,  0 h,  0 min,  0.728 sec
 *  cpu-time:     0 d,  0 h,  0 min,  0.738 sec
 * ratio c/w:     1.014 speedup
 SCF:
 * wall-time:     0 d,  0 h,  0 min,  0.705 sec
 *  cpu-time:     0 d,  0 h,  0 min,  0.710 sec
 * ratio c/w:     1.006 speedup

