      -----------------------------------------------------------      
     |                   =====================                   |     
     |                           x T B                           |     
     |                   =====================                   |     
     |                         S. Grimme                         |     
     |          Mulliken Center for Theoretical Chemistry        |     
     |                    University of Bonn                     |     
      -----------------------------------------------------------      

   * xtb version 6.6.1 (unknown) compiled by 'builduser@buildhost' on 2023-08-07

   xtb is free software: you can redistribute it and/or modify it under
   the terms of the GNU Lesser General Public License as published by
   the Free Software Foundation, either version 3 of the License, or
   (at your option) any later version.
   
   xtb is distributed in the hope that it will be useful,
   but WITHOUT ANY WARRANTY; without even the implied warranty of
   MERCHANTABILITY or FITNESS FOR A PARTICULAR PURPOSE.  See the
   GNU Lesser General Public License for more details.
   
   Cite this work as:
   * C. Bannwarth, E. Caldeweyher, S. Ehlert, A. Hansen, P. Pracht,
     J. Seibert, S. Spicher, S. Grimme, WIREs Comput. Mol. Sci., 2020, 11,
     e01493. DOI: 10.1002/wcms.1493
   
   for GFN2-xTB:
   * C. Bannwarth, S. Ehlert and S. Grimme., J. Chem. Theory Comput., 2019,
     15, 1652-1671. DOI: 10.1021/acs.jctc.8b01176
   for GFN1-xTB:
   * S. Grimme, C. Bannwarth, P. Shushkov, J. Chem. Theory Comput., 2017,
     13, 1989-2009. DOI: 10.1021/acs.jctc.7b00118
   for GFN0-xTB:
   * P. Pracht, E. Caldeweyher, S. Ehlert, S. Grimme, ChemRxiv, 2019, preprint.
     DOI: 10.26434/chemrxiv.8326202.v1
   for GFN-FF:
   * S. Spicher and S. Grimme, Angew. Chem. Int. Ed., 2020, 59, 15665-15673.
     DOI: 10.1002/anie.202004239
   
   for ALPB and GBSA implicit solvation:
   * S. Ehlert, M. Stahn, S. Spicher, S. Grimme, J. Chem. Theory Comput.,
     2021, 17, 4250-4261. DOI: 10.1021/acs.jctc.1c00471
   
   for DFT-D4:
   * E. Caldeweyher, C. Bannwarth and S. Grimme, J. Chem. Phys., 2017,
     147, 034112. DOI: 10.1063/1.4993215
   * E. Caldeweyher, S. Ehlert, A. Hansen, H. Neugebauer, S. Spicher,
     C. Bannwarth and S. Grimme, J. Chem. Phys., 2019, 150, 154122.
     DOI: 10.1063/1.5090222
   * E. Caldeweyher, J.-M. Mewes, S. Ehlert and S. Grimme, Phys. Chem. Chem. Phys.
     2020, 22, 8499-8512. DOI: 10.1039/D0CP00502A
   
   for sTDA-xTB:
   * S. Grimme and C. Bannwarth, J. Chem. Phys., 2016, 145, 054103.
     DOI: 10.1063/1.4959605
   
   in the mass-spec context:
   * V. Asgeirsson, C. Bauer and S. Grimme, Chem. Sci., 2017, 8, 4879.
     DOI: 10.1039/c7sc00601b
   * J. Koopman and S. Grimme, ACS Omega 2019, 4, 12, 15120-15133.
     DOI: 10.1021/acsomega.9b02011
   
   for metadynamics refer to:
   * S. Grimme, J. Chem. Theory Comput., 2019, 155, 2847-2862
     DOI: 10.1021/acs.jctc.9b00143
   
   for SPH calculations refer to:
   * S. Spicher and S. Grimme, J. Chem. Theory Comput., 2021, 17, 1701-1714
     DOI: 10.1021/acs.jctc.0c01306
   
   with help from (in alphabetical order)
   P. Atkinson, C. Bannwarth, F. Bohle, G. Brandenburg, E. Caldeweyher
   M. Checinski, S. Dohm, S. Ehlert, S. Ehrlich, I. Gerasimov, C. Hölzer
   A. Katbashev, J. Koopman, C. Lavigne, S. Lehtola, F. März, M. Müller,
   F. Musil, H. Neugebauer, J. Pisarek, C. Plett, P. Pracht, F. Pultar,
   J. Seibert, P. Shushkov, S. Spicher, M. Stahn, M. Steiner, T. Strunk,
   J. Stückrath, T. Rose, and J. Unsleber
   
 * started run on 2026/07/23 at 16:39:41.865     

           -------------------------------------------------
          |                Calculation Setup                |
           -------------------------------------------------

          program call               : xtb /home/selva/covalent_quantum_benchmark/data/quantum/erbB_xyz/ERBB2__CHEMBL113985__state03.xyz --gfn2 --chrg 0 --uhf 0 --iterations 300
          coordinate file            : /home/selva/covalent_quantum_benchmark/data/quantum/erbB_xyz/ERBB2__CHEMBL113985__state03.xyz
          omp threads                :                    24

   ID    Z sym.   atoms
    1    6 C      1, 3-5, 7, 9-11, 13, 14, 16-20, 22-26, 28-30, 32, 34
    2    8 O      2, 8, 15
    3    7 N      6, 12, 21, 31, 33
    4   35 Br     27

           -------------------------------------------------
          |                 G F N 2 - x T B                 |
           -------------------------------------------------

        Reference                      10.1021/acs.jctc.8b01176
      * Hamiltonian:
        H0-scaling (s, p, d)           1.850000    2.230000    2.230000
        zeta-weighting                 0.500000
      * Dispersion:
        s8                             2.700000
        a1                             0.520000
        a2                             5.000000
        s9                             5.000000
      * Repulsion:
        kExp                           1.500000    1.000000
        rExp                           1.000000
      * Coulomb:
        alpha                          2.000000
        third order                    shell-resolved
        anisotropic                    true
        a3                             3.000000
        a5                             4.000000
        cn-shift                       1.200000
        cn-exp                         4.000000
        max-rad                        5.000000


          ...................................................
          :                      SETUP                      :
          :.................................................:
          :  # basis functions                 142          :
          :  # atomic orbitals                 141          :
          :  # shells                           69          :
          :  # electrons                       150          :
          :  max. iterations                   300          :
          :  Hamiltonian                  GFN2-xTB          :
          :  restarted?                      false          :
          :  GBSA solvation                  false          :
          :  PC potential                    false          :
          :  electronic temp.          300.0000000     K    :
          :  accuracy                    1.0000000          :
          :  -> integral cutoff          0.2500000E+02      :
          :  -> integral neglect         0.1000000E-07      :
          :  -> SCF convergence          0.1000000E-05 Eh   :
          :  -> wf. convergence          0.1000000E-03 e    :
          :  Broyden damping             0.4000000          :
          ...................................................

 iter      E             dE          RMSdq      gap      omega  full diag
   1    -82.5278609 -0.825279E+02  0.885E+00    0.26       0.0  T
   2    -47.0970111  0.354308E+02  0.131E+01    0.05       1.0  T
   3    -43.1755378  0.392147E+01  0.147E+01    0.15       1.0  T
   4    -63.5603863 -0.203848E+02  0.120E+01    0.18       1.0  T
   5    -75.1490093 -0.115886E+02  0.782E+00    0.09       1.0  T
   6    -81.3239465 -0.617494E+01  0.597E+00    0.11       1.0  T
   7    -83.2156043 -0.189166E+01  0.381E+00    0.03       1.0  T
   8    -81.5932315  0.162237E+01  0.602E+00    0.20       1.0  T
   9    -83.3498438 -0.175661E+01  0.372E+00    0.04       1.0  T
  10    -82.3806711  0.969173E+00  0.500E+00    0.13       1.0  T
  11    -83.0734755 -0.692804E+00  0.401E+00    0.06       1.0  T
  12    -82.8371435  0.236332E+00  0.428E+00    0.05       1.0  T
  13    -82.7773015  0.598420E-01  0.430E+00    0.07       1.0  T
  14    -82.9163362 -0.139035E+00  0.408E+00    0.05       1.0  T
  15    -83.0524370 -0.136101E+00  0.369E+00    0.05       1.0  T
  16    -83.1529831 -0.100546E+00  0.317E+00    0.05       1.0  T
  17    -82.9265209  0.226462E+00  0.309E+00    0.06       1.0  T
  18    -83.5997820 -0.673261E+00  0.224E+00    0.06       1.0  T
  19    -83.4265868  0.173195E+00  0.224E+00    0.10       1.0  T
  20    -83.2981615  0.128425E+00  0.241E+00    0.11       1.0  T
  21    -83.2613865  0.367750E-01  0.242E+00    0.10       1.0  T
  22    -83.2544202  0.696625E-02  0.237E+00    0.08       1.0  T
  23    -83.1291032  0.125317E+00  0.228E+00    0.05       1.0  T
  24    -82.9562847  0.172818E+00  0.356E+00    0.05       1.0  T
  25    -83.5187552 -0.562470E+00  0.170E+00    0.03       1.0  T
  26    -83.6216679 -0.102913E+00  0.160E+00    0.02       1.0  T
  27    -83.6961241 -0.744562E-01  0.100E+00    0.05       1.0  T
  28    -83.6288964  0.672277E-01  0.151E+00    0.02       1.0  T
  29    -83.6831998 -0.543035E-01  0.876E-01    0.07       1.0  T
  30    -83.4916310  0.191569E+00  0.231E+00    0.03       1.0  T
  31    -83.5779605 -0.863295E-01  0.198E+00    0.02       1.0  T
  32    -83.7075107 -0.129550E+00  0.114E+00    0.01       1.0  T
  33    -83.7687426 -0.612318E-01  0.311E-01    0.04       1.0  T
  34    -83.7535532  0.151894E-01  0.442E-01    0.06       1.0  T
  35    -83.7711677 -0.176146E-01  0.318E-01    0.04       1.0  T
  36    -83.7707256  0.442162E-03  0.271E-01    0.04       1.0  T
  37    -83.7690010  0.172454E-02  0.298E-01    0.04       1.0  T
  38    -83.7733843 -0.438329E-02  0.174E-01    0.04       1.0  T
  39    -83.7755104 -0.212604E-02  0.567E-02    0.05       1.0  T
  40    -83.7731068  0.240361E-02  0.187E-01    0.04       1.0  T
  41    -83.7751547 -0.204791E-02  0.870E-02    0.05       1.0  T
  42    -83.7755098 -0.355130E-03  0.415E-02    0.05       1.0  T
  43    -83.7755584 -0.485799E-04  0.301E-02    0.05       1.0  T
  44    -83.7756061 -0.476855E-04  0.257E-02    0.05       1.0  T
  45    -83.7756277 -0.216175E-04  0.246E-02    0.05       1.0  T
  46    -83.7756419 -0.142524E-04  0.186E-02    0.05       1.0  T
  47    -83.7756430 -0.104642E-05  0.191E-02    0.05       1.0  T
  48    -83.7756519 -0.894966E-05  0.150E-02    0.05       1.1  T
  49    -83.7756568 -0.487367E-05  0.130E-02    0.05       1.3  T
  50    -83.7756645 -0.767245E-05  0.700E-03    0.05       2.5  T
  51    -83.7756674 -0.289279E-05  0.470E-03    0.05       3.6  T
  52    -83.7756690 -0.160192E-05  0.120E-03    0.05      14.3  T
  53    -83.7756690 -0.108456E-07  0.976E-04    0.05      17.6  T
  54    -83.7756690 -0.762755E-08  0.927E-04    0.05      18.5  T

   *** convergence criteria satisfied after 54 iterations ***

         #    Occupation            Energy/Eh            Energy/eV
      -------------------------------------------------------------
         1        2.0000           -0.8666132             -23.5817
       ...           ...                  ...                  ...
        69        2.0000           -0.4353302             -11.8459
        70        2.0000           -0.4334371             -11.7944
        71        2.0000           -0.4265359             -11.6066
        72        1.9984           -0.4225598             -11.4984
        73        1.9846           -0.4204075             -11.4399
        74        1.6573           -0.4172887             -11.3550
        75        1.4957           -0.4168242             -11.3424 (HOMO)
        76        0.6150           -0.4150201             -11.2933 (LUMO)
        77        0.2489           -0.4139381             -11.2638
        78        0.0002           -0.4069937             -11.0749
        79                         -0.3983449             -10.8395
        80                         -0.3970433             -10.8041
       ...                                ...                  ...
       141                          1.0452290              28.4421
      -------------------------------------------------------------
                  HL-Gap            0.0018041 Eh            0.0491 eV
             Fermi-level           -0.4157915 Eh          -11.3143 eV

 SCC (total)                   0 d,  0 h,  0 min,  0.564 sec
 SCC setup                      ...        0 min,  0.000 sec (  0.076%)
 Dispersion                     ...        0 min,  0.001 sec (  0.234%)
 classical contributions        ...        0 min,  0.001 sec (  0.149%)
 integral evaluation            ...        0 min,  0.010 sec (  1.725%)
 iterations                     ...        0 min,  0.531 sec ( 94.170%)
 molecular gradient             ...        0 min,  0.019 sec (  3.357%)
 printout                       ...        0 min,  0.002 sec (  0.284%)

         :::::::::::::::::::::::::::::::::::::::::::::::::::::
         ::                     SUMMARY                     ::
         :::::::::::::::::::::::::::::::::::::::::::::::::::::
         :: total energy             -82.875716820288 Eh    ::
         :: gradient norm              0.458896140932 Eh/a0 ::
         :: HOMO-LUMO gap              0.049092581931 eV    ::
         ::.................................................::
         :: SCC energy               -83.775668984831 Eh    ::
         :: -> isotropic ES            0.035461530582 Eh    ::
         :: -> anisotropic ES          0.011360677681 Eh    ::
         :: -> anisotropic XC          0.048335245578 Eh    ::
         :: -> dispersion             -0.049201172172 Eh    ::
         :: repulsion energy           0.900425133629 Eh    ::
         :: add. restraining           0.000000000000 Eh    ::
         :: total charge               0.000000000001 e     ::
         :::::::::::::::::::::::::::::::::::::::::::::::::::::

           -------------------------------------------------
          |                Property Printout                |
           -------------------------------------------------

    * Orbital Energies and Occupations

         #    Occupation            Energy/Eh            Energy/eV
      -------------------------------------------------------------
         1        2.0000           -0.8666132             -23.5817
       ...           ...                  ...                  ...
        63        2.0000           -0.4636156             -12.6156
        64        2.0000           -0.4496325             -12.2351
        65        2.0000           -0.4482575             -12.1977
        66        2.0000           -0.4439984             -12.0818
        67        2.0000           -0.4431865             -12.0597
        68        2.0000           -0.4410414             -12.0013
        69        2.0000           -0.4353302             -11.8459
        70        2.0000           -0.4334371             -11.7944
        71        2.0000           -0.4265359             -11.6066
        72        1.9984           -0.4225598             -11.4984
        73        1.9846           -0.4204075             -11.4399
        74        1.6573           -0.4172887             -11.3550
        75        1.4957           -0.4168242             -11.3424 (HOMO)
        76        0.6150           -0.4150201             -11.2933 (LUMO)
        77        0.2489           -0.4139381             -11.2638
        78        0.0002           -0.4069937             -11.0749
        79                         -0.3983449             -10.8395
        80                         -0.3970433             -10.8041
        81                         -0.3959432             -10.7742
        82                         -0.3946479             -10.7389
        83                         -0.3598557              -9.7922
        84                         -0.3568116              -9.7093
        85                         -0.3433954              -9.3443
        86                         -0.3342274              -9.0948
       ...                                ...                  ...
       141                          1.0452290              28.4421
      -------------------------------------------------------------
                  HL-Gap            0.0018041 Eh            0.0491 eV
             Fermi-level           -0.4157915 Eh          -11.3143 eV

     #   Z          covCN         q      C6AA      α(0)
     1   6 C        0.868    -0.006    35.316     9.923
     2   8 O        1.703    -0.033    14.915     5.214
     3   6 C        2.858     0.145    24.838     8.169
     4   6 C        1.987    -0.040    32.114     9.152
     5   6 C        2.894     0.140    24.940     8.188
     6   7 N        1.835    -0.220    26.634     7.648
     7   6 C        2.753     0.319    21.572     7.606
     8   8 O        0.857    -0.342    20.554     6.078
     9   6 C        1.971     0.007    30.896     8.976
    10   6 C        1.966     0.029    30.328     8.893
    11   6 C        1.900     0.026    30.452     8.912
    12   7 N        2.723     0.081    19.846     6.616
    13   6 C        1.897    -0.051    32.479     9.204
    14   6 C        1.840     0.050    29.869     8.829
    15   8 O        1.695    -0.119    16.109     5.419
    16   6 C        1.840     0.038    30.171     8.874
    17   6 C        1.895    -0.046    32.361     9.188
    18   6 C        1.995    -0.010    31.315     9.037
    19   6 C        2.971     0.007    27.849     8.656
    20   6 C        2.899     0.128    25.195     8.230
    21   7 N        1.837    -0.131    24.617     7.353
    22   6 C        2.918     0.119    25.380     8.261
    23   6 C        1.992    -0.002    31.106     9.007
    24   6 C        1.987    -0.023    31.664     9.087
    25   6 C        2.061     0.019    30.473     8.917
    26   6 C        2.907     0.115    25.475     8.276
    27  35 Br       1.068    -0.061   186.695    22.031
    28   6 C        2.066    -0.096    33.580     9.361
    29   6 C        2.944     0.007    27.874     8.659
    30   6 C        1.914     0.118    28.186     8.574
    31   7 N        0.911    -0.201    25.373     7.285
    32   6 C        1.937     0.090    28.846     8.674
    33   7 N        1.832    -0.152    25.074     7.420
    34   6 C        2.912     0.094    25.916     8.348

 Mol. C6AA /au·bohr⁶  :      34272.953129
 Mol. C8AA /au·bohr⁸  :    1006349.870072
 Mol. α(0) /au        :        294.064729


Wiberg/Mayer (AO) data.
largest (>0.10) Wiberg bond orders for each atom

 ---------------------------------------------------------------------------
     #   Z sym  total        # sym  WBO       # sym  WBO       # sym  WBO
 ---------------------------------------------------------------------------
     1   6 C    1.934 --     2 O    1.522     4 C    0.103
     2   8 O    2.624 --     1 C    1.522     3 C    1.027
     3   6 C    3.867 --     4 C    1.408    34 C    1.191     2 O    1.027
     4   6 C    3.653 --     3 C    1.408     5 C    1.282    18 C    0.428
                             1 C    0.103
     5   6 C    3.952 --     4 C    1.282    18 C    1.281     6 N    1.239
     6   7 N    3.005 --     5 C    1.239     7 C    1.231     8 O    0.136
     7   6 C    3.938 --     8 O    1.628     6 N    1.231     9 C    0.978
     8   8 O    2.140 --     7 C    1.628     6 N    0.136     9 C    0.113
     9   6 C    3.655 --    10 C    2.229     7 C    0.978    11 C    0.129
                             8 O    0.113
    10   6 C    3.815 --     9 C    2.229    11 C    1.386
    11   6 C    3.273 --    10 C    1.386    12 N    1.109    16 C    0.162
                            14 C    0.143     9 C    0.129    17 C    0.129
    12   7 N    3.540 --    17 C    1.116    11 C    1.109    13 C    1.071
                            16 C    0.109
    13   6 C    2.847 --    14 C    1.466    12 N    1.071    17 C    0.130
    14   6 C    2.981 --    13 C    1.466    15 O    1.166    11 C    0.143
                            17 C    0.111
    15   8 O    2.507 --    14 C    1.166    16 C    1.154
    16   6 C    2.953 --    17 C    1.364    15 O    1.154    11 C    0.162
                            12 N    0.109
    17   6 C    2.971 --    16 C    1.364    12 N    1.116    13 C    0.130
                            11 C    0.129    14 C    0.111
    18   6 C    3.680 --    19 C    1.429     5 C    1.281     4 C    0.428
    19   6 C    3.964 --    18 C    1.429    34 C    1.222    20 C    1.063
    20   6 C    3.945 --    21 N    1.650    19 C    1.063    29 C    0.980
    21   7 N    3.310 --    20 C    1.650    22 C    1.105    32 C    0.162
    22   6 C    3.955 --    28 C    1.347    23 C    1.308    21 N    1.105
    23   6 C    3.745 --    24 C    1.623    22 C    1.308    25 C    0.398
                            28 C    0.160    26 C    0.102
    24   6 C    3.807 --    25 C    1.643    23 C    1.623    28 C    0.444
    25   6 C    3.742 --    24 C    1.643    26 C    1.368    23 C    0.398
                            28 C    0.143
Note: The following floating-point exceptions are signalling: IEEE_UNDERFLOW_FLAG IEEE_DENORMAL
normal termination of xtb
    26   6 C    3.931 --    28 C    1.413    25 C    1.368    27 Br   0.995
                            23 C    0.102
    27  35 Br   1.201 --    26 C    0.995
    28   6 C    3.637 --    26 C    1.413    22 C    1.347    24 C    0.444
                            23 C    0.160    25 C    0.143
    29   6 C    3.903 --    32 C    1.565    30 C    1.104    20 C    0.980
    30   6 C    3.944 --    31 N    2.780    29 C    1.104
    31   7 N    2.985 --    30 C    2.780
    32   6 C    3.783 --    33 N    1.635    29 C    1.565    21 N    0.162
    33   7 N    3.253 --    32 C    1.635    34 C    1.190
    34   6 C    3.904 --    19 C    1.222     3 C    1.191    33 N    1.190
 ---------------------------------------------------------------------------

Topologies differ in total number of bonds
Writing topology from bond orders to xtbtopo.mol

molecular dipole:
                 x           y           z       tot (Debye)
 q only:       -0.405       0.695       0.036
   full:       -0.886       0.160      -0.497       2.615
molecular quadrupole (traceless):
                xx          xy          yy          xz          yz          zz
 q only:        3.911      20.535     -14.548       5.128      -3.896      10.637
  q+dip:       14.171      24.136     -25.990       2.512      -7.042      11.820
   full:       12.344      27.371     -29.895       1.935      -5.655      17.551


           -------------------------------------------------
          | TOTAL ENERGY              -82.875716820288 Eh   |
          | GRADIENT NORM               0.458896140932 Eh/α |
          | HOMO-LUMO GAP               0.049092581931 eV   |
           -------------------------------------------------

------------------------------------------------------------------------
 * finished run on 2026/07/23 at 16:39:42.457     
------------------------------------------------------------------------
 total:
 * wall-time:     0 d,  0 h,  0 min,  0.591 sec
 *  cpu-time:     0 d,  0 h,  0 min,  0.590 sec
 * ratio c/w:     0.997 speedup
 SCF:
 * wall-time:     0 d,  0 h,  0 min,  0.564 sec
 *  cpu-time:     0 d,  0 h,  0 min,  0.571 sec
 * ratio c/w:     1.012 speedup

