      -----------------------------------------------------------      
     |                   =====================                   |     
     |                           x T B                           |     
     |                   =====================                   |     
     |                         S. Grimme                         |     
     |          Mulliken Center for Theoretical Chemistry        |     
     |                    University of Bonn                     |     
      -----------------------------------------------------------      

   * xtb version 6.6.1 (unknown) compiled by 'builduser@buildhost' on 2023-08-07

   xtb is free software: you can redistribute it and/or modify it under
   the terms of the GNU Lesser General Public License as published by
   the Free Software Foundation, either version 3 of the License, or
   (at your option) any later version.
   
   xtb is distributed in the hope that it will be useful,
   but WITHOUT ANY WARRANTY; without even the implied warranty of
   MERCHANTABILITY or FITNESS FOR A PARTICULAR PURPOSE.  See the
   GNU Lesser General Public License for more details.
   
   Cite this work as:
   * C. Bannwarth, E. Caldeweyher, S. Ehlert, A. Hansen, P. Pracht,
     J. Seibert, S. Spicher, S. Grimme, WIREs Comput. Mol. Sci., 2020, 11,
     e01493. DOI: 10.1002/wcms.1493
   
   for GFN2-xTB:
   * C. Bannwarth, S. Ehlert and S. Grimme., J. Chem. Theory Comput., 2019,
     15, 1652-1671. DOI: 10.1021/acs.jctc.8b01176
   for GFN1-xTB:
   * S. Grimme, C. Bannwarth, P. Shushkov, J. Chem. Theory Comput., 2017,
     13, 1989-2009. DOI: 10.1021/acs.jctc.7b00118
   for GFN0-xTB:
   * P. Pracht, E. Caldeweyher, S. Ehlert, S. Grimme, ChemRxiv, 2019, preprint.
     DOI: 10.26434/chemrxiv.8326202.v1
   for GFN-FF:
   * S. Spicher and S. Grimme, Angew. Chem. Int. Ed., 2020, 59, 15665-15673.
     DOI: 10.1002/anie.202004239
   
   for ALPB and GBSA implicit solvation:
   * S. Ehlert, M. Stahn, S. Spicher, S. Grimme, J. Chem. Theory Comput.,
     2021, 17, 4250-4261. DOI: 10.1021/acs.jctc.1c00471
   
   for DFT-D4:
   * E. Caldeweyher, C. Bannwarth and S. Grimme, J. Chem. Phys., 2017,
     147, 034112. DOI: 10.1063/1.4993215
   * E. Caldeweyher, S. Ehlert, A. Hansen, H. Neugebauer, S. Spicher,
     C. Bannwarth and S. Grimme, J. Chem. Phys., 2019, 150, 154122.
     DOI: 10.1063/1.5090222
   * E. Caldeweyher, J.-M. Mewes, S. Ehlert and S. Grimme, Phys. Chem. Chem. Phys.
     2020, 22, 8499-8512. DOI: 10.1039/D0CP00502A
   
   for sTDA-xTB:
   * S. Grimme and C. Bannwarth, J. Chem. Phys., 2016, 145, 054103.
     DOI: 10.1063/1.4959605
   
   in the mass-spec context:
   * V. Asgeirsson, C. Bauer and S. Grimme, Chem. Sci., 2017, 8, 4879.
     DOI: 10.1039/c7sc00601b
   * J. Koopman and S. Grimme, ACS Omega 2019, 4, 12, 15120-15133.
     DOI: 10.1021/acsomega.9b02011
   
   for metadynamics refer to:
   * S. Grimme, J. Chem. Theory Comput., 2019, 155, 2847-2862
     DOI: 10.1021/acs.jctc.9b00143
   
   for SPH calculations refer to:
   * S. Spicher and S. Grimme, J. Chem. Theory Comput., 2021, 17, 1701-1714
     DOI: 10.1021/acs.jctc.0c01306
   
   with help from (in alphabetical order)
   P. Atkinson, C. Bannwarth, F. Bohle, G. Brandenburg, E. Caldeweyher
   M. Checinski, S. Dohm, S. Ehlert, S. Ehrlich, I. Gerasimov, C. Hölzer
   A. Katbashev, J. Koopman, C. Lavigne, S. Lehtola, F. März, M. Müller,
   F. Musil, H. Neugebauer, J. Pisarek, C. Plett, P. Pracht, F. Pultar,
   J. Seibert, P. Shushkov, S. Spicher, M. Stahn, M. Steiner, T. Strunk,
   J. Stückrath, T. Rose, and J. Unsleber
   
 * started run on 2026/07/23 at 16:39:21.598     

           -------------------------------------------------
          |                Calculation Setup                |
           -------------------------------------------------

          program call               : xtb /home/selva/covalent_quantum_benchmark/data/quantum/erbB_xyz/EGFR__CHEMBL91748__state00.xyz --gfn2 --chrg 0 --uhf 0 --iterations 300
          coordinate file            : /home/selva/covalent_quantum_benchmark/data/quantum/erbB_xyz/EGFR__CHEMBL91748__state00.xyz
          omp threads                :                    24

   ID    Z sym.   atoms
    1    6 C      1, 3-6, 9-12, 14, 16, 18-22, 24-26
    2    7 N      2, 8, 13, 15, 17
    3    8 O      7
    4   35 Br     23

           -------------------------------------------------
          |                 G F N 2 - x T B                 |
           -------------------------------------------------

        Reference                      10.1021/acs.jctc.8b01176
      * Hamiltonian:
        H0-scaling (s, p, d)           1.850000    2.230000    2.230000
        zeta-weighting                 0.500000
      * Dispersion:
        s8                             2.700000
        a1                             0.520000
        a2                             5.000000
        s9                             5.000000
      * Repulsion:
        kExp                           1.500000    1.000000
        rExp                           1.000000
      * Coulomb:
        alpha                          2.000000
        third order                    shell-resolved
        anisotropic                    true
        a3                             3.000000
        a5                             4.000000
        cn-shift                       1.200000
        cn-exp                         4.000000
        max-rad                        5.000000


          ...................................................
          :                      SETUP                      :
          :.................................................:
          :  # basis functions                 110          :
          :  # atomic orbitals                 109          :
          :  # shells                           53          :
          :  # electrons                       114          :
          :  max. iterations                   300          :
          :  Hamiltonian                  GFN2-xTB          :
          :  restarted?                      false          :
          :  GBSA solvation                  false          :
          :  PC potential                    false          :
          :  electronic temp.          300.0000000     K    :
          :  accuracy                    1.0000000          :
          :  -> integral cutoff          0.2500000E+02      :
          :  -> integral neglect         0.1000000E-07      :
          :  -> SCF convergence          0.1000000E-05 Eh   :
          :  -> wf. convergence          0.1000000E-03 e    :
          :  Broyden damping             0.4000000          :
          ...................................................

 iter      E             dE          RMSdq      gap      omega  full diag
   1    -61.8110717 -0.618111E+02  0.890E+00    0.35       0.0  T
   2    -45.3412225  0.164698E+02  0.141E+01    0.32       1.0  T
   3    -52.5327024 -0.719148E+01  0.106E+01    0.26       1.0  T
   4    -58.3604513 -0.582775E+01  0.836E+00    0.08       1.0  T
   5    -60.5749405 -0.221449E+01  0.673E+00    0.15       1.0  T
   6    -62.2474055 -0.167247E+01  0.426E+00    0.05       1.0  T
   7    -61.6695658  0.577840E+00  0.405E+00    0.01       1.0  T
   8    -60.3671025  0.130246E+01  0.527E+00    0.28       1.0  T
   9    -62.0915026 -0.172440E+01  0.385E+00    0.15       1.0  T
  10    -61.2913617  0.800141E+00  0.456E+00    0.05       1.0  T
  11    -61.7805797 -0.489218E+00  0.379E+00    0.06       1.0  T
  12    -62.7470190 -0.966439E+00  0.303E+00    0.06       1.0  T
  13    -62.8198270 -0.728081E-01  0.224E+00    0.04       1.0  T
  14    -62.6820685  0.137759E+00  0.258E+00    0.01       1.0  T
  15    -62.7625538 -0.804853E-01  0.243E+00    0.03       1.0  T
  16    -61.9007488  0.861805E+00  0.397E+00    0.12       1.0  T
  17    -61.8947116  0.603720E-02  0.397E+00    0.13       1.0  T
  18    -61.7481655  0.146546E+00  0.416E+00    0.15       1.0  T
  19    -61.7639751 -0.158096E-01  0.409E+00    0.12       1.0  T
  20    -62.7934249 -0.102945E+01  0.173E+00    0.01       1.0  T
  21    -62.7929995  0.425451E-03  0.169E+00    0.01       1.0  T
  22    -62.7279554  0.650441E-01  0.187E+00    0.01       1.0  T
  23    -62.8652997 -0.137344E+00  0.122E+00    0.04       1.0  T
  24    -62.7324085  0.132891E+00  0.184E+00    0.01       1.0  T
  25    -62.8030337 -0.706252E-01  0.157E+00    0.00       1.0  T
  26    -62.9584908 -0.155457E+00  0.600E-01    0.03       1.0  T
  27    -62.9529890  0.550179E-02  0.626E-01    0.02       1.0  T
  28    -62.8279780  0.125011E+00  0.135E+00    0.05       1.0  T
  29    -62.8271458  0.832168E-03  0.133E+00    0.05       1.0  T
  30    -62.8660537 -0.389079E-01  0.111E+00    0.04       1.0  T
  31    -62.9582197 -0.921661E-01  0.388E-01    0.03       1.0  T
  32    -62.9586206 -0.400899E-03  0.384E-01    0.04       1.0  T
  33    -62.9603725 -0.175186E-02  0.358E-01    0.04       1.0  T
  34    -62.9654699 -0.509738E-02  0.270E-01    0.04       1.0  T
  35    -62.9669799 -0.150999E-02  0.226E-01    0.04       1.0  T
  36    -62.9695735 -0.259366E-02  0.132E-01    0.04       1.0  T
  37    -62.9703780 -0.804443E-03  0.869E-02    0.04       1.0  T
  38    -62.9708693 -0.491312E-03  0.301E-02    0.04       1.0  T
  39    -62.9706979  0.171360E-03  0.534E-02    0.04       1.0  T
  40    -62.9708758 -0.177937E-03  0.294E-02    0.04       1.0  T
  41    -62.9708806 -0.479956E-05  0.274E-02    0.04       1.0  T
  42    -62.9708909 -0.102255E-04  0.252E-02    0.04       1.0  T
  43    -62.9709175 -0.266529E-04  0.158E-02    0.04       1.2  T
  44    -62.9709348 -0.172587E-04  0.318E-03    0.04       6.2  T
  45    -62.9709349 -0.148761E-06  0.240E-03    0.04       8.2  T
  46    -62.9709347  0.232153E-06  0.290E-03    0.04       6.8  T
  47    -62.9709351 -0.391444E-06  0.140E-03    0.04      14.0  T
  48    -62.9709352 -0.738270E-07  0.765E-04    0.04      25.6  T
  49    -62.9709352 -0.226651E-07  0.321E-04    0.04      61.1  T

   *** convergence criteria satisfied after 49 iterations ***

         #    Occupation            Energy/Eh            Energy/eV
      -------------------------------------------------------------
         1        2.0000           -0.8666239             -23.5820
       ...           ...                  ...                  ...
        51        2.0000           -0.4344256             -11.8213
        52        2.0000           -0.4320083             -11.7555
        53        2.0000           -0.4277366             -11.6393
        54        2.0000           -0.4253403             -11.5741
        55        1.9577           -0.4182922             -11.3823
        56        1.6845           -0.4162412             -11.3265
        57        1.3392           -0.4153210             -11.3015 (HOMO)
        58        0.6828           -0.4140256             -11.2662 (LUMO)
        59        0.3359           -0.4131295             -11.2418
        60        0.0000           -0.3989565             -10.8562
        61                         -0.3906973             -10.6314
        62                         -0.3905853             -10.6284
       ...                                ...                  ...
       109                          0.6189373              16.8421
      -------------------------------------------------------------
                  HL-Gap            0.0012954 Eh            0.0353 eV
             Fermi-level           -0.4146499 Eh          -11.2832 eV

 SCC (total)                   0 d,  0 h,  0 min,  0.466 sec
 SCC setup                      ...        0 min,  0.000 sec (  0.062%)
 Dispersion                     ...        0 min,  0.001 sec (  0.172%)
 classical contributions        ...        0 min,  0.001 sec (  0.120%)
 integral evaluation            ...        0 min,  0.010 sec (  2.111%)
 iterations                     ...        0 min,  0.438 sec ( 94.128%)
 molecular gradient             ...        0 min,  0.015 sec (  3.192%)
 printout                       ...        0 min,  0.001 sec (  0.207%)

         :::::::::::::::::::::::::::::::::::::::::::::::::::::
         ::                     SUMMARY                     ::
         :::::::::::::::::::::::::::::::::::::::::::::::::::::
         :: total energy             -62.251259771642 Eh    ::
         :: gradient norm              0.421613687852 Eh/a0 ::
         :: HOMO-LUMO gap              0.035250658060 eV    ::
         ::.................................................::
         :: SCC energy               -62.970935188307 Eh    ::
         :: -> isotropic ES            0.016725411940 Eh    ::
         :: -> anisotropic ES          0.006100773185 Eh    ::
         :: -> anisotropic XC          0.036350371561 Eh    ::
         :: -> dispersion             -0.034821615863 Eh    ::
         :: repulsion energy           0.720149200740 Eh    ::
         :: add. restraining           0.000000000000 Eh    ::
         :: total charge               0.000000000002 e     ::
         :::::::::::::::::::::::::::::::::::::::::::::::::::::

           -------------------------------------------------
          |                Property Printout                |
           -------------------------------------------------

    * Orbital Energies and Occupations

         #    Occupation            Energy/Eh            Energy/eV
      -------------------------------------------------------------
         1        2.0000           -0.8666239             -23.5820
       ...           ...                  ...                  ...
        45        2.0000           -0.4698529             -12.7853
        46        2.0000           -0.4569571             -12.4344
        47        2.0000           -0.4553954             -12.3919
        48        2.0000           -0.4512336             -12.2787
        49        2.0000           -0.4456323             -12.1263
        50        2.0000           -0.4420588             -12.0290
        51        2.0000           -0.4344256             -11.8213
        52        2.0000           -0.4320083             -11.7555
        53        2.0000           -0.4277366             -11.6393
        54        2.0000           -0.4253403             -11.5741
        55        1.9577           -0.4182922             -11.3823
        56        1.6845           -0.4162412             -11.3265
        57        1.3392           -0.4153210             -11.3015 (HOMO)
        58        0.6828           -0.4140256             -11.2662 (LUMO)
        59        0.3359           -0.4131295             -11.2418
        60        0.0000           -0.3989565             -10.8562
        61                         -0.3906973             -10.6314
        62                         -0.3905853             -10.6284
        63                         -0.3625707              -9.8661
        64                         -0.3562341              -9.6936
        65                         -0.3497809              -9.5180
        66                         -0.3456879              -9.4066
        67                         -0.3352474              -9.1225
        68                         -0.3096800              -8.4268
       ...                                ...                  ...
       109                          0.6189373              16.8421
      -------------------------------------------------------------
                  HL-Gap            0.0012954 Eh            0.0353 eV
             Fermi-level           -0.4146499 Eh          -11.2832 eV

     #   Z          covCN         q      C6AA      α(0)
     1   6 C        0.919    -0.087    38.229    10.352
     2   7 N        2.725     0.197    17.988     6.299
     3   6 C        0.917    -0.094    38.444    10.380
     4   6 C        1.907     0.047    29.910     8.832
     5   6 C        1.969    -0.016    31.480     9.061
     6   6 C        2.754     0.318    21.590     7.609
     7   8 O        0.857    -0.348    20.666     6.095
     8   7 N        1.835    -0.201    26.186     7.583
     9   6 C        2.893     0.150    24.748     8.156
    10   6 C        1.990    -0.010    31.315     9.037
    11   6 C        2.005    -0.025    31.702     9.093
    12   6 C        2.985     0.140    24.950     8.194
    13   7 N        1.843    -0.138    24.766     7.375
    14   6 C        1.957     0.152    27.396     8.453
    15   7 N        1.831    -0.167    25.414     7.470
    16   6 C        2.892     0.195    23.856     8.008
    17   7 N        1.829    -0.176    25.618     7.500
    18   6 C        2.891     0.134    25.070     8.209
    19   6 C        1.993     0.018    30.582     8.931
    20   6 C        1.986    -0.025    31.704     9.093
    21   6 C        2.063     0.012    30.659     8.944
    22   6 C        2.905     0.112    25.527     8.284
    23  35 Br       1.068    -0.069   186.906    22.043
    24   6 C        2.063    -0.086    33.301     9.321
    25   6 C        2.980     0.009    27.815     8.651
    26   6 C        1.998    -0.042    32.153     9.157

 Mol. C6AA /au·bohr⁶  :      21135.455244
 Mol. C8AA /au·bohr⁸  :     634315.303551
 Mol. α(0) /au        :        232.132263


Wiberg/Mayer (AO) data.
largest (>0.10) Wiberg bond orders for each atom

 ---------------------------------------------------------------------------
     #   Z sym  total        # sym  WBO       # sym  WBO       # sym  WBO
 ---------------------------------------------------------------------------
     1   6 C    2.053 --     2 N    1.323     3 C    0.590
     2   7 N    3.769 --     1 C    1.323     3 C    1.297     4 C    1.114
     3   6 C    2.077 --     2 N    1.297     1 C    0.590     5 C    0.105
     4   6 C    3.802 --     5 C    2.476     2 N    1.114
     5   6 C    3.790 --     4 C    2.476     6 C    0.981     3 C    0.105
     6   6 C    3.928 --     7 O    1.669     8 N    1.198     5 C    0.981
     7   8 O    2.021 --     6 C    1.669
     8   7 N    2.839 --     9 C    1.258     6 C    1.198    11 C    0.124
     9   6 C    3.899 --    26 C    1.282     8 N    1.258    10 C    1.208
    10   6 C    3.706 --    11 C    1.766     9 C    1.208    26 C    0.213
                            14 C    0.153
    11   6 C    3.510 --    10 C    1.766    12 C    1.265    26 C    0.150
                             8 N    0.124
    12   6 C    3.883 --    11 C    1.265    13 N    1.238    25 C    1.129
    13   7 N    3.147 --    14 C    1.586    12 C    1.238
    14   6 C    3.793 --    15 N    1.599    13 N    1.586    10 C    0.153
                            17 N    0.142
    15   7 N    3.159 --    14 C    1.599    16 C    1.220
    16   6 C    3.954 --    17 N    1.337    15 N    1.220    25 C    1.166
    17   7 N    3.092 --    16 C    1.337    18 C    1.189    14 C    0.142
    18   6 C    3.940 --    24 C    1.305    19 C    1.282    17 N    1.189
    19   6 C    3.714 --    20 C    1.647    18 C    1.282    21 C    0.377
                            24 C    0.154
    20   6 C    3.779 --    19 C    1.647    21 C    1.622    24 C    0.415
    21   6 C    3.707 --    20 C    1.622    22 C    1.364    19 C    0.377
                            24 C    0.158
    22   6 C    3.928 --    24 C    1.420    21 C    1.364    23 Br   0.993
    23  35 Br   1.194 --    22 C    0.993
    24   6 C    3.579 --    22 C    1.420    18 C    1.305    20 C    0.415
                            21 C    0.158    19 C    0.154
    25   6 C    3.948 --    26 C    1.396    16 C    1.166    12 C    1.129
    26   6 C    3.381 --    25 C    1.396     9 C    1.282    10 C    0.213
                            11 C    0.150
 ---------------------------------------------------------------------------

Topologies differ in total number of bonds
Writing topology from bond orders to xtbtopo.mol

molecular dipole:
                 x           y           z       tot (Debye)
 q only:        0.488      -0.221      -0.773
   full:        0.090      -0.219      -1.042       2.717
molecular quadrupole (traceless):
                xx          xy          yy          xz          yz          zz
 q only:       -0.981       3.289      -2.379       6.067      -5.710       3.359
  q+dip:        4.344       4.350     -11.243       6.344     -14.949       6.899
   full:        2.444       1.794      -8.112      10.393     -20.195       5.668


           -------------------------------------------------
          | TOTAL ENERGY              -62.251259771642 Eh   |
          | GRADIENT NORM               0.421613687852 Eh/α |
          | HOMO-LUMO GAP               0.035250658060 eV   |
Note: The following floating-point exceptions are signalling: IEEE_UNDERFLOW_FLAG IEEE_DENORMAL
normal termination of xtb
           -------------------------------------------------

------------------------------------------------------------------------
 * finished run on 2026/07/23 at 16:39:22.078     
------------------------------------------------------------------------
 total:
 * wall-time:     0 d,  0 h,  0 min,  0.479 sec
 *  cpu-time:     0 d,  0 h,  0 min,  0.398 sec
 * ratio c/w:     0.831 speedup
 SCF:
 * wall-time:     0 d,  0 h,  0 min,  0.466 sec
 *  cpu-time:     0 d,  0 h,  0 min,  0.379 sec
 * ratio c/w:     0.813 speedup

