      -----------------------------------------------------------      
     |                   =====================                   |     
     |                           x T B                           |     
     |                   =====================                   |     
     |                         S. Grimme                         |     
     |          Mulliken Center for Theoretical Chemistry        |     
     |                    University of Bonn                     |     
      -----------------------------------------------------------      

   * xtb version 6.6.1 (unknown) compiled by 'builduser@buildhost' on 2023-08-07

   xtb is free software: you can redistribute it and/or modify it under
   the terms of the GNU Lesser General Public License as published by
   the Free Software Foundation, either version 3 of the License, or
   (at your option) any later version.
   
   xtb is distributed in the hope that it will be useful,
   but WITHOUT ANY WARRANTY; without even the implied warranty of
   MERCHANTABILITY or FITNESS FOR A PARTICULAR PURPOSE.  See the
   GNU Lesser General Public License for more details.
   
   Cite this work as:
   * C. Bannwarth, E. Caldeweyher, S. Ehlert, A. Hansen, P. Pracht,
     J. Seibert, S. Spicher, S. Grimme, WIREs Comput. Mol. Sci., 2020, 11,
     e01493. DOI: 10.1002/wcms.1493
   
   for GFN2-xTB:
   * C. Bannwarth, S. Ehlert and S. Grimme., J. Chem. Theory Comput., 2019,
     15, 1652-1671. DOI: 10.1021/acs.jctc.8b01176
   for GFN1-xTB:
   * S. Grimme, C. Bannwarth, P. Shushkov, J. Chem. Theory Comput., 2017,
     13, 1989-2009. DOI: 10.1021/acs.jctc.7b00118
   for GFN0-xTB:
   * P. Pracht, E. Caldeweyher, S. Ehlert, S. Grimme, ChemRxiv, 2019, preprint.
     DOI: 10.26434/chemrxiv.8326202.v1
   for GFN-FF:
   * S. Spicher and S. Grimme, Angew. Chem. Int. Ed., 2020, 59, 15665-15673.
     DOI: 10.1002/anie.202004239
   
   for ALPB and GBSA implicit solvation:
   * S. Ehlert, M. Stahn, S. Spicher, S. Grimme, J. Chem. Theory Comput.,
     2021, 17, 4250-4261. DOI: 10.1021/acs.jctc.1c00471
   
   for DFT-D4:
   * E. Caldeweyher, C. Bannwarth and S. Grimme, J. Chem. Phys., 2017,
     147, 034112. DOI: 10.1063/1.4993215
   * E. Caldeweyher, S. Ehlert, A. Hansen, H. Neugebauer, S. Spicher,
     C. Bannwarth and S. Grimme, J. Chem. Phys., 2019, 150, 154122.
     DOI: 10.1063/1.5090222
   * E. Caldeweyher, J.-M. Mewes, S. Ehlert and S. Grimme, Phys. Chem. Chem. Phys.
     2020, 22, 8499-8512. DOI: 10.1039/D0CP00502A
   
   for sTDA-xTB:
   * S. Grimme and C. Bannwarth, J. Chem. Phys., 2016, 145, 054103.
     DOI: 10.1063/1.4959605
   
   in the mass-spec context:
   * V. Asgeirsson, C. Bauer and S. Grimme, Chem. Sci., 2017, 8, 4879.
     DOI: 10.1039/c7sc00601b
   * J. Koopman and S. Grimme, ACS Omega 2019, 4, 12, 15120-15133.
     DOI: 10.1021/acsomega.9b02011
   
   for metadynamics refer to:
   * S. Grimme, J. Chem. Theory Comput., 2019, 155, 2847-2862
     DOI: 10.1021/acs.jctc.9b00143
   
   for SPH calculations refer to:
   * S. Spicher and S. Grimme, J. Chem. Theory Comput., 2021, 17, 1701-1714
     DOI: 10.1021/acs.jctc.0c01306
   
   with help from (in alphabetical order)
   P. Atkinson, C. Bannwarth, F. Bohle, G. Brandenburg, E. Caldeweyher
   M. Checinski, S. Dohm, S. Ehlert, S. Ehrlich, I. Gerasimov, C. Hölzer
   A. Katbashev, J. Koopman, C. Lavigne, S. Lehtola, F. März, M. Müller,
   F. Musil, H. Neugebauer, J. Pisarek, C. Plett, P. Pracht, F. Pultar,
   J. Seibert, P. Shushkov, S. Spicher, M. Stahn, M. Steiner, T. Strunk,
   J. Stückrath, T. Rose, and J. Unsleber
   
 * started run on 2026/07/23 at 16:41:30.750     

           -------------------------------------------------
          |                Calculation Setup                |
           -------------------------------------------------

          program call               : xtb /home/selva/covalent_quantum_benchmark/data/quantum/erbB_xyz/ERBB2__CHEMBL203599__state01.xyz --gfn2 --chrg 0 --uhf 0 --iterations 300
          coordinate file            : /home/selva/covalent_quantum_benchmark/data/quantum/erbB_xyz/ERBB2__CHEMBL203599__state01.xyz
          omp threads                :                    24

   ID    Z sym.   atoms
    1    6 C      1, 3, 4, 6-10, 13-16, 18-21, 23, 25, 27, 29, 30, 32, 33
    2    7 N      2, 5, 12, 17, 26, 28, 31
    3    8 O      11
    4    9 F      22
    5   17 Cl     24

           -------------------------------------------------
          |                 G F N 2 - x T B                 |
           -------------------------------------------------

        Reference                      10.1021/acs.jctc.8b01176
      * Hamiltonian:
        H0-scaling (s, p, d)           1.850000    2.230000    2.230000
        zeta-weighting                 0.500000
      * Dispersion:
        s8                             2.700000
        a1                             0.520000
        a2                             5.000000
        s9                             5.000000
      * Repulsion:
        kExp                           1.500000    1.000000
        rExp                           1.000000
      * Coulomb:
        alpha                          2.000000
        third order                    shell-resolved
        anisotropic                    true
        a3                             3.000000
        a5                             4.000000
        cn-shift                       1.200000
        cn-exp                         4.000000
        max-rad                        5.000000


          ...................................................
          :                      SETUP                      :
          :.................................................:
          :  # basis functions                 138          :
          :  # atomic orbitals                 137          :
          :  # shells                           67          :
          :  # electrons                       147          :
          :  max. iterations                   300          :
          :  Hamiltonian                  GFN2-xTB          :
          :  restarted?                      false          :
          :  GBSA solvation                  false          :
          :  PC potential                    false          :
          :  electronic temp.          300.0000000     K    :
          :  accuracy                    1.0000000          :
          :  -> integral cutoff          0.2500000E+02      :
          :  -> integral neglect         0.1000000E-07      :
          :  -> SCF convergence          0.1000000E-05 Eh   :
          :  -> wf. convergence          0.1000000E-03 e    :
          :  Broyden damping             0.4000000          :
          ...................................................

 iter      E             dE          RMSdq      gap      omega  full diag
   1    -81.7869024 -0.817869E+02  0.789E+00    0.20       0.0  T
   2    -74.7418065  0.704510E+01  0.102E+01    0.16       1.0  T
   3    -67.1388881  0.760292E+01  0.103E+01    0.18       1.0  T
   4    -54.7059186  0.124330E+02  0.118E+01    0.18       1.0  T
   5    -71.8613450 -0.171554E+02  0.882E+00    0.53       1.0  T
   6    -79.7457638 -0.788442E+01  0.621E+00    0.38       1.0  T
   7    -81.5857186 -0.183995E+01  0.404E+00    0.15       1.0  T
   8    -81.6507384 -0.650198E-01  0.347E+00    0.08       1.0  T
   9    -81.2064212  0.444317E+00  0.391E+00    0.18       1.0  T
  10    -81.7813912 -0.574970E+00  0.301E+00    0.48       1.0  T
  11    -82.0177572 -0.236366E+00  0.245E+00    0.32       1.0  T
  12    -82.0903803 -0.726231E-01  0.245E+00    0.07       1.0  T
  13    -82.3755235 -0.285143E+00  0.148E+00    0.11       1.0  T
  14    -82.4043831 -0.288596E-01  0.128E+00    0.13       1.0  T
  15    -82.3162110  0.881721E-01  0.175E+00    0.02       1.0  T
  16    -82.3519504 -0.357393E-01  0.158E+00    0.03       1.0  T
  17    -82.3608186 -0.886819E-02  0.137E+00    0.05       1.0  T
  18    -82.3733187 -0.125002E-01  0.129E+00    0.03       1.0  T
  19    -82.4534887 -0.801700E-01  0.551E-01    0.06       1.0  T
  20    -82.4293979  0.240909E-01  0.805E-01    0.06       1.0  T
  21    -82.3975814  0.318164E-01  0.126E+00    0.04       1.0  T
  22    -82.3720725  0.255089E-01  0.137E+00    0.03       1.0  T
  23    -82.4221680 -0.500955E-01  0.100E+00    0.03       1.0  T
  24    -82.4353124 -0.131443E-01  0.715E-01    0.06       1.0  T
  25    -82.4551575 -0.198451E-01  0.472E-01    0.05       1.0  T
  26    -82.4621561 -0.699862E-02  0.215E-01    0.07       1.0  T
  27    -82.4653881 -0.323200E-02  0.121E-01    0.07       1.0  T
  28    -82.4650385  0.349555E-03  0.125E-01    0.07       1.0  T
  29    -82.4656400 -0.601492E-03  0.785E-02    0.06       1.0  T
  30    -82.4656324  0.761699E-05  0.768E-02    0.07       1.0  T
  31    -82.4660658 -0.433366E-03  0.515E-02    0.06       1.0  T
  32    -82.4660873 -0.215211E-04  0.290E-02    0.06       1.0  T
  33    -82.4660920 -0.468828E-05  0.376E-02    0.06       1.0  T
  34    -82.4660533  0.386941E-04  0.401E-02    0.06       1.0  T
  35    -82.4661174 -0.641099E-04  0.262E-02    0.06       1.0  T
  36    -82.4661456 -0.281995E-04  0.155E-02    0.06       1.1  T
  37    -82.4661543 -0.868347E-05  0.119E-02    0.06       1.5  T
  38    -82.4661598 -0.553471E-05  0.854E-03    0.06       2.0  T
  39    -82.4661656 -0.575707E-05  0.341E-03    0.06       5.1  T
  40    -82.4661650  0.576462E-06  0.417E-03    0.06       4.2  T
  41    -82.4661636  0.139819E-05  0.552E-03    0.06       3.2  T
  42    -82.4661650 -0.141294E-05  0.385E-03    0.06       4.5  T
  43    -82.4661663 -0.126085E-05  0.122E-03    0.06      14.2  T
  44    -82.4661664 -0.109930E-06  0.579E-04    0.06      30.1  T
  45    -82.4661664  0.320192E-08  0.488E-04    0.06      35.6  T

   *** convergence criteria satisfied after 45 iterations ***

         #    Occupation            Energy/Eh            Energy/eV
      -------------------------------------------------------------
         1        2.0000           -1.0833555             -29.4796
       ...           ...                  ...                  ...
        68        2.0000           -0.4344640             -11.8224
        69        1.9995           -0.4270958             -11.6219
        70        1.9956           -0.4249624             -11.5638
        71        1.9556           -0.4227336             -11.5032
        72        1.9444           -0.4225114             -11.4971
        73        1.7283           -0.4208230             -11.4512
        74        1.0238           -0.4187863             -11.3958 (HOMO)
        75        0.2411           -0.4164934             -11.3334 (LUMO)
        76        0.1117           -0.4156523             -11.3105
        77                         -0.3986247             -10.8471
        78                         -0.3886093             -10.5746
        79                         -0.3830944             -10.4245
       ...                                ...                  ...
       137                          1.3076649              35.5834
      -------------------------------------------------------------
                  HL-Gap            0.0022930 Eh            0.0624 eV
             Fermi-level           -0.4187285 Eh          -11.3942 eV

 SCC (total)                   0 d,  0 h,  0 min,  0.638 sec
 SCC setup                      ...        0 min,  0.000 sec (  0.048%)
 Dispersion                     ...        0 min,  0.001 sec (  0.205%)
 classical contributions        ...        0 min,  0.001 sec (  0.082%)
 integral evaluation            ...        0 min,  0.006 sec (  0.978%)
 iterations                     ...        0 min,  0.590 sec ( 92.562%)
 molecular gradient             ...        0 min,  0.031 sec (  4.804%)
 printout                       ...        0 min,  0.008 sec (  1.314%)

         :::::::::::::::::::::::::::::::::::::::::::::::::::::
         ::                     SUMMARY                     ::
         :::::::::::::::::::::::::::::::::::::::::::::::::::::
         :: total energy             -81.596500948301 Eh    ::
         :: gradient norm              0.476005596935 Eh/a0 ::
         :: HOMO-LUMO gap              0.062394968380 eV    ::
         ::.................................................::
         :: SCC energy               -82.466166378539 Eh    ::
         :: -> isotropic ES            0.032005399144 Eh    ::
         :: -> anisotropic ES          0.008851693114 Eh    ::
         :: -> anisotropic XC          0.046785836588 Eh    ::
         :: -> dispersion             -0.044075330772 Eh    ::
         :: repulsion energy           0.870017629989 Eh    ::
         :: add. restraining           0.000000000000 Eh    ::
         :: total charge              -0.000000000000 e     ::
         :::::::::::::::::::::::::::::::::::::::::::::::::::::

           -------------------------------------------------
          |                Property Printout                |
           -------------------------------------------------

    * Orbital Energies and Occupations

         #    Occupation            Energy/Eh            Energy/eV
      -------------------------------------------------------------
         1        2.0000           -1.0833555             -29.4796
       ...           ...                  ...                  ...
        62        2.0000           -0.4517475             -12.2927
        63        2.0000           -0.4480349             -12.1916
        64        2.0000           -0.4471739             -12.1682
        65        2.0000           -0.4378807             -11.9153
        66        2.0000           -0.4369910             -11.8911
        67        2.0000           -0.4360935             -11.8667
        68        2.0000           -0.4344640             -11.8224
        69        1.9995           -0.4270958             -11.6219
        70        1.9956           -0.4249624             -11.5638
        71        1.9556           -0.4227336             -11.5032
        72        1.9444           -0.4225114             -11.4971
        73        1.7283           -0.4208230             -11.4512
        74        1.0238           -0.4187863             -11.3958 (HOMO)
        75        0.2411           -0.4164934             -11.3334 (LUMO)
        76        0.1117           -0.4156523             -11.3105
        77                         -0.3986247             -10.8471
        78                         -0.3886093             -10.5746
        79                         -0.3830944             -10.4245
        80                         -0.3700074             -10.0684
        81                         -0.3655041              -9.9459
        82                         -0.3561130              -9.6903
        83                         -0.3494592              -9.5093
        84                         -0.3391635              -9.2291
        85                         -0.3273667              -8.9081
       ...                                ...                  ...
       137                          1.3076649              35.5834
      -------------------------------------------------------------
                  HL-Gap            0.0022930 Eh            0.0624 eV
             Fermi-level           -0.4187285 Eh          -11.3942 eV

     #   Z          covCN         q      C6AA      α(0)
     1   6 C        0.929    -0.072    37.794    10.298
     2   7 N        2.719     0.144    18.805     6.440
     3   6 C        1.907    -0.035    32.041     9.142
     4   6 C        1.904    -0.032    31.977     9.133
     5   7 N        2.720     0.086    19.757     6.602
     6   6 C        1.902     0.008    30.906     8.978
     7   6 C        1.953     0.012    30.775     8.959
     8   6 C        1.963     0.049    29.822     8.819
     9   6 C        1.970     0.016    30.655     8.941
    10   6 C        2.795     0.325    21.475     7.591
    11   8 O        0.860    -0.340    20.519     6.073
    12   7 N        1.839    -0.206    26.303     7.600
    13   6 C        2.870     0.206    23.632     7.969
    14   6 C        1.981    -0.068    32.889     9.261
    15   6 C        2.970     0.015    27.684     8.631
    16   6 C        2.853     0.201    23.732     7.984
    17   7 N        1.835    -0.125    24.486     7.333
    18   6 C        2.929     0.130    25.159     8.226
    19   6 C        1.993    -0.046    32.280     9.175
    20   6 C        1.987    -0.020    31.585     9.076
    21   6 C        2.806     0.179    24.159     8.053
    22   9 F        0.787    -0.170    10.928     3.905
    23   6 C        2.878     0.088    26.035     8.365
    24  17 Cl       0.962    -0.072   101.412    15.407
    25   6 C        2.029    -0.070    32.903     9.264
    26   7 N        1.831    -0.184    25.800     7.527
    27   6 C        1.900     0.166    27.118     8.410
    28   7 N        1.834    -0.135    24.713     7.367
    29   6 C        2.950     0.124    25.289     8.248
    30   6 C        1.927     0.022    30.522     8.922
    31   7 N        1.832    -0.106    24.088     7.273
    32   6 C        1.899    -0.053    32.530     9.211
    33   6 C        1.907    -0.036    32.075     9.146

 Mol. C6AA /au·bohr⁶  :      30819.326057
 Mol. C8AA /au·bohr⁸  :     853938.057382
 Mol. α(0) /au        :        277.329734


Wiberg/Mayer (AO) data.
largest (>0.10) Wiberg bond orders for each atom

 ---------------------------------------------------------------------------
     #   Z sym  total        # sym  WBO       # sym  WBO       # sym  WBO
 ---------------------------------------------------------------------------
     1   6 C    2.448 --     2 N    1.531    33 C    0.319     3 C    0.262
                            32 C    0.175     4 C    0.116
     2   7 N    3.640 --     1 C    1.531     3 C    0.991    33 C    0.985
     3   6 C    3.181 --     4 C    1.455     2 N    0.991     1 C    0.262
                            33 C    0.192    32 C    0.121
     4   6 C    3.169 --     3 C    1.455     5 N    1.108    32 C    0.207
                             1 C    0.116
     5   7 N    3.584 --     6 C    1.202     4 C    1.108    32 C    1.097
     6   6 C    3.424 --     7 C    1.718     5 N    1.202     9 C    0.109
                            33 C    0.105
     7   6 C    3.364 --     6 C    1.718     8 C    1.271
     8   6 C    3.945 --     9 C    2.491     7 C    1.271
     9   6 C    3.856 --     8 C    2.491    10 C    1.037     6 C    0.109
    10   6 C    3.938 --    11 O    1.668    12 N    1.138     9 C    1.037
    11   8 O    2.038 --    10 C    1.668
    12   7 N    2.981 --    13 C    1.485    10 C    1.138
    13   6 C    3.920 --    12 N    1.485    31 N    1.183    14 C    1.090
    14   6 C    3.554 --    15 C    1.678    13 C    1.090    30 C    0.357
                            31 N    0.106
    15   6 C    3.961 --    14 C    1.678    29 C    1.028    16 C    0.995
    16   6 C    3.948 --    17 N    1.615    26 N    1.148    15 C    0.995
    17   7 N    3.306 --    16 C    1.615    18 C    1.094    27 C    0.180
                            26 N    0.121
    18   6 C    3.938 --    25 C    1.344    19 C    1.295    17 N    1.094
    19   6 C    3.665 --    20 C    1.679    18 C    1.295    25 C    0.363
                            23 C    0.111
    20   6 C    3.413 --    19 C    1.679    21 C    1.379    25 C    0.159
    21   6 C    3.841 --    20 C    1.379    23 C    1.276    22 F    0.990
    22   9 F    1.146 --    21 C    0.990
    23   6 C    3.897 --    25 C    1.429    21 C    1.276    24 Cl   1.001
                            19 C    0.111
    24  17 Cl   1.187 --    23 C    1.001
    25   6 C    3.483 --    23 C    1.429    18 C    1.344    19 C    0.363
                            20 C    0.159
    26   7 N    3.181 --    27 C    1.639    16 C    1.148    17 N    0.121
    27   6 C    3.801 --    28 N    1.660    26 N    1.639    17 N    0.180
    28   7 N    3.151 --    27 C    1.660    29 C    1.168
    29   6 C    3.823 --    30 C    1.398    28 N    1.168    15 C    1.028
    30   6 C    3.671 --    31 N    1.675    29 C    1.398    14 C    0.357
    31   7 N    3.299 --    30 C    1.675    13 C    1.183    14 C    0.106
    32   6 C    3.193 --    33 C    1.440     5 N    1.097     4 C    0.207
                             1 C    0.175     3 C    0.121
    33   6 C    3.207 --    32 C    1.440     2 N    0.985     1 C    0.319
                             3 C    0.192     6 C    0.105
 ---------------------------------------------------------------------------
Note: The following floating-point exceptions are signalling: IEEE_UNDERFLOW_FLAG IEEE_DENORMAL
normal termination of xtb

Topologies differ in total number of bonds
Writing topology from bond orders to xtbtopo.mol

molecular dipole:
                 x           y           z       tot (Debye)
 q only:       -0.392      -0.332      -0.227
   full:        0.343       0.120       0.423       1.417
molecular quadrupole (traceless):
                xx          xy          yy          xz          yz          zz
 q only:        7.047       0.593     -20.450       2.075     -11.538      13.403
  q+dip:        7.858       8.817     -20.269       6.716      -6.666      12.411
   full:        8.719      10.109     -20.530       4.398     -10.271      11.811


           -------------------------------------------------
          | TOTAL ENERGY              -81.596500948301 Eh   |
          | GRADIENT NORM               0.476005596935 Eh/α |
          | HOMO-LUMO GAP               0.062394968380 eV   |
           -------------------------------------------------

------------------------------------------------------------------------
 * finished run on 2026/07/23 at 16:41:31.410     
------------------------------------------------------------------------
 total:
 * wall-time:     0 d,  0 h,  0 min,  0.660 sec
 *  cpu-time:     0 d,  0 h,  0 min,  0.651 sec
 * ratio c/w:     0.987 speedup
 SCF:
 * wall-time:     0 d,  0 h,  0 min,  0.638 sec
 *  cpu-time:     0 d,  0 h,  0 min,  0.629 sec
 * ratio c/w:     0.985 speedup

