      -----------------------------------------------------------      
     |                   =====================                   |     
     |                           x T B                           |     
     |                   =====================                   |     
     |                         S. Grimme                         |     
     |          Mulliken Center for Theoretical Chemistry        |     
     |                    University of Bonn                     |     
      -----------------------------------------------------------      

   * xtb version 6.6.1 (unknown) compiled by 'builduser@buildhost' on 2023-08-07

   xtb is free software: you can redistribute it and/or modify it under
   the terms of the GNU Lesser General Public License as published by
   the Free Software Foundation, either version 3 of the License, or
   (at your option) any later version.
   
   xtb is distributed in the hope that it will be useful,
   but WITHOUT ANY WARRANTY; without even the implied warranty of
   MERCHANTABILITY or FITNESS FOR A PARTICULAR PURPOSE.  See the
   GNU Lesser General Public License for more details.
   
   Cite this work as:
   * C. Bannwarth, E. Caldeweyher, S. Ehlert, A. Hansen, P. Pracht,
     J. Seibert, S. Spicher, S. Grimme, WIREs Comput. Mol. Sci., 2020, 11,
     e01493. DOI: 10.1002/wcms.1493
   
   for GFN2-xTB:
   * C. Bannwarth, S. Ehlert and S. Grimme., J. Chem. Theory Comput., 2019,
     15, 1652-1671. DOI: 10.1021/acs.jctc.8b01176
   for GFN1-xTB:
   * S. Grimme, C. Bannwarth, P. Shushkov, J. Chem. Theory Comput., 2017,
     13, 1989-2009. DOI: 10.1021/acs.jctc.7b00118
   for GFN0-xTB:
   * P. Pracht, E. Caldeweyher, S. Ehlert, S. Grimme, ChemRxiv, 2019, preprint.
     DOI: 10.26434/chemrxiv.8326202.v1
   for GFN-FF:
   * S. Spicher and S. Grimme, Angew. Chem. Int. Ed., 2020, 59, 15665-15673.
     DOI: 10.1002/anie.202004239
   
   for ALPB and GBSA implicit solvation:
   * S. Ehlert, M. Stahn, S. Spicher, S. Grimme, J. Chem. Theory Comput.,
     2021, 17, 4250-4261. DOI: 10.1021/acs.jctc.1c00471
   
   for DFT-D4:
   * E. Caldeweyher, C. Bannwarth and S. Grimme, J. Chem. Phys., 2017,
     147, 034112. DOI: 10.1063/1.4993215
   * E. Caldeweyher, S. Ehlert, A. Hansen, H. Neugebauer, S. Spicher,
     C. Bannwarth and S. Grimme, J. Chem. Phys., 2019, 150, 154122.
     DOI: 10.1063/1.5090222
   * E. Caldeweyher, J.-M. Mewes, S. Ehlert and S. Grimme, Phys. Chem. Chem. Phys.
     2020, 22, 8499-8512. DOI: 10.1039/D0CP00502A
   
   for sTDA-xTB:
   * S. Grimme and C. Bannwarth, J. Chem. Phys., 2016, 145, 054103.
     DOI: 10.1063/1.4959605
   
   in the mass-spec context:
   * V. Asgeirsson, C. Bauer and S. Grimme, Chem. Sci., 2017, 8, 4879.
     DOI: 10.1039/c7sc00601b
   * J. Koopman and S. Grimme, ACS Omega 2019, 4, 12, 15120-15133.
     DOI: 10.1021/acsomega.9b02011
   
   for metadynamics refer to:
   * S. Grimme, J. Chem. Theory Comput., 2019, 155, 2847-2862
     DOI: 10.1021/acs.jctc.9b00143
   
   for SPH calculations refer to:
   * S. Spicher and S. Grimme, J. Chem. Theory Comput., 2021, 17, 1701-1714
     DOI: 10.1021/acs.jctc.0c01306
   
   with help from (in alphabetical order)
   P. Atkinson, C. Bannwarth, F. Bohle, G. Brandenburg, E. Caldeweyher
   M. Checinski, S. Dohm, S. Ehlert, S. Ehrlich, I. Gerasimov, C. Hölzer
   A. Katbashev, J. Koopman, C. Lavigne, S. Lehtola, F. März, M. Müller,
   F. Musil, H. Neugebauer, J. Pisarek, C. Plett, P. Pracht, F. Pultar,
   J. Seibert, P. Shushkov, S. Spicher, M. Stahn, M. Steiner, T. Strunk,
   J. Stückrath, T. Rose, and J. Unsleber
   
 * started run on 2026/07/23 at 16:39:58.274     

           -------------------------------------------------
          |                Calculation Setup                |
           -------------------------------------------------

          program call               : xtb /home/selva/covalent_quantum_benchmark/data/quantum/erbB_xyz/ERBB2__CHEMBL1630107__state00.xyz --gfn2 --chrg 0 --uhf 0 --iterations 300
          coordinate file            : /home/selva/covalent_quantum_benchmark/data/quantum/erbB_xyz/ERBB2__CHEMBL1630107__state00.xyz
          omp threads                :                    24

   ID    Z sym.   atoms
    1    8 O      1, 22, 36, 38
    2    6 C      2-12, 14, 16, 18-21, 23-28, 30, 31, 33-35
    3    7 N      13, 15, 17, 37
    4    9 F      29
    5   17 Cl     32

           -------------------------------------------------
          |                 G F N 2 - x T B                 |
           -------------------------------------------------

        Reference                      10.1021/acs.jctc.8b01176
      * Hamiltonian:
        H0-scaling (s, p, d)           1.850000    2.230000    2.230000
        zeta-weighting                 0.500000
      * Dispersion:
        s8                             2.700000
        a1                             0.520000
        a2                             5.000000
        s9                             5.000000
      * Repulsion:
        kExp                           1.500000    1.000000
        rExp                           1.000000
      * Coulomb:
        alpha                          2.000000
        third order                    shell-resolved
        anisotropic                    true
        a3                             3.000000
        a5                             4.000000
        cn-shift                       1.200000
        cn-exp                         4.000000
        max-rad                        5.000000


          ...................................................
          :                      SETUP                      :
          :.................................................:
          :  # basis functions                 158          :
          :  # atomic orbitals                 157          :
          :  # shells                           77          :
          :  # electrons                       170          :
          :  max. iterations                   300          :
          :  Hamiltonian                  GFN2-xTB          :
          :  restarted?                      false          :
          :  GBSA solvation                  false          :
          :  PC potential                    false          :
          :  electronic temp.          300.0000000     K    :
          :  accuracy                    1.0000000          :
          :  -> integral cutoff          0.2500000E+02      :
          :  -> integral neglect         0.1000000E-07      :
          :  -> SCF convergence          0.1000000E-05 Eh   :
          :  -> wf. convergence          0.1000000E-03 e    :
          :  Broyden damping             0.4000000          :
          ...................................................

 iter      E             dE          RMSdq      gap      omega  full diag
   1    -95.1230639 -0.951231E+02  0.766E+00    0.19       0.0  T
   2    -77.7594237  0.173636E+02  0.116E+01    0.05       1.0  T
   3    -67.2568098  0.105026E+02  0.113E+01    0.02       1.0  T
   4    -73.8090451 -0.655224E+01  0.105E+01    0.12       1.0  T
   5    -92.9350925 -0.191260E+02  0.668E+00    0.06       1.0  T
   6    -95.3670700 -0.243198E+01  0.481E+00    0.16       1.0  T
   7    -93.7643258  0.160274E+01  0.509E+00    0.07       1.0  T
   8    -93.8047545 -0.404287E-01  0.555E+00    0.26       1.0  T
   9    -95.2336403 -0.142889E+01  0.419E+00    0.03       1.0  T
  10    -94.6319220  0.601718E+00  0.433E+00    0.06       1.0  T
  11    -96.4342252 -0.180230E+01  0.275E+00    0.12       1.0  T
  12    -96.5295184 -0.952932E-01  0.214E+00    0.08       1.0  T
  13    -96.6061591 -0.766407E-01  0.184E+00    0.11       1.0  T
  14    -96.6315033 -0.253442E-01  0.177E+00    0.11       1.0  T
  15    -96.4925523  0.138951E+00  0.182E+00    0.13       1.0  T
  16    -96.4229467  0.696056E-01  0.173E+00    0.02       1.0  T
  17    -95.9689362  0.454010E+00  0.255E+00    0.09       1.0  T
  18    -96.5906348 -0.621699E+00  0.112E+00    0.03       1.0  T
  19    -96.6413626 -0.507277E-01  0.114E+00    0.03       1.0  T
  20    -96.5903404  0.510222E-01  0.120E+00    0.02       1.0  T
  21    -96.6019584 -0.116181E-01  0.112E+00    0.02       1.0  T
  22    -96.7098212 -0.107863E+00  0.605E-01    0.05       1.0  T
  23    -96.5121231  0.197698E+00  0.138E+00    0.02       1.0  T
  24    -96.5881691 -0.760460E-01  0.113E+00    0.02       1.0  T
  25    -96.5350898  0.530794E-01  0.127E+00    0.02       1.0  T
  26    -96.6381959 -0.103106E+00  0.882E-01    0.02       1.0  T
  27    -96.7077022 -0.695063E-01  0.431E-01    0.04       1.0  T
  28    -96.7206057 -0.129035E-01  0.294E-01    0.04       1.0  T
  29    -96.7247096 -0.410389E-02  0.234E-01    0.04       1.0  T
  30    -96.7161048  0.860486E-02  0.346E-01    0.04       1.0  T
  31    -96.7247229 -0.861817E-02  0.223E-01    0.04       1.0  T
  32    -96.7304338 -0.571085E-02  0.753E-02    0.04       1.0  T
  33    -96.7305715 -0.137673E-03  0.525E-02    0.04       1.0  T
  34    -96.7305837 -0.122289E-04  0.424E-02    0.04       1.0  T
  35    -96.7305089  0.748164E-04  0.468E-02    0.04       1.0  T
  36    -96.7303893  0.119542E-03  0.531E-02    0.04       1.0  T
  37    -96.7305611 -0.171753E-03  0.358E-02    0.04       1.0  T
  38    -96.7306609 -0.998491E-04  0.207E-02    0.04       1.0  T
  39    -96.7306624 -0.144856E-05  0.209E-02    0.04       1.0  T
  40    -96.7307073 -0.448757E-04  0.809E-03    0.04       2.0  T
  41    -96.7307068  0.445596E-06  0.798E-03    0.04       2.0  T
  42    -96.7307118 -0.503415E-05  0.491E-03    0.04       3.3  T
  43    -96.7307134 -0.158905E-05  0.241E-03    0.04       6.7  T
  44    -96.7307136 -0.212033E-06  0.137E-03    0.04      11.8  T
  45    -96.7307136  0.459130E-07  0.126E-03    0.04      12.9  T
  46    -96.7307137 -0.520447E-07  0.874E-04    0.04      18.6  T
  47    -96.7307136  0.215984E-07  0.847E-04    0.04      19.2  T

   *** convergence criteria satisfied after 47 iterations ***

         #    Occupation            Energy/Eh            Energy/eV
      -------------------------------------------------------------
         1        2.0000           -1.0909643             -29.6866
       ...           ...                  ...                  ...
        79        2.0000           -0.4296425             -11.6912
        80        2.0000           -0.4275128             -11.6332
        81        2.0000           -0.4235209             -11.5246
        82        1.9999           -0.4214696             -11.4688
        83        1.8233           -0.4145192             -11.2796
        84        1.7123           -0.4139964             -11.2654
        85        1.5857           -0.4135770             -11.2540 (HOMO)
        86        0.8069           -0.4119304             -11.2092 (LUMO)
        87        0.0713           -0.4091696             -11.1341
        88        0.0005           -0.4043520             -11.0030
        89        0.0002           -0.4034967             -10.9797
        90        0.0000           -0.3970829             -10.8052
       ...           ...                  ...                  ...
       157                          0.5980453              16.2736
      -------------------------------------------------------------
                  HL-Gap            0.0016466 Eh            0.0448 eV
             Fermi-level           -0.4123020 Eh          -11.2193 eV

 SCC (total)                   0 d,  0 h,  0 min,  0.592 sec
 SCC setup                      ...        0 min,  0.000 sec (  0.052%)
 Dispersion                     ...        0 min,  0.001 sec (  0.222%)
 classical contributions        ...        0 min,  0.001 sec (  0.102%)
 integral evaluation            ...        0 min,  0.005 sec (  0.911%)
 iterations                     ...        0 min,  0.565 sec ( 95.425%)
 molecular gradient             ...        0 min,  0.017 sec (  2.925%)
 printout                       ...        0 min,  0.002 sec (  0.359%)

         :::::::::::::::::::::::::::::::::::::::::::::::::::::
         ::                     SUMMARY                     ::
         :::::::::::::::::::::::::::::::::::::::::::::::::::::
         :: total energy             -95.661136274283 Eh    ::
         :: gradient norm              0.485725706679 Eh/a0 ::
         :: HOMO-LUMO gap              0.044806583523 eV    ::
         ::.................................................::
         :: SCC energy               -96.730713629018 Eh    ::
         :: -> isotropic ES            0.081574031042 Eh    ::
         :: -> anisotropic ES          0.005586710655 Eh    ::
         :: -> anisotropic XC          0.034904235809 Eh    ::
         :: -> dispersion             -0.051459262968 Eh    ::
         :: repulsion energy           1.070229188059 Eh    ::
         :: add. restraining           0.000000000000 Eh    ::
         :: total charge               0.000000001354 e     ::
         :::::::::::::::::::::::::::::::::::::::::::::::::::::

           -------------------------------------------------
          |                Property Printout                |
           -------------------------------------------------

    * Orbital Energies and Occupations

         #    Occupation            Energy/Eh            Energy/eV
      -------------------------------------------------------------
         1        2.0000           -1.0909643             -29.6866
       ...           ...                  ...                  ...
        73        2.0000           -0.4508548             -12.2684
        74        2.0000           -0.4496089             -12.2345
        75        2.0000           -0.4442686             -12.0892
        76        2.0000           -0.4414116             -12.0114
        77        2.0000           -0.4352852             -11.8447
        78        2.0000           -0.4321833             -11.7603
        79        2.0000           -0.4296425             -11.6912
        80        2.0000           -0.4275128             -11.6332
        81        2.0000           -0.4235209             -11.5246
        82        1.9999           -0.4214696             -11.4688
        83        1.8233           -0.4145192             -11.2796
        84        1.7123           -0.4139964             -11.2654
        85        1.5857           -0.4135770             -11.2540 (HOMO)
        86        0.8069           -0.4119304             -11.2092 (LUMO)
        87        0.0713           -0.4091696             -11.1341
        88        0.0005           -0.4043520             -11.0030
        89        0.0002           -0.4034967             -10.9797
        90        0.0000           -0.3970829             -10.8052
        91                         -0.3959633             -10.7747
        92                         -0.3637539              -9.8982
        93                         -0.3526728              -9.5967
        94                         -0.3520212              -9.5790
        95                         -0.3496344              -9.5140
        96                         -0.3395578              -9.2398
       ...                                ...                  ...
       157                          0.5980453              16.2736
      -------------------------------------------------------------
                  HL-Gap            0.0016466 Eh            0.0448 eV
             Fermi-level           -0.4123020 Eh          -11.2193 eV

     #   Z          covCN         q      C6AA      α(0)
     1   8 O        0.858    -0.303    19.833     5.971
     2   6 C        2.755     0.307    21.786     7.643
     3   6 C        1.984    -0.011    31.343     9.041
     4   6 C        1.973     0.019    30.562     8.928
     5   6 C        3.011     0.172    24.291     8.085
     6   6 C        2.075    -0.026    31.632     9.085
     7   6 C        2.047    -0.029    31.749     9.101
     8   6 C        3.029     0.169    24.332     8.091
     9   6 C        2.958     0.059    26.684     8.473
    10   6 C        1.993    -0.015    31.437     9.055
    11   6 C        2.004    -0.034    31.954     9.129
    12   6 C        2.985     0.136    25.025     8.206
    13   7 N        1.844    -0.141    24.831     7.385
    14   6 C        1.957     0.152    27.393     8.452
    15   7 N        1.831    -0.165    25.376     7.465
    16   6 C        2.891     0.195    23.859     8.008
    17   7 N        1.830    -0.159    25.239     7.444
    18   6 C        2.890     0.145    24.836     8.171
    19   6 C        1.993    -0.032    31.904     9.122
    20   6 C        1.986    -0.083    33.317     9.321
    21   6 C        2.876     0.175    24.252     8.073
    22   8 O        1.702    -0.136    16.357     5.460
    23   6 C        1.844     0.047    29.944     8.840
    24   6 C        2.959     0.073    26.355     8.421
    25   6 C        1.989     0.027    30.366     8.899
    26   6 C        1.987    -0.023    31.664     9.087
    27   6 C        1.988     0.006    30.890     8.976
    28   6 C        2.773     0.207    23.601     7.957
    29   9 F        0.787    -0.157    10.797     3.881
    30   6 C        1.991    -0.073    33.037     9.282
    31   6 C        2.878     0.087    26.064     8.369
    32  17 Cl       0.958    -0.077   101.555    15.417
    33   6 C        2.031    -0.086    33.354     9.328
    34   6 C        2.979     0.012    27.751     8.641
    35   6 C        1.996    -0.065    32.806     9.250
    36   8 O        1.727    -0.182    17.047     5.575
    37   7 N        1.830     0.030    21.397     6.855
    38   8 O        0.912    -0.221    18.390     5.751

 Mol. C6AA /au·bohr⁶  :      39647.933020
 Mol. C8AA /au·bohr⁸  :    1101658.656106
 Mol. α(0) /au        :        314.238166


Wiberg/Mayer (AO) data.
largest (>0.10) Wiberg bond orders for each atom

 ---------------------------------------------------------------------------
     #   Z sym  total        # sym  WBO       # sym  WBO       # sym  WBO
 ---------------------------------------------------------------------------
     1   8 O    2.015 --     2 C    1.678     4 C    0.103
     2   6 C    3.901 --     1 O    1.678    37 N    1.118     3 C    1.037
     3   6 C    3.806 --     4 C    2.410     2 C    1.037
     4   6 C    3.839 --     3 C    2.410     5 C    1.205     1 O    0.103
     5   6 C    3.875 --     6 C    1.375     4 C    1.205    36 O    1.061
     6   6 C    3.806 --     7 C    2.120     5 C    1.375
     7   6 C    3.785 --     6 C    2.120     8 C    1.416
     8   6 C    3.835 --     7 C    1.416    36 O    1.094     9 C    1.091
     9   6 C    3.931 --    35 C    1.389    10 C    1.267     8 C    1.091
    10   6 C    3.766 --    11 C    1.752     9 C    1.267    35 C    0.205
                            14 C    0.146
    11   6 C    3.533 --    10 C    1.752    12 C    1.302    35 C    0.230
    12   6 C    3.913 --    11 C    1.302    13 N    1.209    34 C    1.136
    13   7 N    3.168 --    14 C    1.621    12 C    1.209
    14   6 C    3.803 --    13 N    1.621    15 N    1.586    10 C    0.146
                            17 N    0.126
    15   7 N    3.173 --    14 C    1.586    16 C    1.237
    16   6 C    3.940 --    17 N    1.295    15 N    1.237    34 C    1.184
    17   7 N    3.068 --    16 C    1.295    18 C    1.270    14 C    0.126
    18   6 C    3.886 --    17 N    1.270    33 C    1.261    19 C    1.206
    19   6 C    3.660 --    20 C    1.851    18 C    1.206    33 C    0.262
    20   6 C    3.496 --    19 C    1.851    21 C    1.297    33 C    0.176
    21   6 C    3.820 --    20 C    1.297    31 C    1.180    22 O    1.072
    22   8 O    2.398 --    23 C    1.130    21 C    1.072
    23   6 C    2.905 --    24 C    1.131    22 O    1.130    33 C    0.127
                            27 C    0.105
    24   6 C    3.940 --    30 C    1.341    25 C    1.294    23 C    1.131
    25   6 C    3.741 --    26 C    1.674    24 C    1.294    27 C    0.366
                            30 C    0.176
    26   6 C    3.815 --    25 C    1.674    27 C    1.586    30 C    0.431
    27   6 C    3.702 --    26 C    1.586    28 C    1.345    25 C    0.366
                            30 C    0.134    23 C    0.105
    28   6 C    3.885 --    30 C    1.392    27 C    1.345    29 F    1.000
    29   9 F    1.170 --    28 C    1.000
    30   6 C    3.633 --    28 C    1.392    24 C    1.341    26 C    0.431
                            25 C    0.176    27 C    0.134
    31   6 C    3.870 --    33 C    1.503    21 C    1.180    32 Cl   1.004
    32  17 Cl   1.180 --    31 C    1.004
    33   6 C    3.507 --    31 C    1.503    18 C    1.261    19 C    0.262
Note: The following floating-point exceptions are signalling: IEEE_UNDERFLOW_FLAG IEEE_DENORMAL
normal termination of xtb
                            20 C    0.176    23 C    0.127
    34   6 C    3.938 --    35 C    1.355    16 C    1.184    12 C    1.136
    35   6 C    3.494 --     9 C    1.389    34 C    1.355    11 C    0.230
                            10 C    0.205
    36   8 O    2.410 --     8 C    1.094     5 C    1.061
    37   7 N    2.799 --    38 O    1.577     2 C    1.118
    38   8 O    1.699 --    37 N    1.577
 ---------------------------------------------------------------------------

Topologies differ in total number of bonds
Writing topology from bond orders to xtbtopo.mol

molecular dipole:
                 x           y           z       tot (Debye)
 q only:       -1.234      -3.529       0.870
   full:       -2.001      -3.739       1.080      11.123
molecular quadrupole (traceless):
                xx          xy          yy          xz          yz          zz
 q only:       31.237     -33.443     -74.042       3.419      31.076      42.806
  q+dip:       37.382     -20.763     -84.600       5.325      35.531      47.218
   full:       41.824     -23.060     -86.480       0.527      37.879      44.656


           -------------------------------------------------
          | TOTAL ENERGY              -95.661136274283 Eh   |
          | GRADIENT NORM               0.485725706679 Eh/α |
          | HOMO-LUMO GAP               0.044806583523 eV   |
           -------------------------------------------------

------------------------------------------------------------------------
 * finished run on 2026/07/23 at 16:39:58.881     
------------------------------------------------------------------------
 total:
 * wall-time:     0 d,  0 h,  0 min,  0.606 sec
 *  cpu-time:     0 d,  0 h,  0 min,  0.614 sec
 * ratio c/w:     1.012 speedup
 SCF:
 * wall-time:     0 d,  0 h,  0 min,  0.592 sec
 *  cpu-time:     0 d,  0 h,  0 min,  0.596 sec
 * ratio c/w:     1.007 speedup

