      -----------------------------------------------------------      
     |                   =====================                   |     
     |                           x T B                           |     
     |                   =====================                   |     
     |                         S. Grimme                         |     
     |          Mulliken Center for Theoretical Chemistry        |     
     |                    University of Bonn                     |     
      -----------------------------------------------------------      

   * xtb version 6.6.1 (unknown) compiled by 'builduser@buildhost' on 2023-08-07

   xtb is free software: you can redistribute it and/or modify it under
   the terms of the GNU Lesser General Public License as published by
   the Free Software Foundation, either version 3 of the License, or
   (at your option) any later version.
   
   xtb is distributed in the hope that it will be useful,
   but WITHOUT ANY WARRANTY; without even the implied warranty of
   MERCHANTABILITY or FITNESS FOR A PARTICULAR PURPOSE.  See the
   GNU Lesser General Public License for more details.
   
   Cite this work as:
   * C. Bannwarth, E. Caldeweyher, S. Ehlert, A. Hansen, P. Pracht,
     J. Seibert, S. Spicher, S. Grimme, WIREs Comput. Mol. Sci., 2020, 11,
     e01493. DOI: 10.1002/wcms.1493
   
   for GFN2-xTB:
   * C. Bannwarth, S. Ehlert and S. Grimme., J. Chem. Theory Comput., 2019,
     15, 1652-1671. DOI: 10.1021/acs.jctc.8b01176
   for GFN1-xTB:
   * S. Grimme, C. Bannwarth, P. Shushkov, J. Chem. Theory Comput., 2017,
     13, 1989-2009. DOI: 10.1021/acs.jctc.7b00118
   for GFN0-xTB:
   * P. Pracht, E. Caldeweyher, S. Ehlert, S. Grimme, ChemRxiv, 2019, preprint.
     DOI: 10.26434/chemrxiv.8326202.v1
   for GFN-FF:
   * S. Spicher and S. Grimme, Angew. Chem. Int. Ed., 2020, 59, 15665-15673.
     DOI: 10.1002/anie.202004239
   
   for ALPB and GBSA implicit solvation:
   * S. Ehlert, M. Stahn, S. Spicher, S. Grimme, J. Chem. Theory Comput.,
     2021, 17, 4250-4261. DOI: 10.1021/acs.jctc.1c00471
   
   for DFT-D4:
   * E. Caldeweyher, C. Bannwarth and S. Grimme, J. Chem. Phys., 2017,
     147, 034112. DOI: 10.1063/1.4993215
   * E. Caldeweyher, S. Ehlert, A. Hansen, H. Neugebauer, S. Spicher,
     C. Bannwarth and S. Grimme, J. Chem. Phys., 2019, 150, 154122.
     DOI: 10.1063/1.5090222
   * E. Caldeweyher, J.-M. Mewes, S. Ehlert and S. Grimme, Phys. Chem. Chem. Phys.
     2020, 22, 8499-8512. DOI: 10.1039/D0CP00502A
   
   for sTDA-xTB:
   * S. Grimme and C. Bannwarth, J. Chem. Phys., 2016, 145, 054103.
     DOI: 10.1063/1.4959605
   
   in the mass-spec context:
   * V. Asgeirsson, C. Bauer and S. Grimme, Chem. Sci., 2017, 8, 4879.
     DOI: 10.1039/c7sc00601b
   * J. Koopman and S. Grimme, ACS Omega 2019, 4, 12, 15120-15133.
     DOI: 10.1021/acsomega.9b02011
   
   for metadynamics refer to:
   * S. Grimme, J. Chem. Theory Comput., 2019, 155, 2847-2862
     DOI: 10.1021/acs.jctc.9b00143
   
   for SPH calculations refer to:
   * S. Spicher and S. Grimme, J. Chem. Theory Comput., 2021, 17, 1701-1714
     DOI: 10.1021/acs.jctc.0c01306
   
   with help from (in alphabetical order)
   P. Atkinson, C. Bannwarth, F. Bohle, G. Brandenburg, E. Caldeweyher
   M. Checinski, S. Dohm, S. Ehlert, S. Ehrlich, I. Gerasimov, C. Hölzer
   A. Katbashev, J. Koopman, C. Lavigne, S. Lehtola, F. März, M. Müller,
   F. Musil, H. Neugebauer, J. Pisarek, C. Plett, P. Pracht, F. Pultar,
   J. Seibert, P. Shushkov, S. Spicher, M. Stahn, M. Steiner, T. Strunk,
   J. Stückrath, T. Rose, and J. Unsleber
   
 * started run on 2026/07/23 at 16:37:50.110     

           -------------------------------------------------
          |                Calculation Setup                |
           -------------------------------------------------

          program call               : xtb /home/selva/covalent_quantum_benchmark/data/quantum/erbB_xyz/EGFR__CHEMBL283201__state01.xyz --gfn2 --chrg 0 --uhf 0 --iterations 300
          coordinate file            : /home/selva/covalent_quantum_benchmark/data/quantum/erbB_xyz/EGFR__CHEMBL283201__state01.xyz
          omp threads                :                    24

   ID    Z sym.   atoms
    1    6 C      1-3, 6-9, 11, 13, 15-19, 21-23, 25-27
    2    8 O      4
    3    7 N      5, 10, 12, 14, 20
    4   35 Br     24

           -------------------------------------------------
          |                 G F N 2 - x T B                 |
           -------------------------------------------------

        Reference                      10.1021/acs.jctc.8b01176
      * Hamiltonian:
        H0-scaling (s, p, d)           1.850000    2.230000    2.230000
        zeta-weighting                 0.500000
      * Dispersion:
        s8                             2.700000
        a1                             0.520000
        a2                             5.000000
        s9                             5.000000
      * Repulsion:
        kExp                           1.500000    1.000000
        rExp                           1.000000
      * Coulomb:
        alpha                          2.000000
        third order                    shell-resolved
        anisotropic                    true
        a3                             3.000000
        a5                             4.000000
        cn-shift                       1.200000
        cn-exp                         4.000000
        max-rad                        5.000000


          ...................................................
          :                      SETUP                      :
          :.................................................:
          :  # basis functions                 114          :
          :  # atomic orbitals                 113          :
          :  # shells                           55          :
          :  # electrons                       118          :
          :  max. iterations                   300          :
          :  Hamiltonian                  GFN2-xTB          :
          :  restarted?                      false          :
          :  GBSA solvation                  false          :
          :  PC potential                    false          :
          :  electronic temp.          300.0000000     K    :
          :  accuracy                    1.0000000          :
          :  -> integral cutoff          0.2500000E+02      :
          :  -> integral neglect         0.1000000E-07      :
          :  -> SCF convergence          0.1000000E-05 Eh   :
          :  -> wf. convergence          0.1000000E-03 e    :
          :  Broyden damping             0.4000000          :
          ...................................................

 iter      E             dE          RMSdq      gap      omega  full diag
   1    -63.8610739 -0.638611E+02  0.885E+00    0.38       0.0  T
   2    -45.5115170  0.183496E+02  0.143E+01    0.36       1.0  T
   3    -48.2785262 -0.276701E+01  0.127E+01    0.51       1.0  T
   4    -59.6706958 -0.113922E+02  0.897E+00    0.53       1.0  T
   5    -61.1503440 -0.147965E+01  0.729E+00    0.28       1.0  T
   6    -63.1992082 -0.204886E+01  0.536E+00    0.16       1.0  T
   7    -63.5030522 -0.303844E+00  0.480E+00    0.07       1.0  T
   8    -63.9351701 -0.432118E+00  0.432E+00    0.34       1.0  T
   9    -64.4962700 -0.561100E+00  0.306E+00    0.18       1.0  T
  10    -64.3802986  0.115971E+00  0.366E+00    0.12       1.0  T
  11    -64.5127471 -0.132449E+00  0.314E+00    0.09       1.0  T
  12    -64.5281925 -0.154454E-01  0.311E+00    0.08       1.0  T
  13    -64.4877096  0.404829E-01  0.307E+00    0.11       1.0  T
  14    -64.5927724 -0.105063E+00  0.274E+00    0.07       1.0  T
  15    -64.5571648  0.356075E-01  0.259E+00    0.08       1.0  T
  16    -64.5813567 -0.241919E-01  0.289E+00    0.01       1.0  T
  17    -64.6963515 -0.114995E+00  0.217E+00    0.06       1.0  T
  18    -64.7778342 -0.814827E-01  0.176E+00    0.05       1.0  T
  19    -64.8445018 -0.666676E-01  0.149E+00    0.03       1.0  T
  20    -64.8351612  0.934061E-02  0.151E+00    0.05       1.0  T
  21    -64.7750529  0.601083E-01  0.168E+00    0.03       1.0  T
  22    -64.8486682 -0.736153E-01  0.131E+00    0.06       1.0  T
  23    -64.9456660 -0.969978E-01  0.528E-01    0.02       1.0  T
  24    -64.9254679  0.201981E-01  0.723E-01    0.02       1.0  T
  25    -64.9434325 -0.179647E-01  0.490E-01    0.01       1.0  T
  26    -64.9380807  0.535180E-02  0.522E-01    0.03       1.0  T
  27    -64.9461047 -0.802393E-02  0.374E-01    0.02       1.0  T
  28    -64.9525650 -0.646031E-02  0.170E-01    0.02       1.0  T
  29    -64.9518914  0.673570E-03  0.187E-01    0.02       1.0  T
  30    -64.9535619 -0.167047E-02  0.743E-02    0.02       1.0  T
  31    -64.9537675 -0.205662E-03  0.445E-02    0.02       1.0  T
  32    -64.9538297 -0.621822E-04  0.350E-02    0.02       1.0  T
  33    -64.9538401 -0.104013E-04  0.274E-02    0.02       1.0  T
  34    -64.9537601  0.799810E-04  0.409E-02    0.02       1.0  T
  35    -64.9538412 -0.810918E-04  0.216E-02    0.02       1.0  T
  36    -64.9538640 -0.227452E-04  0.106E-02    0.02       1.8  T
  37    -64.9538620  0.197647E-05  0.114E-02    0.02       1.7  T
  38    -64.9538700 -0.802129E-05  0.191E-03    0.02      10.1  T
  39    -64.9538700  0.465537E-07  0.198E-03    0.02       9.7  T
  40    -64.9538701 -0.107538E-06  0.141E-03    0.02      13.7  T
  41    -64.9538702 -0.112153E-06  0.306E-04    0.02      63.0  T
  42    -64.9538702 -0.140130E-08  0.257E-04    0.02      74.9  T

   *** convergence criteria satisfied after 42 iterations ***

         #    Occupation            Energy/Eh            Energy/eV
      -------------------------------------------------------------
         1        2.0000           -0.8757072             -23.8292
       ...           ...                  ...                  ...
        53        2.0000           -0.4395287             -11.9602
        54        2.0000           -0.4348925             -11.8340
        55        2.0000           -0.4328246             -11.7778
        56        1.9999           -0.4307067             -11.7201
        57        1.9828           -0.4255474             -11.5797
        58        1.6968           -0.4226719             -11.5015
        59        1.2812           -0.4215849             -11.4719 (HOMO)
        60        0.9268           -0.4208964             -11.4532 (LUMO)
        61        0.1123           -0.4183550             -11.3840
        62        0.0000           -0.4093691             -11.1395
        63                         -0.4037898             -10.9877
        64                         -0.4016369             -10.9291
       ...                                ...                  ...
       113                          0.6143711              16.7179
      -------------------------------------------------------------
                  HL-Gap            0.0006885 Eh            0.0187 eV
             Fermi-level           -0.4210357 Eh          -11.4570 eV

 SCC (total)                   0 d,  0 h,  0 min,  0.365 sec
 SCC setup                      ...        0 min,  0.000 sec (  0.103%)
 Dispersion                     ...        0 min,  0.001 sec (  0.347%)
 classical contributions        ...        0 min,  0.001 sec (  0.163%)
 integral evaluation            ...        0 min,  0.010 sec (  2.621%)
 iterations                     ...        0 min,  0.335 sec ( 91.613%)
 molecular gradient             ...        0 min,  0.018 sec (  4.836%)
 printout                       ...        0 min,  0.001 sec (  0.307%)

         :::::::::::::::::::::::::::::::::::::::::::::::::::::
         ::                     SUMMARY                     ::
         :::::::::::::::::::::::::::::::::::::::::::::::::::::
         :: total energy             -64.229341994810 Eh    ::
         :: gradient norm              0.411529772379 Eh/a0 ::
         :: HOMO-LUMO gap              0.018734429500 eV    ::
         ::.................................................::
         :: SCC energy               -64.953870193356 Eh    ::
         :: -> isotropic ES            0.008935847995 Eh    ::
         :: -> anisotropic ES          0.005596825750 Eh    ::
         :: -> anisotropic XC          0.038407162927 Eh    ::
         :: -> dispersion             -0.041630343736 Eh    ::
         :: repulsion energy           0.723904414410 Eh    ::
         :: add. restraining           0.000000000000 Eh    ::
         :: total charge               0.000000000001 e     ::
         :::::::::::::::::::::::::::::::::::::::::::::::::::::

           -------------------------------------------------
          |                Property Printout                |
           -------------------------------------------------

    * Orbital Energies and Occupations

         #    Occupation            Energy/Eh            Energy/eV
      -------------------------------------------------------------
         1        2.0000           -0.8757072             -23.8292
       ...           ...                  ...                  ...
        47        2.0000           -0.4606505             -12.5349
        48        2.0000           -0.4591444             -12.4940
        49        2.0000           -0.4572802             -12.4432
        50        2.0000           -0.4529691             -12.3259
        51        2.0000           -0.4506255             -12.2621
        52        2.0000           -0.4420901             -12.0299
        53        2.0000           -0.4395287             -11.9602
        54        2.0000           -0.4348925             -11.8340
        55        2.0000           -0.4328246             -11.7778
        56        1.9999           -0.4307067             -11.7201
        57        1.9828           -0.4255474             -11.5797
        58        1.6968           -0.4226719             -11.5015
        59        1.2812           -0.4215849             -11.4719 (HOMO)
        60        0.9268           -0.4208964             -11.4532 (LUMO)
        61        0.1123           -0.4183550             -11.3840
        62        0.0000           -0.4093691             -11.1395
        63                         -0.4037898             -10.9877
        64                         -0.4016369             -10.9291
        65                         -0.3913133             -10.6482
        66                         -0.3655380              -9.9468
        67                         -0.3599899              -9.7958
        68                         -0.3566735              -9.7056
        69                         -0.3269940              -8.8980
        70                         -0.3142724              -8.5518
       ...                                ...                  ...
       113                          0.6143711              16.7179
      -------------------------------------------------------------
                  HL-Gap            0.0006885 Eh            0.0187 eV
             Fermi-level           -0.4210357 Eh          -11.4570 eV

     #   Z          covCN         q      C6AA      α(0)
     1   6 C        0.988    -0.042    37.241    10.253
     2   6 C        1.968     0.002    31.020     8.994
     3   6 C        2.753     0.333    21.339     7.564
     4   8 O        0.857    -0.334    20.410     6.057
     5   7 N        1.836    -0.195    26.045     7.563
     6   6 C        2.895     0.152    24.694     8.148
     7   6 C        1.989    -0.000    31.060     9.000
     8   6 C        1.988    -0.022    31.640     9.084
     9   6 C        2.929     0.134    25.080     8.213
    10   7 N        1.830    -0.159    25.229     7.443
    11   6 C        1.918     0.170    27.014     8.394
    12   7 N        1.850    -0.140    24.811     7.382
    13   6 C        2.896     0.199    23.777     7.995
    14   7 N        1.855    -0.129    24.576     7.348
    15   6 C        2.916     0.139    24.962     8.193
    16   6 C        1.989    -0.052    32.460     9.201
    17   6 C        1.991    -0.010    31.304     9.036
    18   6 C        2.999     0.048    26.918     8.511
    19   6 C        1.901    -0.011    31.403     9.050
    20   7 N        2.721     0.190    18.097     6.318
    21   6 C        0.928    -0.091    38.401    10.380
    22   6 C        0.929    -0.086    38.256    10.361
    23   6 C        2.904     0.092    25.954     8.353
    24  35 Br       1.060    -0.048   186.338    22.010
    25   6 C        2.089    -0.072    32.852     9.260
    26   6 C        2.968    -0.002    28.066     8.690
    27   6 C        1.995    -0.066    32.845     9.255

 Mol. C6AA /au·bohr⁶  :      22852.209091
 Mol. C8AA /au·bohr⁸  :     684968.724380
 Mol. α(0) /au        :        242.056760


Wiberg/Mayer (AO) data.
largest (>0.10) Wiberg bond orders for each atom

 ---------------------------------------------------------------------------
     #   Z sym  total        # sym  WBO       # sym  WBO       # sym  WBO
 ---------------------------------------------------------------------------
     1   6 C    2.920 --     2 C    2.587     4 O    0.150
     2   6 C    3.639 --     1 C    2.587     3 C    0.905
     3   6 C    3.916 --     4 O    1.703     5 N    1.194     2 C    0.905
     4   8 O    2.058 --     3 C    1.703     1 C    0.150
     5   7 N    2.897 --     6 C    1.257     3 C    1.194     8 C    0.108
     6   6 C    3.901 --     5 N    1.257    27 C    1.234     7 C    1.229
     7   6 C    3.640 --     8 C    1.752     6 C    1.229    27 C    0.152
     8   6 C    3.540 --     7 C    1.752     9 C    1.282    27 C    0.203
                             5 N    0.108
     9   6 C    3.857 --     8 C    1.282    10 N    1.175    26 C    1.155
    10   7 N    3.058 --    11 C    1.559     9 C    1.175
    11   6 C    3.780 --    12 N    1.771    10 N    1.559
    12   7 N    3.194 --    11 C    1.771    13 C    1.108
    13   6 C    3.937 --    14 N    1.613    12 N    1.108    26 C    1.015
    14   7 N    3.176 --    13 C    1.613    15 C    1.131
    15   6 C    3.924 --    25 C    1.330    16 C    1.250    14 N    1.131
    16   6 C    3.713 --    17 C    1.745    15 C    1.250    25 C    0.284
    17   6 C    3.605 --    16 C    1.745    18 C    1.314    25 C    0.165
                            19 C    0.124
    18   6 C    3.941 --    17 C    1.314    23 C    1.225    19 C    1.108
    19   6 C    3.293 --    18 C    1.108    20 N    0.979    21 C    0.475
                            22 C    0.427    17 C    0.124
    20   7 N    3.709 --    21 C    1.340    22 C    1.338    19 C    0.979
    21   6 C    2.560 --    20 N    1.340    19 C    0.475    22 C    0.462
    22   6 C    2.478 --    20 N    1.338    21 C    0.462    19 C    0.427
    23   6 C    3.919 --    25 C    1.469    18 C    1.225    24 Br   1.013
    24  35 Br   1.276 --    23 C    1.013
    25   6 C    3.579 --    23 C    1.469    15 C    1.330    16 C    0.284
                            17 C    0.165
    26   6 C    3.930 --    27 C    1.492     9 C    1.155    13 C    1.015
    27   6 C    3.412 --    26 C    1.492     6 C    1.234     8 C    0.203
                             7 C    0.152
 ---------------------------------------------------------------------------

Topologies differ in total number of bonds
Writing topology from bond orders to xtbtopo.mol

molecular dipole:
                 x           y           z       tot (Debye)
 q only:        1.213       0.616       1.135
   full:        1.556       0.452       0.753       4.542
molecular quadrupole (traceless):
                xx          xy          yy          xz          yz          zz
 q only:       -0.314      -1.443       2.447     -10.713     -11.819      -2.133
  q+dip:        1.203       1.264       2.850     -11.099     -18.502      -4.053
   full:       -0.248      -3.014       4.612      -9.386     -20.454      -4.364


           -------------------------------------------------
          | TOTAL ENERGY              -64.229341994810 Eh   |
          | GRADIENT NORM               0.411529772379 Eh/α |
          | HOMO-LUMO GAP               0.018734429500 eV   |
           -------------------------------------------------

------------------------------------------------------------------------
 * finished run on 2026/07/23 at 16:37:50.493     
------------------------------------------------------------------------
 total:
 * wall-time:     0 d,  0 h,  0 min,  0.383 sec
 *  cpu-time:     0 d,  0 h,  0 min,  0.389 sec
 * ratio c/w:     1.016 speedup
 SCF:
Note: The following floating-point exceptions are signalling: IEEE_UNDERFLOW_FLAG IEEE_DENORMAL
normal termination of xtb
 * wall-time:     0 d,  0 h,  0 min,  0.366 sec
 *  cpu-time:     0 d,  0 h,  0 min,  0.367 sec
 * ratio c/w:     1.004 speedup

