      -----------------------------------------------------------      
     |                   =====================                   |     
     |                           x T B                           |     
     |                   =====================                   |     
     |                         S. Grimme                         |     
     |          Mulliken Center for Theoretical Chemistry        |     
     |                    University of Bonn                     |     
      -----------------------------------------------------------      

   * xtb version 6.6.1 (unknown) compiled by 'builduser@buildhost' on 2023-08-07

   xtb is free software: you can redistribute it and/or modify it under
   the terms of the GNU Lesser General Public License as published by
   the Free Software Foundation, either version 3 of the License, or
   (at your option) any later version.
   
   xtb is distributed in the hope that it will be useful,
   but WITHOUT ANY WARRANTY; without even the implied warranty of
   MERCHANTABILITY or FITNESS FOR A PARTICULAR PURPOSE.  See the
   GNU Lesser General Public License for more details.
   
   Cite this work as:
   * C. Bannwarth, E. Caldeweyher, S. Ehlert, A. Hansen, P. Pracht,
     J. Seibert, S. Spicher, S. Grimme, WIREs Comput. Mol. Sci., 2020, 11,
     e01493. DOI: 10.1002/wcms.1493
   
   for GFN2-xTB:
   * C. Bannwarth, S. Ehlert and S. Grimme., J. Chem. Theory Comput., 2019,
     15, 1652-1671. DOI: 10.1021/acs.jctc.8b01176
   for GFN1-xTB:
   * S. Grimme, C. Bannwarth, P. Shushkov, J. Chem. Theory Comput., 2017,
     13, 1989-2009. DOI: 10.1021/acs.jctc.7b00118
   for GFN0-xTB:
   * P. Pracht, E. Caldeweyher, S. Ehlert, S. Grimme, ChemRxiv, 2019, preprint.
     DOI: 10.26434/chemrxiv.8326202.v1
   for GFN-FF:
   * S. Spicher and S. Grimme, Angew. Chem. Int. Ed., 2020, 59, 15665-15673.
     DOI: 10.1002/anie.202004239
   
   for ALPB and GBSA implicit solvation:
   * S. Ehlert, M. Stahn, S. Spicher, S. Grimme, J. Chem. Theory Comput.,
     2021, 17, 4250-4261. DOI: 10.1021/acs.jctc.1c00471
   
   for DFT-D4:
   * E. Caldeweyher, C. Bannwarth and S. Grimme, J. Chem. Phys., 2017,
     147, 034112. DOI: 10.1063/1.4993215
   * E. Caldeweyher, S. Ehlert, A. Hansen, H. Neugebauer, S. Spicher,
     C. Bannwarth and S. Grimme, J. Chem. Phys., 2019, 150, 154122.
     DOI: 10.1063/1.5090222
   * E. Caldeweyher, J.-M. Mewes, S. Ehlert and S. Grimme, Phys. Chem. Chem. Phys.
     2020, 22, 8499-8512. DOI: 10.1039/D0CP00502A
   
   for sTDA-xTB:
   * S. Grimme and C. Bannwarth, J. Chem. Phys., 2016, 145, 054103.
     DOI: 10.1063/1.4959605
   
   in the mass-spec context:
   * V. Asgeirsson, C. Bauer and S. Grimme, Chem. Sci., 2017, 8, 4879.
     DOI: 10.1039/c7sc00601b
   * J. Koopman and S. Grimme, ACS Omega 2019, 4, 12, 15120-15133.
     DOI: 10.1021/acsomega.9b02011
   
   for metadynamics refer to:
   * S. Grimme, J. Chem. Theory Comput., 2019, 155, 2847-2862
     DOI: 10.1021/acs.jctc.9b00143
   
   for SPH calculations refer to:
   * S. Spicher and S. Grimme, J. Chem. Theory Comput., 2021, 17, 1701-1714
     DOI: 10.1021/acs.jctc.0c01306
   
   with help from (in alphabetical order)
   P. Atkinson, C. Bannwarth, F. Bohle, G. Brandenburg, E. Caldeweyher
   M. Checinski, S. Dohm, S. Ehlert, S. Ehrlich, I. Gerasimov, C. Hölzer
   A. Katbashev, J. Koopman, C. Lavigne, S. Lehtola, F. März, M. Müller,
   F. Musil, H. Neugebauer, J. Pisarek, C. Plett, P. Pracht, F. Pultar,
   J. Seibert, P. Shushkov, S. Spicher, M. Stahn, M. Steiner, T. Strunk,
   J. Stückrath, T. Rose, and J. Unsleber
   
 * started run on 2026/07/23 at 16:37:40.379     

           -------------------------------------------------
          |                Calculation Setup                |
           -------------------------------------------------

          program call               : xtb /home/selva/covalent_quantum_benchmark/data/quantum/erbB_xyz/EGFR__CHEMBL2112369__state01.xyz --gfn2 --chrg 0 --uhf 0 --iterations 300
          coordinate file            : /home/selva/covalent_quantum_benchmark/data/quantum/erbB_xyz/EGFR__CHEMBL2112369__state01.xyz
          omp threads                :                    24

   ID    Z sym.   atoms
    1    6 C      1, 3-7, 9-12, 15-18, 20, 22, 24-28, 30-32
    2    8 O      2, 13
    3    7 N      8, 14, 19, 21, 23
    4   35 Br     29

           -------------------------------------------------
          |                 G F N 2 - x T B                 |
           -------------------------------------------------

        Reference                      10.1021/acs.jctc.8b01176
      * Hamiltonian:
        H0-scaling (s, p, d)           1.850000    2.230000    2.230000
        zeta-weighting                 0.500000
      * Dispersion:
        s8                             2.700000
        a1                             0.520000
        a2                             5.000000
        s9                             5.000000
      * Repulsion:
        kExp                           1.500000    1.000000
        rExp                           1.000000
      * Coulomb:
        alpha                          2.000000
        third order                    shell-resolved
        anisotropic                    true
        a3                             3.000000
        a5                             4.000000
        cn-shift                       1.200000
        cn-exp                         4.000000
        max-rad                        5.000000


          ...................................................
          :                      SETUP                      :
          :.................................................:
          :  # basis functions                 134          :
          :  # atomic orbitals                 133          :
          :  # shells                           65          :
          :  # electrons                       140          :
          :  max. iterations                   300          :
          :  Hamiltonian                  GFN2-xTB          :
          :  restarted?                      false          :
          :  GBSA solvation                  false          :
          :  PC potential                    false          :
          :  electronic temp.          300.0000000     K    :
          :  accuracy                    1.0000000          :
          :  -> integral cutoff          0.2500000E+02      :
          :  -> integral neglect         0.1000000E-07      :
          :  -> SCF convergence          0.1000000E-05 Eh   :
          :  -> wf. convergence          0.1000000E-03 e    :
          :  Broyden damping             0.4000000          :
          ...................................................

 iter      E             dE          RMSdq      gap      omega  full diag
   1    -76.2450723 -0.762451E+02  0.855E+00    0.15       0.0  T
   2    -63.3846758  0.128604E+02  0.124E+01    0.19       1.0  T
   3    -61.5011291  0.188355E+01  0.104E+01    0.32       1.0  T
   4    -51.2596189  0.102415E+02  0.121E+01    0.34       1.0  T
   5    -62.7607306 -0.115011E+02  0.945E+00    0.08       1.0  T
   6    -68.4660343 -0.570530E+01  0.808E+00    0.34       1.0  T
   7    -75.1660786 -0.670004E+01  0.527E+00    0.13       1.0  T
   8    -76.3230185 -0.115694E+01  0.367E+00    0.15       1.0  T
   9    -75.3910074  0.932011E+00  0.407E+00    0.10       1.0  T
  10    -75.2875627  0.103445E+00  0.528E+00    0.03       1.0  T
  11    -76.6875458 -0.139998E+01  0.285E+00    0.09       1.0  T
  12    -76.8083075 -0.120762E+00  0.257E+00    0.07       1.0  T
  13    -77.1403511 -0.332044E+00  0.269E+00    0.09       1.0  T
  14    -77.1175566  0.227945E-01  0.208E+00    0.02       1.0  T
  15    -76.4648089  0.652748E+00  0.362E+00    0.06       1.0  T
  16    -77.1384735 -0.673665E+00  0.203E+00    0.03       1.0  T
  17    -77.2874790 -0.149005E+00  0.171E+00    0.06       1.0  T
  18    -77.3030406 -0.155617E-01  0.149E+00    0.04       1.0  T
  19    -76.8458251  0.457216E+00  0.220E+00    0.04       1.0  T
  20    -77.1958498 -0.350025E+00  0.145E+00    0.02       1.0  T
  21    -77.2097847 -0.139349E-01  0.146E+00    0.03       1.0  T
  22    -77.2179597 -0.817504E-02  0.131E+00    0.01       1.0  T
  23    -77.3097946 -0.918348E-01  0.101E+00    0.01       1.0  T
  24    -77.2721716  0.376229E-01  0.107E+00    0.01       1.0  T
  25    -77.3408008 -0.686292E-01  0.738E-01    0.01       1.0  T
  26    -77.3465102 -0.570931E-02  0.653E-01    0.01       1.0  T
  27    -77.3479295 -0.141931E-02  0.627E-01    0.01       1.0  T
  28    -77.3543046 -0.637513E-02  0.530E-01    0.01       1.0  T
  29    -77.3588536 -0.454902E-02  0.444E-01    0.01       1.0  T
  30    -77.3617308 -0.287721E-02  0.393E-01    0.01       1.0  T
  31    -77.3617019  0.289599E-04  0.401E-01    0.02       1.0  T
  32    -77.3637297 -0.202784E-02  0.353E-01    0.02       1.0  T
  33    -77.3593583  0.437140E-02  0.422E-01    0.02       1.0  T
  34    -77.3541544  0.520387E-02  0.463E-01    0.02       1.0  T
  35    -77.3684817 -0.143273E-01  0.163E-01    0.02       1.0  T
  36    -77.3674840  0.997784E-03  0.189E-01    0.02       1.0  T
  37    -77.3664873  0.996645E-03  0.199E-01    0.02       1.0  T
  38    -77.3682143 -0.172699E-02  0.137E-01    0.02       1.0  T
  39    -77.3690783 -0.864039E-03  0.982E-02    0.02       1.0  T
  40    -77.3694517 -0.373319E-03  0.695E-02    0.02       1.0  T
  41    -77.3695029 -0.512673E-04  0.646E-02    0.02       1.0  T
  42    -77.3695793 -0.763260E-04  0.495E-02    0.02       1.0  T
  43    -77.3696445 -0.652472E-04  0.374E-02    0.02       1.0  T
  44    -77.3696515 -0.704733E-05  0.342E-02    0.02       1.0  T
  45    -77.3696665 -0.149298E-04  0.271E-02    0.02       1.0  T
  46    -77.3696744 -0.793467E-05  0.230E-02    0.02       1.0  T
  47    -77.3696902 -0.158307E-04  0.117E-02    0.02       1.5  T
  48    -77.3696945 -0.426310E-05  0.785E-03    0.02       2.3  T
  49    -77.3696948 -0.289939E-06  0.594E-03    0.02       3.0  T
  50    -77.3696967 -0.191880E-05  0.309E-03    0.02       5.7  T
  51    -77.3696970 -0.257865E-06  0.213E-03    0.02       8.3  T
  52    -77.3696971 -0.139243E-06  0.153E-03    0.02      11.6  T
  53    -77.3696973 -0.167820E-06  0.734E-04    0.02      24.1  T
  54    -77.3696973  0.193747E-07  0.660E-04    0.02      26.8  T

   *** convergence criteria satisfied after 54 iterations ***

         #    Occupation            Energy/Eh            Energy/eV
      -------------------------------------------------------------
         1        2.0000           -0.8659566             -23.5639
       ...           ...                  ...                  ...
        64        2.0000           -0.4313827             -11.7385
        65        2.0000           -0.4276189             -11.6361
        66        1.9997           -0.4241903             -11.5428
        67        1.9895           -0.4207680             -11.4497
        68        1.9522           -0.4193147             -11.4101
        69        1.6777           -0.4173574             -11.3569
        70        1.2535           -0.4162824             -11.3276 (HOMO)
        71        0.9646           -0.4157228             -11.3124 (LUMO)
        72        0.1455           -0.4133722             -11.2484
        73        0.0173           -0.4112833             -11.1916
        74        0.0000           -0.4001755             -10.8893
        75                         -0.3946712             -10.7395
       ...                                ...                  ...
       133                          0.6295237              17.1302
      -------------------------------------------------------------
                  HL-Gap            0.0005596 Eh            0.0152 eV
             Fermi-level           -0.4157900 Eh          -11.3142 eV

 SCC (total)                   0 d,  0 h,  0 min,  0.670 sec
 SCC setup                      ...        0 min,  0.000 sec (  0.052%)
 Dispersion                     ...        0 min,  0.001 sec (  0.174%)
 classical contributions        ...        0 min,  0.001 sec (  0.090%)
 integral evaluation            ...        0 min,  0.004 sec (  0.595%)
 iterations                     ...        0 min,  0.634 sec ( 94.686%)
 molecular gradient             ...        0 min,  0.028 sec (  4.131%)
 printout                       ...        0 min,  0.002 sec (  0.267%)

         :::::::::::::::::::::::::::::::::::::::::::::::::::::
         ::                     SUMMARY                     ::
         :::::::::::::::::::::::::::::::::::::::::::::::::::::
         :: total energy             -76.572074619708 Eh    ::
         :: gradient norm              0.492332863030 Eh/a0 ::
         :: HOMO-LUMO gap              0.015226918505 eV    ::
         ::.................................................::
         :: SCC energy               -77.369697258045 Eh    ::
         :: -> isotropic ES            0.026193049706 Eh    ::
         :: -> anisotropic ES          0.008042984243 Eh    ::
         :: -> anisotropic XC          0.040622885363 Eh    ::
         :: -> dispersion             -0.045561345349 Eh    ::
         :: repulsion energy           0.797885191619 Eh    ::
         :: add. restraining           0.000000000000 Eh    ::
         :: total charge               0.000000000000 e     ::
         :::::::::::::::::::::::::::::::::::::::::::::::::::::

           -------------------------------------------------
          |                Property Printout                |
           -------------------------------------------------

    * Orbital Energies and Occupations

         #    Occupation            Energy/Eh            Energy/eV
      -------------------------------------------------------------
         1        2.0000           -0.8659566             -23.5639
       ...           ...                  ...                  ...
        58        2.0000           -0.4505523             -12.2602
        59        2.0000           -0.4466603             -12.1542
        60        2.0000           -0.4441085             -12.0848
        61        2.0000           -0.4426977             -12.0464
        62        2.0000           -0.4405867             -11.9890
        63        2.0000           -0.4340879             -11.8121
        64        2.0000           -0.4313827             -11.7385
        65        2.0000           -0.4276189             -11.6361
        66        1.9997           -0.4241903             -11.5428
        67        1.9895           -0.4207680             -11.4497
        68        1.9522           -0.4193147             -11.4101
        69        1.6777           -0.4173574             -11.3569
        70        1.2535           -0.4162824             -11.3276 (HOMO)
        71        0.9646           -0.4157228             -11.3124 (LUMO)
        72        0.1455           -0.4133722             -11.2484
        73        0.0173           -0.4112833             -11.1916
        74        0.0000           -0.4001755             -10.8893
        75                         -0.3946712             -10.7395
        76                         -0.3903389             -10.6217
        77                         -0.3877663             -10.5517
        78                         -0.3675359             -10.0012
        79                         -0.3570718              -9.7164
        80                         -0.3491391              -9.5006
        81                         -0.3342452              -9.0953
       ...                                ...                  ...
       133                          0.6295237              17.1302
      -------------------------------------------------------------
                  HL-Gap            0.0005596 Eh            0.0152 eV
             Fermi-level           -0.4157900 Eh          -11.3142 eV

     #   Z          covCN         q      C6AA      α(0)
     1   6 C        0.879    -0.004    35.345     9.932
     2   8 O        1.697    -0.018    14.719     5.180
     3   6 C        1.853    -0.003    31.226     9.027
     4   6 C        2.911     0.086    26.076     8.373
     5   6 C        1.973    -0.025    31.716     9.095
     6   6 C        1.970    -0.011    31.350     9.042
     7   6 C        1.951     0.018    30.624     8.937
     8   7 N        2.736     0.002    21.237     6.844
     9   6 C        1.900    -0.004    31.210     9.023
    10   6 C        1.964     0.010    30.800     8.962
    11   6 C        1.969    -0.014    31.433     9.054
    12   6 C        2.749     0.322    21.527     7.597
    13   8 O        0.857    -0.340    20.513     6.072
    14   7 N        1.837    -0.190    25.933     7.547
    15   6 C        2.895     0.149    24.767     8.160
    16   6 C        1.989    -0.018    31.524     9.067
    17   6 C        1.990    -0.017    31.505     9.064
    18   6 C        2.923     0.134    25.071     8.211
    19   7 N        1.831    -0.167    25.415     7.471
    20   6 C        1.909     0.169    27.053     8.400
    21   7 N        1.831    -0.190    25.924     7.545
    22   6 C        2.910     0.201    23.733     7.988
    23   7 N        1.839    -0.148    24.997     7.409
    24   6 C        2.935     0.131    25.126     8.221
    25   6 C        1.992     0.008    30.834     8.968
    26   6 C        1.987    -0.022    31.632     9.083
    27   6 C        2.063     0.009    30.721     8.953
    28   6 C        2.907     0.113    25.502     8.280
    29  35 Br       1.071    -0.065   186.808    22.037
    30   6 C        2.067    -0.081    33.166     9.303
    31   6 C        2.978     0.003    27.962     8.674
    32   6 C        1.995    -0.040    32.101     9.150

 Mol. C6AA /au·bohr⁶  :      31050.839563
 Mol. C8AA /au·bohr⁸  :     918967.431245
 Mol. α(0) /au        :        280.669175


Wiberg/Mayer (AO) data.
largest (>0.10) Wiberg bond orders for each atom

 ---------------------------------------------------------------------------
     #   Z sym  total        # sym  WBO       # sym  WBO       # sym  WBO
 ---------------------------------------------------------------------------
     1   6 C    2.044 --     2 O    1.527     3 C    0.266     4 C    0.130
     2   8 O    2.697 --     1 C    1.527     3 C    1.101
     3   6 C    3.173 --     4 C    1.386     2 O    1.101     1 C    0.266
                             7 C    0.134     6 C    0.103
     4   6 C    3.827 --     3 C    1.386     5 C    1.137     8 N    0.946
                             1 C    0.130
     5   6 C    3.384 --     6 C    1.509     4 C    1.137     7 C    0.436
     6   6 C    3.223 --     5 C    1.509     7 C    1.402     3 C    0.103
     7   6 C    3.289 --     6 C    1.402     8 N    1.091     5 C    0.436
                             3 C    0.134
     8   7 N    3.404 --     9 C    1.105     7 C    1.091     4 C    0.946
     9   6 C    3.242 --    10 C    1.456     8 N    1.105    11 C    0.282
    10   6 C    3.809 --    11 C    2.118     9 C    1.456
    11   6 C    3.684 --    10 C    2.118    12 C    0.949     9 C    0.282
    12   6 C    3.918 --    13 O    1.669    14 N    1.211    11 C    0.949
    13   8 O    2.069 --    12 C    1.669    14 N    0.104
    14   7 N    2.876 --    15 C    1.264    12 C    1.211    17 C    0.117
                            13 O    0.104
    15   6 C    3.877 --    14 N    1.264    32 C    1.256    16 C    1.209
    16   6 C    3.667 --    17 C    1.746    15 C    1.209    32 C    0.230
                            20 C    0.122
    17   6 C    3.466 --    16 C    1.746    18 C    1.281    32 C    0.144
                            14 N    0.117
    18   6 C    3.862 --    17 C    1.281    19 N    1.175    31 C    1.169
    19   7 N    3.093 --    20 C    1.569    18 C    1.175
    20   6 C    3.831 --    21 N    1.728    19 N    1.569    23 N    0.135
                            16 C    0.122
    21   7 N    3.158 --    20 C    1.728    22 C    1.089
    22   6 C    3.950 --    23 N    1.598    21 N    1.089    31 C    1.053
    23   7 N    3.225 --    22 C    1.598    24 C    1.087    20 C    0.135
    24   6 C    3.953 --    30 C    1.357    25 C    1.323    23 N    1.087
                            27 C    0.101
    25   6 C    3.746 --    26 C    1.622    24 C    1.323    27 C    0.392
                            30 C    0.157    28 C    0.101
    26   6 C    3.756 --    27 C    1.633    25 C    1.622    30 C    0.399
    27   6 C    3.745 --    26 C    1.633    28 C    1.365    25 C    0.392
Note: The following floating-point exceptions are signalling: IEEE_UNDERFLOW_FLAG IEEE_DENORMAL
normal termination of xtb
                            30 C    0.154    24 C    0.101
    28   6 C    3.926 --    30 C    1.416    27 C    1.365    29 Br   0.994
                            25 C    0.101
    29  35 Br   1.196 --    28 C    0.994
    30   6 C    3.607 --    28 C    1.416    24 C    1.357    26 C    0.399
                            25 C    0.157    27 C    0.154
    31   6 C    3.937 --    32 C    1.456    18 C    1.169    22 C    1.053
    32   6 C    3.386 --    31 C    1.456    15 C    1.256    16 C    0.230
                            17 C    0.144
 ---------------------------------------------------------------------------

Topologies differ in total number of bonds
Writing topology from bond orders to xtbtopo.mol

molecular dipole:
                 x           y           z       tot (Debye)
 q only:        0.330       0.806       0.051
   full:       -0.036       0.847       0.182       2.205
molecular quadrupole (traceless):
                xx          xy          yy          xz          yz          zz
 q only:       -6.001      -0.862      -3.695       3.609       3.695       9.696
  q+dip:      -25.548      -1.151      -1.083      -4.799       6.710      26.631
   full:      -25.940      -7.059       0.713      -5.858       3.229      25.227


           -------------------------------------------------
          | TOTAL ENERGY              -76.572074619708 Eh   |
          | GRADIENT NORM               0.492332863030 Eh/α |
          | HOMO-LUMO GAP               0.015226918505 eV   |
           -------------------------------------------------

------------------------------------------------------------------------
 * finished run on 2026/07/23 at 16:37:41.066     
------------------------------------------------------------------------
 total:
 * wall-time:     0 d,  0 h,  0 min,  0.688 sec
 *  cpu-time:     0 d,  0 h,  0 min,  0.693 sec
 * ratio c/w:     1.008 speedup
 SCF:
 * wall-time:     0 d,  0 h,  0 min,  0.670 sec
 *  cpu-time:     0 d,  0 h,  0 min,  0.667 sec
 * ratio c/w:     0.995 speedup

