      -----------------------------------------------------------      
     |                   =====================                   |     
     |                           x T B                           |     
     |                   =====================                   |     
     |                         S. Grimme                         |     
     |          Mulliken Center for Theoretical Chemistry        |     
     |                    University of Bonn                     |     
      -----------------------------------------------------------      

   * xtb version 6.6.1 (unknown) compiled by 'builduser@buildhost' on 2023-08-07

   xtb is free software: you can redistribute it and/or modify it under
   the terms of the GNU Lesser General Public License as published by
   the Free Software Foundation, either version 3 of the License, or
   (at your option) any later version.
   
   xtb is distributed in the hope that it will be useful,
   but WITHOUT ANY WARRANTY; without even the implied warranty of
   MERCHANTABILITY or FITNESS FOR A PARTICULAR PURPOSE.  See the
   GNU Lesser General Public License for more details.
   
   Cite this work as:
   * C. Bannwarth, E. Caldeweyher, S. Ehlert, A. Hansen, P. Pracht,
     J. Seibert, S. Spicher, S. Grimme, WIREs Comput. Mol. Sci., 2020, 11,
     e01493. DOI: 10.1002/wcms.1493
   
   for GFN2-xTB:
   * C. Bannwarth, S. Ehlert and S. Grimme., J. Chem. Theory Comput., 2019,
     15, 1652-1671. DOI: 10.1021/acs.jctc.8b01176
   for GFN1-xTB:
   * S. Grimme, C. Bannwarth, P. Shushkov, J. Chem. Theory Comput., 2017,
     13, 1989-2009. DOI: 10.1021/acs.jctc.7b00118
   for GFN0-xTB:
   * P. Pracht, E. Caldeweyher, S. Ehlert, S. Grimme, ChemRxiv, 2019, preprint.
     DOI: 10.26434/chemrxiv.8326202.v1
   for GFN-FF:
   * S. Spicher and S. Grimme, Angew. Chem. Int. Ed., 2020, 59, 15665-15673.
     DOI: 10.1002/anie.202004239
   
   for ALPB and GBSA implicit solvation:
   * S. Ehlert, M. Stahn, S. Spicher, S. Grimme, J. Chem. Theory Comput.,
     2021, 17, 4250-4261. DOI: 10.1021/acs.jctc.1c00471
   
   for DFT-D4:
   * E. Caldeweyher, C. Bannwarth and S. Grimme, J. Chem. Phys., 2017,
     147, 034112. DOI: 10.1063/1.4993215
   * E. Caldeweyher, S. Ehlert, A. Hansen, H. Neugebauer, S. Spicher,
     C. Bannwarth and S. Grimme, J. Chem. Phys., 2019, 150, 154122.
     DOI: 10.1063/1.5090222
   * E. Caldeweyher, J.-M. Mewes, S. Ehlert and S. Grimme, Phys. Chem. Chem. Phys.
     2020, 22, 8499-8512. DOI: 10.1039/D0CP00502A
   
   for sTDA-xTB:
   * S. Grimme and C. Bannwarth, J. Chem. Phys., 2016, 145, 054103.
     DOI: 10.1063/1.4959605
   
   in the mass-spec context:
   * V. Asgeirsson, C. Bauer and S. Grimme, Chem. Sci., 2017, 8, 4879.
     DOI: 10.1039/c7sc00601b
   * J. Koopman and S. Grimme, ACS Omega 2019, 4, 12, 15120-15133.
     DOI: 10.1021/acsomega.9b02011
   
   for metadynamics refer to:
   * S. Grimme, J. Chem. Theory Comput., 2019, 155, 2847-2862
     DOI: 10.1021/acs.jctc.9b00143
   
   for SPH calculations refer to:
   * S. Spicher and S. Grimme, J. Chem. Theory Comput., 2021, 17, 1701-1714
     DOI: 10.1021/acs.jctc.0c01306
   
   with help from (in alphabetical order)
   P. Atkinson, C. Bannwarth, F. Bohle, G. Brandenburg, E. Caldeweyher
   M. Checinski, S. Dohm, S. Ehlert, S. Ehrlich, I. Gerasimov, C. Hölzer
   A. Katbashev, J. Koopman, C. Lavigne, S. Lehtola, F. März, M. Müller,
   F. Musil, H. Neugebauer, J. Pisarek, C. Plett, P. Pracht, F. Pultar,
   J. Seibert, P. Shushkov, S. Spicher, M. Stahn, M. Steiner, T. Strunk,
   J. Stückrath, T. Rose, and J. Unsleber
   
 * started run on 2026/07/23 at 16:41:22.725     

           -------------------------------------------------
          |                Calculation Setup                |
           -------------------------------------------------

          program call               : xtb /home/selva/covalent_quantum_benchmark/data/quantum/erbB_xyz/ERBB2__CHEMBL180516__state03.xyz --gfn2 --chrg 0 --uhf 0 --iterations 300
          coordinate file            : /home/selva/covalent_quantum_benchmark/data/quantum/erbB_xyz/ERBB2__CHEMBL180516__state03.xyz
          omp threads                :                    24

   ID    Z sym.   atoms
    1    6 C      1, 2, 4-6, 8-10, 12, 14-17, 19-23, 25-27, 29-32, 34, 36-38,
                  40, 41
    2    8 O      3, 18, 35
    3    7 N      7, 11, 13, 33, 39
    4    9 F      24
    5   17 Cl     28

           -------------------------------------------------
          |                 G F N 2 - x T B                 |
           -------------------------------------------------

        Reference                      10.1021/acs.jctc.8b01176
      * Hamiltonian:
        H0-scaling (s, p, d)           1.850000    2.230000    2.230000
        zeta-weighting                 0.500000
      * Dispersion:
        s8                             2.700000
        a1                             0.520000
        a2                             5.000000
        s9                             5.000000
      * Repulsion:
        kExp                           1.500000    1.000000
        rExp                           1.000000
      * Coulomb:
        alpha                          2.000000
        third order                    shell-resolved
        anisotropic                    true
        a3                             3.000000
        a5                             4.000000
        cn-shift                       1.200000
        cn-exp                         4.000000
        max-rad                        5.000000


          ...................................................
          :                      SETUP                      :
          :.................................................:
          :  # basis functions                 170          :
          :  # atomic orbitals                 169          :
          :  # shells                           83          :
          :  # electrons                       181          :
          :  max. iterations                   300          :
          :  Hamiltonian                  GFN2-xTB          :
          :  restarted?                      false          :
          :  GBSA solvation                  false          :
          :  PC potential                    false          :
          :  electronic temp.          300.0000000     K    :
          :  accuracy                    1.0000000          :
          :  -> integral cutoff          0.2500000E+02      :
          :  -> integral neglect         0.1000000E-07      :
          :  -> SCF convergence          0.1000000E-05 Eh   :
          :  -> wf. convergence          0.1000000E-03 e    :
          :  Broyden damping             0.4000000          :
          ...................................................

 iter      E             dE          RMSdq      gap      omega  full diag
   1   -100.0758546 -0.100076E+03  0.869E+00    0.05       0.0  T
   2    -78.4828492  0.215930E+02  0.132E+01    0.01       1.0  T
   3    -69.3748518  0.910800E+01  0.124E+01    0.08       1.0  T
   4    -53.5749234  0.157999E+02  0.131E+01    0.24       1.0  T
   5    -89.7308539 -0.361559E+02  0.891E+00    0.13       1.0  T
   6    -98.6989267 -0.896807E+01  0.618E+00    0.17       1.0  T
   7    -96.2790111  0.241992E+01  0.672E+00    0.08       1.0  T
   8    -98.6106236 -0.233161E+01  0.518E+00    0.07       1.0  T
   9   -100.3575029 -0.174688E+01  0.405E+00    0.06       1.0  T
  10   -100.4187202 -0.612173E-01  0.356E+00    0.08       1.0  T
  11   -100.7069135 -0.288193E+00  0.324E+00    0.01       1.0  T
  12   -100.7644219 -0.575084E-01  0.304E+00    0.00       1.0  T
  13   -100.5586299  0.205792E+00  0.317E+00    0.03       1.0  T
  14   -100.4484499  0.110180E+00  0.323E+00    0.04       1.0  T
  15   -100.4232118  0.252381E-01  0.355E+00    0.03       1.0  T
  16   -101.2822249 -0.859013E+00  0.215E+00    0.05       1.0  T
  17   -101.4191946 -0.136970E+00  0.176E+00    0.02       1.0  T
  18   -101.4128031  0.639151E-02  0.156E+00    0.02       1.0  T
  19   -100.9559223  0.456881E+00  0.268E+00    0.06       1.0  T
  20    -99.8459551  0.110997E+01  0.370E+00    0.01       1.0  T
  21    -99.9696878 -0.123733E+00  0.360E+00    0.02       1.0  T
  22    -99.4333491  0.536339E+00  0.407E+00    0.03       1.0  T
  23   -100.0468476 -0.613499E+00  0.336E+00    0.02       1.0  T
  24   -101.3863097 -0.133946E+01  0.145E+00    0.06       1.0  T
  25   -101.3595139  0.267958E-01  0.144E+00    0.06       1.0  T
  26   -101.4024411 -0.429272E-01  0.143E+00    0.01       1.0  T
  27   -101.4999492 -0.975080E-01  0.777E-01    0.04       1.0  T
  28   -101.2843315  0.215618E+00  0.171E+00    0.01       1.0  T
  29   -101.4116040 -0.127272E+00  0.126E+00    0.01       1.0  T
  30   -101.3713106  0.402934E-01  0.133E+00    0.01       1.0  T
  31   -101.2659225  0.105388E+00  0.168E+00    0.02       1.0  T
  32   -101.4541929 -0.188270E+00  0.967E-01    0.01       1.0  T
  33   -101.5291495 -0.749566E-01  0.517E-01    0.04       1.0  T
  34   -101.5233000  0.584948E-02  0.590E-01    0.04       1.0  T
  35   -101.5340807 -0.107806E-01  0.467E-01    0.04       1.0  T
  36   -101.5406635 -0.658280E-02  0.381E-01    0.04       1.0  T
  37   -101.5425220 -0.185857E-02  0.368E-01    0.04       1.0  T
  38   -101.5329169  0.960518E-02  0.423E-01    0.04       1.0  T
  39   -101.5430629 -0.101460E-01  0.262E-01    0.03       1.0  T
  40   -101.5436899 -0.627034E-03  0.222E-01    0.03       1.0  T
  41   -101.5428491  0.840796E-03  0.204E-01    0.03       1.0  T
  42   -101.5443808 -0.153167E-02  0.158E-01    0.03       1.0  T
  43   -101.5457469 -0.136612E-02  0.121E-01    0.03       1.0  T
  44   -101.5476691 -0.192220E-02  0.528E-02    0.03       1.0  T
  45   -101.5477001 -0.309777E-04  0.582E-02    0.03       1.0  T
  46   -101.5477631 -0.630125E-04  0.483E-02    0.03       1.0  T
  47   -101.5475667  0.196384E-03  0.652E-02    0.03       1.0  T
  48   -101.5479371 -0.370379E-03  0.364E-02    0.03       1.0  T
  49   -101.5480085 -0.714579E-04  0.242E-02    0.03       1.0  T
  50   -101.5480399 -0.313532E-04  0.185E-02    0.03       1.0  T
  51   -101.5480569 -0.170300E-04  0.122E-02    0.03       1.3  T
  52   -101.5480690 -0.121066E-04  0.684E-03    0.03       2.3  T
  53   -101.5480711 -0.205193E-05  0.544E-03    0.03       2.9  T
  54   -101.5480714 -0.282639E-06  0.419E-03    0.03       3.7  T
  55   -101.5480722 -0.823915E-06  0.344E-03    0.03       4.5  T
  56   -101.5480726 -0.402778E-06  0.297E-03    0.03       5.3  T
  57   -101.5480730 -0.391593E-06  0.236E-03    0.03       6.6  T
  58   -101.5480734 -0.456217E-06  0.148E-03    0.03      10.5  T
  59   -101.5480735 -0.445833E-07  0.134E-03    0.03      11.7  T
  60   -101.5480736 -0.167159E-06  0.522E-04    0.03      29.9  T
  61   -101.5480737 -0.149370E-07  0.329E-04    0.03      47.4  T

   *** convergence criteria satisfied after 61 iterations ***

         #    Occupation            Energy/Eh            Energy/eV
      -------------------------------------------------------------
         1        2.0000           -1.0983240             -29.8869
       ...           ...                  ...                  ...
        85        1.9997           -0.4357967             -11.8586
        86        1.9913           -0.4326593             -11.7733
        87        1.8947           -0.4302345             -11.7073
        88        1.7112           -0.4291612             -11.6781
        89        1.6577           -0.4289646             -11.6727
        90        1.5590           -0.4286555             -11.6643
        91        1.2046           -0.4278133             -11.6414 (HOMO)
        92        0.6396           -0.4266421             -11.6095 (LUMO)
        93        0.2261           -0.4253604             -11.5746
        94        0.1163           -0.4246612             -11.5556
        95        0.0000           -0.4131514             -11.2424
        96                         -0.4050036             -11.0207
       ...                                ...                  ...
       169                          1.0380115              28.2457
      -------------------------------------------------------------
                  HL-Gap            0.0011712 Eh            0.0319 eV
             Fermi-level           -0.4273973 Eh          -11.6301 eV

 SCC (total)                   0 d,  0 h,  0 min,  1.455 sec
 SCC setup                      ...        0 min,  0.001 sec (  0.040%)
 Dispersion                     ...        0 min,  0.002 sec (  0.137%)
 classical contributions        ...        0 min,  0.001 sec (  0.069%)
 integral evaluation            ...        0 min,  0.006 sec (  0.400%)
 iterations                     ...        0 min,  1.404 sec ( 96.532%)
 molecular gradient             ...        0 min,  0.028 sec (  1.925%)
 printout                       ...        0 min,  0.013 sec (  0.894%)

         :::::::::::::::::::::::::::::::::::::::::::::::::::::
         ::                     SUMMARY                     ::
         :::::::::::::::::::::::::::::::::::::::::::::::::::::
         :: total energy            -100.433873927552 Eh    ::
         :: gradient norm              0.537215042790 Eh/a0 ::
         :: HOMO-LUMO gap              0.031869874273 eV    ::
         ::.................................................::
         :: SCC energy              -101.548073653138 Eh    ::
         :: -> isotropic ES            0.027294988826 Eh    ::
         :: -> anisotropic ES          0.008048370318 Eh    ::
         :: -> anisotropic XC          0.051969570215 Eh    ::
         :: -> dispersion             -0.059214038448 Eh    ::
         :: repulsion energy           1.113744400872 Eh    ::
         :: add. restraining           0.000000000000 Eh    ::
         :: total charge               0.000000000003 e     ::
         :::::::::::::::::::::::::::::::::::::::::::::::::::::

           -------------------------------------------------
          |                Property Printout                |
           -------------------------------------------------

    * Orbital Energies and Occupations

         #    Occupation            Energy/Eh            Energy/eV
      -------------------------------------------------------------
         1        2.0000           -1.0983240             -29.8869
       ...           ...                  ...                  ...
        79        2.0000           -0.4512663             -12.2796
        80        2.0000           -0.4500046             -12.2452
        81        2.0000           -0.4450211             -12.1096
        82        2.0000           -0.4429443             -12.0531
        83        2.0000           -0.4396585             -11.9637
        84        1.9999           -0.4370425             -11.8925
        85        1.9997           -0.4357967             -11.8586
        86        1.9913           -0.4326593             -11.7733
        87        1.8947           -0.4302345             -11.7073
        88        1.7112           -0.4291612             -11.6781
        89        1.6577           -0.4289646             -11.6727
        90        1.5590           -0.4286555             -11.6643
        91        1.2046           -0.4278133             -11.6414 (HOMO)
        92        0.6396           -0.4266421             -11.6095 (LUMO)
        93        0.2261           -0.4253604             -11.5746
        94        0.1163           -0.4246612             -11.5556
        95        0.0000           -0.4131514             -11.2424
        96                         -0.4050036             -11.0207
        97                         -0.4023033             -10.9472
        98                         -0.3955779             -10.7642
        99                         -0.3935606             -10.7093
       100                         -0.3701697             -10.0728
       101                         -0.3691073             -10.0439
       102                         -0.3649450              -9.9307
       ...                                ...                  ...
       169                          1.0380115              28.2457
      -------------------------------------------------------------
                  HL-Gap            0.0011712 Eh            0.0319 eV
             Fermi-level           -0.4273973 Eh          -11.6301 eV

     #   Z          covCN         q      C6AA      α(0)
     1   6 C        0.976    -0.094    38.877    10.470
     2   6 C        1.843     0.087    28.973     8.695
     3   8 O        1.703    -0.133    16.313     5.453
     4   6 C        2.857     0.160    24.544     8.120
     5   6 C        2.001    -0.078    33.163     9.300
     6   6 C        2.951     0.120    25.364     8.260
     7   7 N        1.845    -0.112    24.216     7.293
     8   6 C        1.969     0.067    29.381     8.753
     9   6 C        2.958     0.035    27.208     8.556
    10   6 C        1.907     0.123    28.077     8.558
    11   7 N        0.911    -0.176    24.804     7.203
    12   6 C        2.911     0.132    25.117     8.218
    13   7 N        1.828    -0.149    25.020     7.412
    14   6 C        2.892     0.135    25.043     8.205
    15   6 C        1.993    -0.020    31.568     9.074
    16   6 C        1.985    -0.048    32.337     9.183
    17   6 C        2.913     0.163    24.488     8.115
    18   8 O        1.702    -0.142    16.440     5.474
    19   6 C        1.873     0.075    29.235     8.733
    20   6 C        2.959     0.079    26.238     8.402
    21   6 C        1.990    -0.029    31.808     9.108
    22   6 C        1.986    -0.030    31.846     9.113
    23   6 C        2.775     0.213    23.500     7.940
    24   9 F        0.787    -0.150    10.727     3.869
    25   6 C        1.986    -0.029    31.833     9.111
    26   6 C        1.991    -0.019    31.561     9.073
    27   6 C        2.876     0.089    26.015     8.361
    28  17 Cl       0.958    -0.077   101.539    15.416
    29   6 C        2.028    -0.100    33.756     9.384
    30   6 C        2.977     0.021    27.522     8.605
    31   6 C        1.995    -0.052    32.449     9.199
    32   6 C        2.933     0.098    25.817     8.333
    33   7 N        1.832    -0.144    24.900     7.395
    34   6 C        2.789     0.296    21.989     7.681
    35   8 O        0.860    -0.368    21.057     6.152
    36   6 C        1.963    -0.011    31.364     9.044
    37   6 C        1.963     0.062    29.509     8.772
    38   6 C        1.912    -0.017    31.558     9.072
    39   7 N        2.720     0.175    18.327     6.358
    40   6 C        0.940    -0.060    37.493    10.263
    41   6 C        0.937    -0.092    38.526    10.402

 Mol. C6AA /au·bohr⁶  :      47483.447719
 Mol. C8AA /au·bohr⁸  :    1325556.771107
 Mol. α(0) /au        :        346.131178


Wiberg/Mayer (AO) data.
largest (>0.10) Wiberg bond orders for each atom

 ---------------------------------------------------------------------------
     #   Z sym  total        # sym  WBO       # sym  WBO       # sym  WBO
 ---------------------------------------------------------------------------
     1   6 C    2.223 --     2 C    2.016
     2   6 C    3.306 --     1 C    2.016     3 O    1.117
     3   8 O    2.410 --     2 C    1.117     4 C    1.077
     4   6 C    3.887 --     5 C    1.473    32 C    1.093     3 O    1.077
     5   6 C    3.669 --     4 C    1.473     6 C    1.383    31 C    0.413
     6   6 C    3.913 --     5 C    1.383     7 N    1.244    30 C    1.071
     7   7 N    3.289 --     8 C    1.657     6 C    1.244
     8   6 C    3.651 --     7 N    1.657     9 C    1.389    13 N    0.267
     9   6 C    3.939 --     8 C    1.389    12 C    1.223    10 C    1.080
    10   6 C    3.945 --    11 N    2.817     9 C    1.080
    11   7 N    3.000 --    10 C    2.817
    12   6 C    3.947 --    13 N    1.255     9 C    1.223    30 C    1.189
    13   7 N    3.165 --    12 C    1.255    14 C    1.238     8 C    0.267
    14   6 C    3.918 --    29 C    1.266    13 N    1.238    15 C    1.235
    15   6 C    3.620 --    16 C    1.785    14 C    1.235    29 C    0.243
    16   6 C    3.558 --    15 C    1.785    17 C    1.355    29 C    0.177
    17   6 C    3.802 --    16 C    1.355    27 C    1.239    18 O    0.958
    18   8 O    2.402 --    19 C    1.155    17 C    0.958
    19   6 C    3.098 --    18 O    1.155    20 C    1.074    25 C    0.195
                            26 C    0.112    22 C    0.111    21 C    0.106
    20   6 C    3.891 --    21 C    1.302    26 C    1.285    19 C    1.074
Note: The following floating-point exceptions are signalling: IEEE_UNDERFLOW_FLAG IEEE_DENORMAL
normal termination of xtb
    21   6 C    3.503 --    22 C    1.627    20 C    1.302    25 C    0.223
                            26 C    0.124    19 C    0.106
    22   6 C    3.507 --    21 C    1.627    23 C    1.341    26 C    0.243
                            19 C    0.111
    23   6 C    3.848 --    22 C    1.341    25 C    1.325    24 F    1.002
    24   9 F    1.147 --    23 C    1.002
    25   6 C    3.547 --    26 C    1.592    23 C    1.325    21 C    0.223
                            19 C    0.195
    26   6 C    3.457 --    25 C    1.592    20 C    1.285    22 C    0.243
                            21 C    0.124    19 C    0.112
    27   6 C    3.895 --    29 C    1.460    17 C    1.239    28 Cl   1.005
    28  17 Cl   1.185 --    27 C    1.005
    29   6 C    3.430 --    27 C    1.460    14 C    1.266    15 C    0.243
                            16 C    0.177
    30   6 C    3.937 --    31 C    1.422    12 C    1.189     6 C    1.071
    31   6 C    3.644 --    32 C    1.433    30 C    1.422     5 C    0.413
    32   6 C    3.926 --    31 C    1.433    33 N    1.178     4 C    1.093
    33   7 N    3.219 --    34 C    1.487    32 C    1.178    35 O    0.213
    34   6 C    3.942 --    33 N    1.487    35 O    1.397    36 C    0.967
    35   8 O    1.906 --    34 C    1.397    33 N    0.213
    36   6 C    3.708 --    37 C    2.322    34 C    0.967    38 C    0.110
    37   6 C    3.849 --    36 C    2.322    38 C    1.264
    38   6 C    3.081 --    37 C    1.264    39 N    1.037    41 C    0.484
                            36 C    0.110
    39   7 N    3.671 --    41 C    1.301    40 C    1.289    38 C    1.037
    40   6 C    1.887 --    39 N    1.289    41 C    0.446
    41   6 C    2.376 --    39 N    1.301    38 C    0.484    40 C    0.446
 ---------------------------------------------------------------------------

Topologies differ in total number of bonds
Writing topology from bond orders to xtbtopo.mol

molecular dipole:
                 x           y           z       tot (Debye)
 q only:        0.275       0.566       1.586
   full:       -0.128       1.345       1.769       5.658
molecular quadrupole (traceless):
                xx          xy          yy          xz          yz          zz
 q only:        0.190     -16.663       8.682      -7.856     -13.426      -8.872
  q+dip:        1.218     -20.670       1.570     -17.690     -10.419      -2.788
   full:        5.372     -24.136      -1.211     -18.270     -11.539      -4.161


           -------------------------------------------------
          | TOTAL ENERGY             -100.433873927552 Eh   |
          | GRADIENT NORM               0.537215042790 Eh/α |
          | HOMO-LUMO GAP               0.031869874273 eV   |
           -------------------------------------------------

------------------------------------------------------------------------
 * finished run on 2026/07/23 at 16:41:24.209     
------------------------------------------------------------------------
 total:
 * wall-time:     0 d,  0 h,  0 min,  1.484 sec
 *  cpu-time:     0 d,  0 h,  0 min,  1.433 sec
 * ratio c/w:     0.966 speedup
 SCF:
 * wall-time:     0 d,  0 h,  0 min,  1.455 sec
 *  cpu-time:     0 d,  0 h,  0 min,  1.401 sec
 * ratio c/w:     0.963 speedup

