      -----------------------------------------------------------      
     |                   =====================                   |     
     |                           x T B                           |     
     |                   =====================                   |     
     |                         S. Grimme                         |     
     |          Mulliken Center for Theoretical Chemistry        |     
     |                    University of Bonn                     |     
      -----------------------------------------------------------      

   * xtb version 6.6.1 (unknown) compiled by 'builduser@buildhost' on 2023-08-07

   xtb is free software: you can redistribute it and/or modify it under
   the terms of the GNU Lesser General Public License as published by
   the Free Software Foundation, either version 3 of the License, or
   (at your option) any later version.
   
   xtb is distributed in the hope that it will be useful,
   but WITHOUT ANY WARRANTY; without even the implied warranty of
   MERCHANTABILITY or FITNESS FOR A PARTICULAR PURPOSE.  See the
   GNU Lesser General Public License for more details.
   
   Cite this work as:
   * C. Bannwarth, E. Caldeweyher, S. Ehlert, A. Hansen, P. Pracht,
     J. Seibert, S. Spicher, S. Grimme, WIREs Comput. Mol. Sci., 2020, 11,
     e01493. DOI: 10.1002/wcms.1493
   
   for GFN2-xTB:
   * C. Bannwarth, S. Ehlert and S. Grimme., J. Chem. Theory Comput., 2019,
     15, 1652-1671. DOI: 10.1021/acs.jctc.8b01176
   for GFN1-xTB:
   * S. Grimme, C. Bannwarth, P. Shushkov, J. Chem. Theory Comput., 2017,
     13, 1989-2009. DOI: 10.1021/acs.jctc.7b00118
   for GFN0-xTB:
   * P. Pracht, E. Caldeweyher, S. Ehlert, S. Grimme, ChemRxiv, 2019, preprint.
     DOI: 10.26434/chemrxiv.8326202.v1
   for GFN-FF:
   * S. Spicher and S. Grimme, Angew. Chem. Int. Ed., 2020, 59, 15665-15673.
     DOI: 10.1002/anie.202004239
   
   for ALPB and GBSA implicit solvation:
   * S. Ehlert, M. Stahn, S. Spicher, S. Grimme, J. Chem. Theory Comput.,
     2021, 17, 4250-4261. DOI: 10.1021/acs.jctc.1c00471
   
   for DFT-D4:
   * E. Caldeweyher, C. Bannwarth and S. Grimme, J. Chem. Phys., 2017,
     147, 034112. DOI: 10.1063/1.4993215
   * E. Caldeweyher, S. Ehlert, A. Hansen, H. Neugebauer, S. Spicher,
     C. Bannwarth and S. Grimme, J. Chem. Phys., 2019, 150, 154122.
     DOI: 10.1063/1.5090222
   * E. Caldeweyher, J.-M. Mewes, S. Ehlert and S. Grimme, Phys. Chem. Chem. Phys.
     2020, 22, 8499-8512. DOI: 10.1039/D0CP00502A
   
   for sTDA-xTB:
   * S. Grimme and C. Bannwarth, J. Chem. Phys., 2016, 145, 054103.
     DOI: 10.1063/1.4959605
   
   in the mass-spec context:
   * V. Asgeirsson, C. Bauer and S. Grimme, Chem. Sci., 2017, 8, 4879.
     DOI: 10.1039/c7sc00601b
   * J. Koopman and S. Grimme, ACS Omega 2019, 4, 12, 15120-15133.
     DOI: 10.1021/acsomega.9b02011
   
   for metadynamics refer to:
   * S. Grimme, J. Chem. Theory Comput., 2019, 155, 2847-2862
     DOI: 10.1021/acs.jctc.9b00143
   
   for SPH calculations refer to:
   * S. Spicher and S. Grimme, J. Chem. Theory Comput., 2021, 17, 1701-1714
     DOI: 10.1021/acs.jctc.0c01306
   
   with help from (in alphabetical order)
   P. Atkinson, C. Bannwarth, F. Bohle, G. Brandenburg, E. Caldeweyher
   M. Checinski, S. Dohm, S. Ehlert, S. Ehrlich, I. Gerasimov, C. Hölzer
   A. Katbashev, J. Koopman, C. Lavigne, S. Lehtola, F. März, M. Müller,
   F. Musil, H. Neugebauer, J. Pisarek, C. Plett, P. Pracht, F. Pultar,
   J. Seibert, P. Shushkov, S. Spicher, M. Stahn, M. Steiner, T. Strunk,
   J. Stückrath, T. Rose, and J. Unsleber
   
 * started run on 2026/07/23 at 16:43:12.572     

           -------------------------------------------------
          |                Calculation Setup                |
           -------------------------------------------------

          program call               : xtb /home/selva/covalent_quantum_benchmark/data/quantum/erbB_xyz/ERBB2__CHEMBL597492__state03.xyz --gfn2 --chrg 0 --uhf 0 --iterations 300
          coordinate file            : /home/selva/covalent_quantum_benchmark/data/quantum/erbB_xyz/ERBB2__CHEMBL597492__state03.xyz
          omp threads                :                    24

   ID    Z sym.   atoms
    1    6 C      1, 3-9, 11-14, 16-18, 21, 23, 24, 26, 27, 29
    2    8 O      2, 19, 22, 25, 28
    3    7 N      10, 20
    4   53 I      15

           -------------------------------------------------
          |                 G F N 2 - x T B                 |
           -------------------------------------------------

        Reference                      10.1021/acs.jctc.8b01176
      * Hamiltonian:
        H0-scaling (s, p, d)           1.850000    2.230000    2.230000
        zeta-weighting                 0.500000
      * Dispersion:
        s8                             2.700000
        a1                             0.520000
        a2                             5.000000
        s9                             5.000000
      * Repulsion:
        kExp                           1.500000    1.000000
        rExp                           1.000000
      * Coulomb:
        alpha                          2.000000
        third order                    shell-resolved
        anisotropic                    true
        a3                             3.000000
        a5                             4.000000
        cn-shift                       1.200000
        cn-exp                         4.000000
        max-rad                        5.000000


          ...................................................
          :                      SETUP                      :
          :.................................................:
          :  # basis functions                 122          :
          :  # atomic orbitals                 121          :
          :  # shells                           59          :
          :  # electrons                       131          :
          :  max. iterations                   300          :
          :  Hamiltonian                  GFN2-xTB          :
          :  restarted?                      false          :
          :  GBSA solvation                  false          :
          :  PC potential                    false          :
          :  electronic temp.          300.0000000     K    :
          :  accuracy                    1.0000000          :
          :  -> integral cutoff          0.2500000E+02      :
          :  -> integral neglect         0.1000000E-07      :
          :  -> SCF convergence          0.1000000E-05 Eh   :
          :  -> wf. convergence          0.1000000E-03 e    :
          :  Broyden damping             0.4000000          :
          ...................................................

 iter      E             dE          RMSdq      gap      omega  full diag
   1    -72.9655531 -0.729656E+02  0.887E+00    0.30       0.0  T
   2    -51.1367962  0.218288E+02  0.150E+01    0.14       1.0  T
   3    -63.5892093 -0.124524E+02  0.104E+01    0.16       1.0  T
   4    -70.0914154 -0.650221E+01  0.839E+00    0.38       1.0  T
   5    -72.2127307 -0.212132E+01  0.659E+00    0.22       1.0  T
   6    -72.9994962 -0.786766E+00  0.466E+00    0.40       1.0  T
   7    -73.4237679 -0.424272E+00  0.488E+00    0.24       1.0  T
   8    -73.6396276 -0.215860E+00  0.471E+00    0.02       1.0  T
   9    -74.1278892 -0.488262E+00  0.299E+00    0.01       1.0  T
  10    -73.3941317  0.733758E+00  0.504E+00    0.14       1.0  T
  11    -73.6492032 -0.255072E+00  0.464E+00    0.10       1.0  T
  12    -73.6015878  0.476155E-01  0.475E+00    0.12       1.0  T
  13    -73.6096553 -0.806758E-02  0.474E+00    0.12       1.0  T
  14    -73.6216971 -0.120418E-01  0.455E+00    0.08       1.0  T
  15    -73.2482246  0.373473E+00  0.505E+00    0.01       1.0  T
  16    -73.9708809 -0.722656E+00  0.341E+00    0.08       1.0  T
  17    -74.1224604 -0.151580E+00  0.278E+00    0.05       1.0  T
  18    -74.0397423  0.827182E-01  0.304E+00    0.05       1.0  T
  19    -73.3295722  0.710170E+00  0.426E+00    0.08       1.0  T
  20    -73.7513894 -0.421817E+00  0.340E+00    0.09       1.0  T
  21    -74.1103737 -0.358984E+00  0.249E+00    0.05       1.0  T
  22    -74.1591895 -0.488157E-01  0.216E+00    0.03       1.0  T
  23    -74.3515895 -0.192400E+00  0.151E+00    0.04       1.0  T
  24    -74.3927297 -0.411402E-01  0.113E+00    0.02       1.0  T
  25    -74.3684453  0.242843E-01  0.126E+00    0.03       1.0  T
  26    -74.3819673 -0.135220E-01  0.114E+00    0.03       1.0  T
  27    -74.3800804  0.188693E-02  0.122E+00    0.05       1.0  T
  28    -74.4164165 -0.363361E-01  0.800E-01    0.03       1.0  T
  29    -74.4451993 -0.287828E-01  0.497E-01    0.01       1.0  T
  30    -74.4378525  0.734671E-02  0.599E-01    0.01       1.0  T
  31    -74.4439879 -0.613539E-02  0.451E-01    0.01       1.0  T
  32    -74.4488607 -0.487278E-02  0.322E-01    0.01       1.0  T
  33    -74.4459740  0.288676E-02  0.394E-01    0.02       1.0  T
  34    -74.4459852 -0.112829E-04  0.394E-01    0.02       1.0  T
  35    -74.4412346  0.475060E-02  0.479E-01    0.02       1.0  T
  36    -74.4515860 -0.103514E-01  0.233E-01    0.01       1.0  T
  37    -74.4534906 -0.190456E-02  0.158E-01    0.01       1.0  T
  38    -74.4539454 -0.454815E-03  0.148E-01    0.00       1.0  T
  39    -74.4547788 -0.833389E-03  0.890E-02    0.00       1.0  T
  40    -74.4551838 -0.405036E-03  0.554E-02    0.00       1.0  T
  41    -74.4550934  0.903897E-04  0.729E-02    0.00       1.0  T
  42    -74.4552089 -0.115484E-03  0.546E-02    0.00       1.0  T
  43    -74.4552652 -0.563061E-04  0.428E-02    0.00       1.0  T
  44    -74.4553291 -0.639003E-04  0.185E-02    0.00       1.0  T
  45    -74.4553305 -0.133546E-05  0.169E-02    0.00       1.1  T
  46    -74.4553345 -0.403291E-05  0.140E-02    0.00       1.3  T
  47    -74.4553358 -0.129505E-05  0.127E-02    0.00       1.5  T
  48    -74.4553404 -0.458614E-05  0.765E-03    0.00       2.4  T
  49    -74.4553412 -0.838822E-06  0.628E-03    0.00       3.0  T
  50    -74.4553416 -0.390396E-06  0.579E-03    0.00       3.2  T
  51    -74.4553431 -0.149852E-05  0.289E-03    0.00       6.4  T
  52    -74.4553432 -0.789472E-07  0.267E-03    0.00       7.0  T
  53    -74.4553434 -0.177223E-06  0.196E-03    0.00       9.5  T
  54    -74.4553435 -0.114216E-06  0.143E-03    0.00      12.9  T
  55    -74.4553436 -0.109894E-06  0.392E-04    0.00      47.3  T
  56    -74.4553436 -0.680630E-08  0.243E-04    0.00      76.3  T

   *** convergence criteria satisfied after 56 iterations ***

         #    Occupation            Energy/Eh            Energy/eV
      -------------------------------------------------------------
         1        2.0000           -0.8353601             -22.7313
       ...           ...                  ...                  ...
        60        2.0000           -0.4486737             -12.2090
        61        2.0000           -0.4438008             -12.0764
        62        2.0000           -0.4415690             -12.0157
        63        1.9997           -0.4389410             -11.9442
        64        1.9334           -0.4337462             -11.8028
        65        1.9027           -0.4333594             -11.7923
        66        0.5088           -0.4286767             -11.6649 (HOMO)
        67        0.4626           -0.4285324             -11.6610 (LUMO)
        68        0.1667           -0.4272618             -11.6264
        69        0.0239           -0.4252931             -11.5728
        70        0.0023           -0.4230363             -11.5114
        71        0.0000           -0.4138032             -11.2602
       ...           ...                  ...                  ...
       121                          0.6742021              18.3460
      -------------------------------------------------------------
                  HL-Gap            0.0001443 Eh            0.0039 eV
             Fermi-level           -0.4300244 Eh          -11.7016 eV

 SCC (total)                   0 d,  0 h,  0 min,  0.597 sec
 SCC setup                      ...        0 min,  0.000 sec (  0.073%)
 Dispersion                     ...        0 min,  0.001 sec (  0.191%)
 classical contributions        ...        0 min,  0.003 sec (  0.533%)
 integral evaluation            ...        0 min,  0.006 sec (  0.960%)
 iterations                     ...        0 min,  0.546 sec ( 91.470%)
 molecular gradient             ...        0 min,  0.036 sec (  6.010%)
 printout                       ...        0 min,  0.005 sec (  0.756%)

         :::::::::::::::::::::::::::::::::::::::::::::::::::::
         ::                     SUMMARY                     ::
         :::::::::::::::::::::::::::::::::::::::::::::::::::::
         :: total energy             -73.694663233513 Eh    ::
         :: gradient norm              0.439565477902 Eh/a0 ::
         :: HOMO-LUMO gap              0.003925725227 eV    ::
         ::.................................................::
         :: SCC energy               -74.455343600882 Eh    ::
         :: -> isotropic ES            0.038415124225 Eh    ::
         :: -> anisotropic ES          0.013087495801 Eh    ::
         :: -> anisotropic XC          0.014818119634 Eh    ::
         :: -> dispersion             -0.047144570583 Eh    ::
         :: repulsion energy           0.759790788468 Eh    ::
         :: add. restraining           0.000000000000 Eh    ::
         :: total charge              -0.000000000015 e     ::
         :::::::::::::::::::::::::::::::::::::::::::::::::::::

           -------------------------------------------------
          |                Property Printout                |
           -------------------------------------------------

    * Orbital Energies and Occupations

         #    Occupation            Energy/Eh            Energy/eV
      -------------------------------------------------------------
         1        2.0000           -0.8353601             -22.7313
       ...           ...                  ...                  ...
        54        2.0000           -0.4823447             -13.1253
        55        2.0000           -0.4795224             -13.0485
        56        2.0000           -0.4761765             -12.9574
        57        2.0000           -0.4705990             -12.8057
        58        2.0000           -0.4530078             -12.3270
        59        2.0000           -0.4496075             -12.2344
        60        2.0000           -0.4486737             -12.2090
        61        2.0000           -0.4438008             -12.0764
        62        2.0000           -0.4415690             -12.0157
        63        1.9997           -0.4389410             -11.9442
        64        1.9334           -0.4337462             -11.8028
        65        1.9027           -0.4333594             -11.7923
        66        0.5088           -0.4286767             -11.6649 (HOMO)
        67        0.4626           -0.4285324             -11.6610 (LUMO)
        68        0.1667           -0.4272618             -11.6264
        69        0.0239           -0.4252931             -11.5728
        70        0.0023           -0.4230363             -11.5114
        71        0.0000           -0.4138032             -11.2602
        72                         -0.4120944             -11.2137
        73                         -0.4040008             -10.9934
        74                         -0.3738858             -10.1739
        75                         -0.3635175              -9.8918
        76                         -0.3307507              -9.0002
        77                         -0.3197113              -8.6998
       ...                                ...                  ...
       121                          0.6742021              18.3460
      -------------------------------------------------------------
                  HL-Gap            0.0001443 Eh            0.0039 eV
             Fermi-level           -0.4300244 Eh          -11.7016 eV

     #   Z          covCN         q      C6AA      α(0)
     1   6 C        0.882    -0.016    35.716     9.986
     2   8 O        1.703    -0.047    15.098     5.246
     3   6 C        2.869     0.141    24.924     8.184
     4   6 C        1.994    -0.049    32.360     9.187
     5   6 C        2.965     0.064    26.559     8.453
     6   6 C        3.175     0.012    27.362     8.543
     7   6 C        3.018     0.035    27.204     8.556
     8   6 C        2.973     0.048    26.920     8.511
     9   6 C        2.146     0.050    29.468     8.775
    10   7 N        1.843    -0.118    24.330     7.310
    11   6 C        3.136     0.097    25.635     8.287
    12   6 C        1.985    -0.036    32.021     9.138
    13   6 C        2.134    -0.000    30.781     8.967
    14   6 C        2.953     0.091    25.984     8.361
    15  53 I        1.256    -0.001   371.982    33.294
    16   6 C        2.132    -0.046    32.010     9.144
    17   6 C        3.049     0.023    27.456     8.594
    18   6 C        3.270     0.289    21.088     7.405
    19   8 O        0.857    -0.355    20.809     6.116
    20   7 N        1.855    -0.214    26.497     7.629
    21   6 C        3.116     0.299    21.811     7.650
    22   8 O        0.857    -0.313    20.012     5.998
    23   6 C        1.991    -0.076    33.118     9.294
    24   6 C        2.853     0.144    24.870     8.174
    25   8 O        1.703    -0.047    15.096     5.246
    26   6 C        0.868    -0.010    35.459     9.943
    27   6 C        2.901     0.122    25.318     8.250
    28   8 O        1.702    -0.065    15.348     5.289
    29   6 C        0.909    -0.021    36.062    10.049

 Mol. C6AA /au·bohr⁶  :      26191.085242
 Mol. C8AA /au·bohr⁸  :     857915.870408
 Mol. α(0) /au        :        259.578203


Wiberg/Mayer (AO) data.
largest (>0.10) Wiberg bond orders for each atom

 ---------------------------------------------------------------------------
     #   Z sym  total        # sym  WBO       # sym  WBO       # sym  WBO
 ---------------------------------------------------------------------------
     1   6 C    2.044 --     2 O    1.535     4 C    0.132    29 C    0.128
                            23 C    0.105
     2   8 O    2.600 --     1 C    1.535     3 C    0.987
     3   6 C    3.901 --     4 C    1.374    27 C    1.303     2 O    0.987
     4   6 C    3.597 --     3 C    1.374     5 C    1.351    23 C    0.350
                             1 C    0.132
     5   6 C    3.968 --    23 C    1.366     4 C    1.351     6 C    1.045
     6   6 C    3.919 --     7 C    1.642     5 C    1.045    21 C    0.912
     7   6 C    3.954 --     6 C    1.642     8 C    1.147    18 C    0.896
     8   6 C    3.793 --     7 C    1.147     9 C    1.073    17 C    1.057
                            20 N    0.110
     9   6 C    3.711 --    10 N    1.896     8 C    1.073    13 C    0.305
                            12 C    0.102
    10   7 N    3.199 --     9 C    1.896    11 C    1.012
    11   6 C    3.915 --    12 C    1.410    17 C    1.156    10 N    1.012
    12   6 C    3.690 --    13 C    1.630    11 C    1.410    16 C    0.324
                             9 C    0.102
    13   6 C    3.753 --    12 C    1.630    14 C    1.359     9 C    0.305
                            16 C    0.123    17 C    0.102
    14   6 C    3.938 --    16 C    1.410    13 C    1.359    15 I    0.988
    15  53 I    1.165 --    14 C    0.988
    16   6 C    3.692 --    17 C    1.464    14 C    1.410    12 C    0.324
                            13 C    0.123
    17   6 C    3.952 --    16 C    1.464    11 C    1.156     8 C    1.057
                            13 C    0.102
    18   6 C    3.944 --    19 O    1.513    20 N    1.412     7 C    0.896
    19   8 O    2.078 --    18 C    1.513    20 N    0.162
    20   7 N    3.116 --    18 C    1.412    21 C    1.163    19 O    0.162
                            22 O    0.112     8 C    0.110
    21   6 C    3.945 --    22 O    1.741    20 N    1.163     6 C    0.912
    22   8 O    2.109 --    21 C    1.741    20 N    0.112
    23   6 C    3.650 --     5 C    1.366    24 C    1.356     4 C    0.350
                            26 C    0.225     1 C    0.105
    24   6 C    3.894 --    23 C    1.356    27 C    1.265    25 O    1.032
    25   8 O    2.626 --    26 C    1.506    24 C    1.032
    26   6 C    2.123 --    25 O    1.506    23 C    0.225    29 C    0.162
    27   6 C    3.890 --     3 C    1.303    24 C    1.265    28 O    0.968
    28   8 O    2.565 --    29 C    1.475    27 C    0.968
    29   6 C    2.047 --    28 O    1.475    26 C    0.162     1 C    0.128
Note: The following floating-point exceptions are signalling: IEEE_UNDERFLOW_FLAG IEEE_DENORMAL
normal termination of xtb
 ---------------------------------------------------------------------------

Topologies differ in total number of bonds
Writing topology from bond orders to xtbtopo.mol

molecular dipole:
                 x           y           z       tot (Debye)
 q only:        0.948       0.709      -1.966
   full:        0.286       1.315      -2.360       6.904
molecular quadrupole (traceless):
                xx          xy          yy          xz          yz          zz
 q only:       16.401     -11.300       6.459      10.652      17.337     -22.860
  q+dip:       13.319      -3.356       7.767       3.729      28.482     -21.086
   full:       12.849      -3.465      10.643       4.733      29.830     -23.491


           -------------------------------------------------
          | TOTAL ENERGY              -73.694663233513 Eh   |
          | GRADIENT NORM               0.439565477902 Eh/α |
          | HOMO-LUMO GAP               0.003925725227 eV   |
           -------------------------------------------------

------------------------------------------------------------------------
 * finished run on 2026/07/23 at 16:43:13.189     
------------------------------------------------------------------------
 total:
 * wall-time:     0 d,  0 h,  0 min,  0.618 sec
 *  cpu-time:     0 d,  0 h,  0 min,  0.560 sec
 * ratio c/w:     0.906 speedup
 SCF:
 * wall-time:     0 d,  0 h,  0 min,  0.598 sec
 *  cpu-time:     0 d,  0 h,  0 min,  0.534 sec
 * ratio c/w:     0.894 speedup

