      -----------------------------------------------------------      
     |                   =====================                   |     
     |                           x T B                           |     
     |                   =====================                   |     
     |                         S. Grimme                         |     
     |          Mulliken Center for Theoretical Chemistry        |     
     |                    University of Bonn                     |     
      -----------------------------------------------------------      

   * xtb version 6.6.1 (unknown) compiled by 'builduser@buildhost' on 2023-08-07

   xtb is free software: you can redistribute it and/or modify it under
   the terms of the GNU Lesser General Public License as published by
   the Free Software Foundation, either version 3 of the License, or
   (at your option) any later version.
   
   xtb is distributed in the hope that it will be useful,
   but WITHOUT ANY WARRANTY; without even the implied warranty of
   MERCHANTABILITY or FITNESS FOR A PARTICULAR PURPOSE.  See the
   GNU Lesser General Public License for more details.
   
   Cite this work as:
   * C. Bannwarth, E. Caldeweyher, S. Ehlert, A. Hansen, P. Pracht,
     J. Seibert, S. Spicher, S. Grimme, WIREs Comput. Mol. Sci., 2020, 11,
     e01493. DOI: 10.1002/wcms.1493
   
   for GFN2-xTB:
   * C. Bannwarth, S. Ehlert and S. Grimme., J. Chem. Theory Comput., 2019,
     15, 1652-1671. DOI: 10.1021/acs.jctc.8b01176
   for GFN1-xTB:
   * S. Grimme, C. Bannwarth, P. Shushkov, J. Chem. Theory Comput., 2017,
     13, 1989-2009. DOI: 10.1021/acs.jctc.7b00118
   for GFN0-xTB:
   * P. Pracht, E. Caldeweyher, S. Ehlert, S. Grimme, ChemRxiv, 2019, preprint.
     DOI: 10.26434/chemrxiv.8326202.v1
   for GFN-FF:
   * S. Spicher and S. Grimme, Angew. Chem. Int. Ed., 2020, 59, 15665-15673.
     DOI: 10.1002/anie.202004239
   
   for ALPB and GBSA implicit solvation:
   * S. Ehlert, M. Stahn, S. Spicher, S. Grimme, J. Chem. Theory Comput.,
     2021, 17, 4250-4261. DOI: 10.1021/acs.jctc.1c00471
   
   for DFT-D4:
   * E. Caldeweyher, C. Bannwarth and S. Grimme, J. Chem. Phys., 2017,
     147, 034112. DOI: 10.1063/1.4993215
   * E. Caldeweyher, S. Ehlert, A. Hansen, H. Neugebauer, S. Spicher,
     C. Bannwarth and S. Grimme, J. Chem. Phys., 2019, 150, 154122.
     DOI: 10.1063/1.5090222
   * E. Caldeweyher, J.-M. Mewes, S. Ehlert and S. Grimme, Phys. Chem. Chem. Phys.
     2020, 22, 8499-8512. DOI: 10.1039/D0CP00502A
   
   for sTDA-xTB:
   * S. Grimme and C. Bannwarth, J. Chem. Phys., 2016, 145, 054103.
     DOI: 10.1063/1.4959605
   
   in the mass-spec context:
   * V. Asgeirsson, C. Bauer and S. Grimme, Chem. Sci., 2017, 8, 4879.
     DOI: 10.1039/c7sc00601b
   * J. Koopman and S. Grimme, ACS Omega 2019, 4, 12, 15120-15133.
     DOI: 10.1021/acsomega.9b02011
   
   for metadynamics refer to:
   * S. Grimme, J. Chem. Theory Comput., 2019, 155, 2847-2862
     DOI: 10.1021/acs.jctc.9b00143
   
   for SPH calculations refer to:
   * S. Spicher and S. Grimme, J. Chem. Theory Comput., 2021, 17, 1701-1714
     DOI: 10.1021/acs.jctc.0c01306
   
   with help from (in alphabetical order)
   P. Atkinson, C. Bannwarth, F. Bohle, G. Brandenburg, E. Caldeweyher
   M. Checinski, S. Dohm, S. Ehlert, S. Ehrlich, I. Gerasimov, C. Hölzer
   A. Katbashev, J. Koopman, C. Lavigne, S. Lehtola, F. März, M. Müller,
   F. Musil, H. Neugebauer, J. Pisarek, C. Plett, P. Pracht, F. Pultar,
   J. Seibert, P. Shushkov, S. Spicher, M. Stahn, M. Steiner, T. Strunk,
   J. Stückrath, T. Rose, and J. Unsleber
   
 * started run on 2026/07/23 at 16:42:44.166     

           -------------------------------------------------
          |                Calculation Setup                |
           -------------------------------------------------

          program call               : xtb /home/selva/covalent_quantum_benchmark/data/quantum/erbB_xyz/ERBB2__CHEMBL383499__state03.xyz --gfn2 --chrg 0 --uhf 0 --iterations 300
          coordinate file            : /home/selva/covalent_quantum_benchmark/data/quantum/erbB_xyz/ERBB2__CHEMBL383499__state03.xyz
          omp threads                :                    24

   ID    Z sym.   atoms
    1    6 C      1-3, 5-8, 11-14, 16-19, 21, 23, 25, 27, 28, 30-32
    2    7 N      4, 10, 15, 24, 26, 29
    3    8 O      9
    4    9 F      20
    5   17 Cl     22

           -------------------------------------------------
          |                 G F N 2 - x T B                 |
           -------------------------------------------------

        Reference                      10.1021/acs.jctc.8b01176
      * Hamiltonian:
        H0-scaling (s, p, d)           1.850000    2.230000    2.230000
        zeta-weighting                 0.500000
      * Dispersion:
        s8                             2.700000
        a1                             0.520000
        a2                             5.000000
        s9                             5.000000
      * Repulsion:
        kExp                           1.500000    1.000000
        rExp                           1.000000
      * Coulomb:
        alpha                          2.000000
        third order                    shell-resolved
        anisotropic                    true
        a3                             3.000000
        a5                             4.000000
        cn-shift                       1.200000
        cn-exp                         4.000000
        max-rad                        5.000000


          ...................................................
          :                      SETUP                      :
          :.................................................:
          :  # basis functions                 134          :
          :  # atomic orbitals                 133          :
          :  # shells                           65          :
          :  # electrons                       142          :
          :  max. iterations                   300          :
          :  Hamiltonian                  GFN2-xTB          :
          :  restarted?                      false          :
          :  GBSA solvation                  false          :
          :  PC potential                    false          :
          :  electronic temp.          300.0000000     K    :
          :  accuracy                    1.0000000          :
          :  -> integral cutoff          0.2500000E+02      :
          :  -> integral neglect         0.1000000E-07      :
          :  -> SCF convergence          0.1000000E-05 Eh   :
          :  -> wf. convergence          0.1000000E-03 e    :
          :  Broyden damping             0.4000000          :
          ...................................................

 iter      E             dE          RMSdq      gap      omega  full diag
   1    -78.6552765 -0.786553E+02  0.903E+00    0.01       0.0  T
   2    -63.1769648  0.154783E+02  0.133E+01    0.04       1.0  T
   3    -50.1742277  0.130027E+02  0.133E+01    0.22       1.0  T
   4    -61.1171510 -0.109429E+02  0.109E+01    0.20       1.0  T
   5    -71.4675644 -0.103504E+02  0.945E+00    0.06       1.0  T
   6    -75.0661721 -0.359861E+01  0.774E+00    0.26       1.0  T
   7    -77.0026358 -0.193646E+01  0.565E+00    0.52       1.0  T
   8    -78.2616325 -0.125900E+01  0.479E+00    0.10       1.0  T
   9    -77.0060123  0.125562E+01  0.510E+00    0.56       1.0  T
  10    -78.4088765 -0.140286E+01  0.400E+00    0.23       1.0  T
  11    -78.6012979 -0.192421E+00  0.392E+00    0.01       1.0  T
  12    -78.9227281 -0.321430E+00  0.305E+00    0.06       1.0  T
  13    -79.0909914 -0.168263E+00  0.273E+00    0.03       1.0  T
  14    -79.0262620  0.647294E-01  0.281E+00    0.03       1.0  T
  15    -78.9556797  0.705823E-01  0.288E+00    0.13       1.0  T
  16    -79.0770504 -0.121371E+00  0.258E+00    0.07       1.0  T
  17    -79.2002659 -0.123215E+00  0.216E+00    0.02       1.0  T
  18    -79.0615791  0.138687E+00  0.229E+00    0.05       1.0  T
  19    -79.3469290 -0.285350E+00  0.115E+00    0.01       1.0  T
  20    -79.3459211  0.100788E-02  0.121E+00    0.01       1.0  T
  21    -79.2888833  0.570378E-01  0.141E+00    0.01       1.0  T
  22    -79.2077691  0.811143E-01  0.149E+00    0.03       1.0  T
  23    -79.3797100 -0.171941E+00  0.762E-01    0.03       1.0  T
  24    -79.3832048 -0.349475E-02  0.758E-01    0.06       1.0  T
  25    -79.3858855 -0.268074E-02  0.651E-01    0.03       1.0  T
  26    -79.3876149 -0.172940E-02  0.557E-01    0.02       1.0  T
  27    -79.3996402 -0.120252E-01  0.430E-01    0.06       1.0  T
  28    -79.4081819 -0.854172E-02  0.231E-01    0.04       1.0  T
  29    -79.4062478  0.193412E-02  0.240E-01    0.05       1.0  T
  30    -79.4090801 -0.283231E-02  0.139E-01    0.03       1.0  T
  31    -79.4104633 -0.138327E-02  0.448E-02    0.04       1.0  T
  32    -79.4103711  0.922423E-04  0.570E-02    0.04       1.0  T
  33    -79.4102759  0.952155E-04  0.630E-02    0.03       1.0  T
  34    -79.4102790 -0.315956E-05  0.553E-02    0.03       1.0  T
  35    -79.4104347 -0.155686E-03  0.360E-02    0.03       1.0  T
  36    -79.4105384 -0.103712E-03  0.988E-03    0.03       1.8  T
  37    -79.4105022  0.362607E-04  0.221E-02    0.03       1.0  T
  38    -79.4105134 -0.111887E-04  0.185E-02    0.03       1.0  T
  39    -79.4105379 -0.245317E-04  0.918E-03    0.03       1.9  T
  40    -79.4105408 -0.293814E-05  0.624E-03    0.03       2.8  T
  41    -79.4105427 -0.180777E-05  0.337E-03    0.03       5.2  T
  42    -79.4105425  0.129415E-06  0.329E-03    0.03       5.4  T
  43    -79.4105432 -0.647365E-06  0.152E-03    0.03      11.7  T
  44    -79.4105431  0.699734E-07  0.149E-03    0.03      11.9  T
  45    -79.4105432 -0.137752E-06  0.685E-04    0.03      25.8  T
  46    -79.4105432  0.119723E-07  0.731E-04    0.03      24.2  T

   *** convergence criteria satisfied after 46 iterations ***

         #    Occupation            Energy/Eh            Energy/eV
      -------------------------------------------------------------
         1        2.0000           -1.0859112             -29.5491
       ...           ...                  ...                  ...
        65        2.0000           -0.4368954             -11.8885
        66        2.0000           -0.4338771             -11.8064
        67        2.0000           -0.4328927             -11.7796
        68        2.0000           -0.4301321             -11.7045
        69        1.9993           -0.4269988             -11.6192
        70        1.7383           -0.4212964             -11.4641
        71        1.3421           -0.4201749             -11.4335 (HOMO)
        72        0.7045           -0.4189188             -11.3994 (LUMO)
        73        0.2158           -0.4174906             -11.3605
        74        0.0002           -0.4107112             -11.1760
        75        0.0000           -0.4081239             -11.1056
        76        0.0000           -0.4042954             -11.0014
       ...           ...                  ...                  ...
       133                          1.2998220              35.3700
      -------------------------------------------------------------
                  HL-Gap            0.0012561 Eh            0.0342 eV
             Fermi-level           -0.4194976 Eh          -11.4151 eV

 SCC (total)                   0 d,  0 h,  0 min,  0.401 sec
 SCC setup                      ...        0 min,  0.000 sec (  0.057%)
 Dispersion                     ...        0 min,  0.002 sec (  0.413%)
 classical contributions        ...        0 min,  0.001 sec (  0.162%)
 integral evaluation            ...        0 min,  0.003 sec (  0.781%)
 iterations                     ...        0 min,  0.381 sec ( 94.910%)
 molecular gradient             ...        0 min,  0.013 sec (  3.342%)
 printout                       ...        0 min,  0.001 sec (  0.331%)

         :::::::::::::::::::::::::::::::::::::::::::::::::::::
         ::                     SUMMARY                     ::
         :::::::::::::::::::::::::::::::::::::::::::::::::::::
         :: total energy             -78.549074857924 Eh    ::
         :: gradient norm              0.466584191437 Eh/a0 ::
         :: HOMO-LUMO gap              0.034179996252 eV    ::
         ::.................................................::
         :: SCC energy               -79.410543227283 Eh    ::
         :: -> isotropic ES           -0.006230066672 Eh    ::
         :: -> anisotropic ES          0.005582115801 Eh    ::
         :: -> anisotropic XC          0.048507554243 Eh    ::
         :: -> dispersion             -0.046308339638 Eh    ::
         :: repulsion energy           0.860583188582 Eh    ::
         :: add. restraining           0.000000000000 Eh    ::
         :: total charge               0.000000000014 e     ::
         :::::::::::::::::::::::::::::::::::::::::::::::::::::

           -------------------------------------------------
          |                Property Printout                |
           -------------------------------------------------

    * Orbital Energies and Occupations

         #    Occupation            Energy/Eh            Energy/eV
      -------------------------------------------------------------
         1        2.0000           -1.0859112             -29.5491
       ...           ...                  ...                  ...
        59        2.0000           -0.4662069             -12.6861
        60        2.0000           -0.4651711             -12.6580
        61        2.0000           -0.4619981             -12.5716
        62        2.0000           -0.4587142             -12.4822
        63        2.0000           -0.4518234             -12.2947
        64        2.0000           -0.4460118             -12.1366
        65        2.0000           -0.4368954             -11.8885
        66        2.0000           -0.4338771             -11.8064
        67        2.0000           -0.4328927             -11.7796
        68        2.0000           -0.4301321             -11.7045
        69        1.9993           -0.4269988             -11.6192
        70        1.7383           -0.4212964             -11.4641
        71        1.3421           -0.4201749             -11.4335 (HOMO)
        72        0.7045           -0.4189188             -11.3994 (LUMO)
        73        0.2158           -0.4174906             -11.3605
        74        0.0002           -0.4107112             -11.1760
        75        0.0000           -0.4081239             -11.1056
        76        0.0000           -0.4042954             -11.0014
        77                         -0.3951066             -10.7514
        78                         -0.3901537             -10.6166
        79                         -0.3857612             -10.4971
        80                         -0.3741024             -10.1798
        81                         -0.3569443              -9.7129
        82                         -0.3443593              -9.3705
       ...                                ...                  ...
       133                          1.2998220              35.3700
      -------------------------------------------------------------
                  HL-Gap            0.0012561 Eh            0.0342 eV
             Fermi-level           -0.4194976 Eh          -11.4151 eV

     #   Z          covCN         q      C6AA      α(0)
     1   6 C        0.980    -0.087    38.667    10.444
     2   6 C        2.863     0.134    25.078     8.209
     3   6 C        0.978    -0.105    39.240    10.520
     4   7 N        2.728     0.029    20.749     6.765
     5   6 C        1.894     0.012    30.800     8.963
     6   6 C        1.962     0.042    29.998     8.845
     7   6 C        1.969     0.019    30.587     8.931
     8   6 C        2.810     0.335    21.315     7.564
     9   8 O        0.860    -0.327    20.270     6.036
    10   7 N        1.840    -0.169    25.458     7.477
    11   6 C        2.884     0.199    23.781     7.995
    12   6 C        1.973    -0.083    33.347     9.326
    13   6 C        2.970     0.020    27.565     8.612
    14   6 C        2.857     0.198    23.796     7.995
    15   7 N        1.831    -0.130    24.588     7.348
    16   6 C        2.891     0.138    24.991     8.196
    17   6 C        1.992    -0.045    32.264     9.173
    18   6 C        1.987    -0.031    31.881     9.118
    19   6 C        2.806     0.190    23.943     8.017
    20   9 F        0.787    -0.159    10.825     3.886
    21   6 C        2.877     0.090    26.002     8.359
    22  17 Cl       0.962    -0.067   101.236    15.393
    23   6 C        2.032    -0.055    32.476     9.204
    24   7 N        1.834    -0.145    24.929     7.399
    25   6 C        1.934     0.156    27.310     8.439
    26   7 N        1.837    -0.114    24.257     7.299
    27   6 C        2.954     0.129    25.177     8.230
    28   6 C        1.931     0.018    30.637     8.939
    29   7 N        1.842    -0.108    24.116     7.278
    30   6 C        2.861     0.130    25.156     8.221
    31   6 C        0.979    -0.120    39.740    10.587
    32   6 C        0.980    -0.091    38.786    10.460

 Mol. C6AA /au·bohr⁶  :      29489.840475
 Mol. C8AA /au·bohr⁸  :     821837.370527
 Mol. α(0) /au        :        273.230077


Wiberg/Mayer (AO) data.
largest (>0.10) Wiberg bond orders for each atom

 ---------------------------------------------------------------------------
     #   Z sym  total        # sym  WBO       # sym  WBO       # sym  WBO
 ---------------------------------------------------------------------------
     1   6 C    2.375 --     2 C    1.473     3 C    0.641     5 C    0.172
     2   6 C    3.887 --     1 C    1.473     3 C    1.432     4 N    0.898
     3   6 C    2.665 --     2 C    1.432     1 C    0.641     5 C    0.233
                             4 N    0.162
     4   7 N    3.458 --     5 C    1.264     2 C    0.898    30 C    0.896
                             3 C    0.162
     5   6 C    3.325 --     4 N    1.264     6 C    1.256     3 C    0.233
                             1 C    0.172    31 C    0.122    32 C    0.102
     6   6 C    3.950 --     7 C    2.511     5 C    1.256
     7   6 C    3.848 --     6 C    2.511     8 C    1.006
     8   6 C    3.947 --     9 O    1.727    10 N    1.136     7 C    1.006
     9   8 O    2.063 --     8 C    1.727    10 N    0.129
    10   7 N    3.038 --    11 C    1.520     8 C    1.136     9 O    0.129
    11   6 C    3.936 --    10 N    1.520    29 N    1.172    12 C    1.074
    12   6 C    3.612 --    13 C    1.687    11 C    1.074    28 C    0.390
                            29 N    0.112
    13   6 C    3.966 --    12 C    1.687    27 C    1.025    14 C    1.003
    14   6 C    3.950 --    15 N    1.408    24 N    1.317    13 C    1.003
    15   7 N    3.232 --    14 C    1.408    16 C    1.201    25 C    0.219
    16   6 C    3.908 --    23 C    1.290    17 C    1.238    15 N    1.201
    17   6 C    3.678 --    18 C    1.733    16 C    1.238    23 C    0.342
    18   6 C    3.410 --    17 C    1.733    19 C    1.364    23 C    0.133
    19   6 C    3.792 --    18 C    1.364    21 C    1.257    20 F    1.000
    20   9 F    1.147 --    19 C    1.000
    21   6 C    3.895 --    23 C    1.456    19 C    1.257    22 Cl   1.006
    22  17 Cl   1.185 --    21 C    1.006
    23   6 C    3.390 --    21 C    1.456    16 C    1.290    17 C    0.342
                            18 C    0.133
    24   7 N    3.189 --    25 C    1.515    14 C    1.317
    25   6 C    3.742 --    26 N    1.693    24 N    1.515    15 N    0.219
    26   7 N    3.223 --    25 C    1.693    27 C    1.199
    27   6 C    3.829 --    28 C    1.375    26 N    1.199    13 C    1.025
    28   6 C    3.683 --    29 N    1.689    27 C    1.375    12 C    0.390
    29   7 N    3.273 --    28 C    1.689    11 C    1.172    12 C    0.112
    30   6 C    3.871 --    32 C    1.465    31 C    1.445     4 N    0.896
    31   6 C    2.544 --    30 C    1.445    32 C    0.736     5 C    0.122
    32   6 C    2.461 --    30 C    1.465    31 C    0.736     5 C    0.102
 ---------------------------------------------------------------------------

Topologies differ in total number of bonds
Writing topology from bond orders to xtbtopo.mol

molecular dipole:
                 x           y           z       tot (Debye)
 q only:        0.202       1.149       0.055
   full:        0.173       0.740       0.726       2.672
molecular quadrupole (traceless):
                xx          xy          yy          xz          yz          zz
Note: The following floating-point exceptions are signalling: IEEE_UNDERFLOW_FLAG IEEE_DENORMAL
normal termination of xtb
 q only:       -6.032       5.952       0.121      10.077      14.492       5.911
  q+dip:      -13.151       6.682       4.505      11.574      14.866       8.646
   full:      -13.247       2.949       4.564      13.148      15.370       8.683


           -------------------------------------------------
          | TOTAL ENERGY              -78.549074857924 Eh   |
          | GRADIENT NORM               0.466584191437 Eh/α |
          | HOMO-LUMO GAP               0.034179996252 eV   |
           -------------------------------------------------

------------------------------------------------------------------------
 * finished run on 2026/07/23 at 16:42:44.581     
------------------------------------------------------------------------
 total:
 * wall-time:     0 d,  0 h,  0 min,  0.416 sec
 *  cpu-time:     0 d,  0 h,  0 min,  0.418 sec
 * ratio c/w:     1.007 speedup
 SCF:
 * wall-time:     0 d,  0 h,  0 min,  0.401 sec
 *  cpu-time:     0 d,  0 h,  0 min,  0.404 sec
 * ratio c/w:     1.007 speedup

