      -----------------------------------------------------------      
     |                   =====================                   |     
     |                           x T B                           |     
     |                   =====================                   |     
     |                         S. Grimme                         |     
     |          Mulliken Center for Theoretical Chemistry        |     
     |                    University of Bonn                     |     
      -----------------------------------------------------------      

   * xtb version 6.6.1 (unknown) compiled by 'builduser@buildhost' on 2023-08-07

   xtb is free software: you can redistribute it and/or modify it under
   the terms of the GNU Lesser General Public License as published by
   the Free Software Foundation, either version 3 of the License, or
   (at your option) any later version.
   
   xtb is distributed in the hope that it will be useful,
   but WITHOUT ANY WARRANTY; without even the implied warranty of
   MERCHANTABILITY or FITNESS FOR A PARTICULAR PURPOSE.  See the
   GNU Lesser General Public License for more details.
   
   Cite this work as:
   * C. Bannwarth, E. Caldeweyher, S. Ehlert, A. Hansen, P. Pracht,
     J. Seibert, S. Spicher, S. Grimme, WIREs Comput. Mol. Sci., 2020, 11,
     e01493. DOI: 10.1002/wcms.1493
   
   for GFN2-xTB:
   * C. Bannwarth, S. Ehlert and S. Grimme., J. Chem. Theory Comput., 2019,
     15, 1652-1671. DOI: 10.1021/acs.jctc.8b01176
   for GFN1-xTB:
   * S. Grimme, C. Bannwarth, P. Shushkov, J. Chem. Theory Comput., 2017,
     13, 1989-2009. DOI: 10.1021/acs.jctc.7b00118
   for GFN0-xTB:
   * P. Pracht, E. Caldeweyher, S. Ehlert, S. Grimme, ChemRxiv, 2019, preprint.
     DOI: 10.26434/chemrxiv.8326202.v1
   for GFN-FF:
   * S. Spicher and S. Grimme, Angew. Chem. Int. Ed., 2020, 59, 15665-15673.
     DOI: 10.1002/anie.202004239
   
   for ALPB and GBSA implicit solvation:
   * S. Ehlert, M. Stahn, S. Spicher, S. Grimme, J. Chem. Theory Comput.,
     2021, 17, 4250-4261. DOI: 10.1021/acs.jctc.1c00471
   
   for DFT-D4:
   * E. Caldeweyher, C. Bannwarth and S. Grimme, J. Chem. Phys., 2017,
     147, 034112. DOI: 10.1063/1.4993215
   * E. Caldeweyher, S. Ehlert, A. Hansen, H. Neugebauer, S. Spicher,
     C. Bannwarth and S. Grimme, J. Chem. Phys., 2019, 150, 154122.
     DOI: 10.1063/1.5090222
   * E. Caldeweyher, J.-M. Mewes, S. Ehlert and S. Grimme, Phys. Chem. Chem. Phys.
     2020, 22, 8499-8512. DOI: 10.1039/D0CP00502A
   
   for sTDA-xTB:
   * S. Grimme and C. Bannwarth, J. Chem. Phys., 2016, 145, 054103.
     DOI: 10.1063/1.4959605
   
   in the mass-spec context:
   * V. Asgeirsson, C. Bauer and S. Grimme, Chem. Sci., 2017, 8, 4879.
     DOI: 10.1039/c7sc00601b
   * J. Koopman and S. Grimme, ACS Omega 2019, 4, 12, 15120-15133.
     DOI: 10.1021/acsomega.9b02011
   
   for metadynamics refer to:
   * S. Grimme, J. Chem. Theory Comput., 2019, 155, 2847-2862
     DOI: 10.1021/acs.jctc.9b00143
   
   for SPH calculations refer to:
   * S. Spicher and S. Grimme, J. Chem. Theory Comput., 2021, 17, 1701-1714
     DOI: 10.1021/acs.jctc.0c01306
   
   with help from (in alphabetical order)
   P. Atkinson, C. Bannwarth, F. Bohle, G. Brandenburg, E. Caldeweyher
   M. Checinski, S. Dohm, S. Ehlert, S. Ehrlich, I. Gerasimov, C. Hölzer
   A. Katbashev, J. Koopman, C. Lavigne, S. Lehtola, F. März, M. Müller,
   F. Musil, H. Neugebauer, J. Pisarek, C. Plett, P. Pracht, F. Pultar,
   J. Seibert, P. Shushkov, S. Spicher, M. Stahn, M. Steiner, T. Strunk,
   J. Stückrath, T. Rose, and J. Unsleber
   
 * started run on 2026/07/23 at 16:40:19.811     

           -------------------------------------------------
          |                Calculation Setup                |
           -------------------------------------------------

          program call               : xtb /home/selva/covalent_quantum_benchmark/data/quantum/erbB_xyz/ERBB2__CHEMBL175556__state02.xyz --gfn2 --chrg 0 --uhf 0 --iterations 300
          coordinate file            : /home/selva/covalent_quantum_benchmark/data/quantum/erbB_xyz/ERBB2__CHEMBL175556__state02.xyz
          omp threads                :                    24

   ID    Z sym.   atoms
    1    6 C      1, 2, 4-6, 8-10, 12, 14-17, 19-26, 28-31, 33, 35-37, 39,
                  40, 42, 43
    2    8 O      3, 18, 34, 41
    3    7 N      7, 11, 13, 32, 38
    4   17 Cl     27

           -------------------------------------------------
          |                 G F N 2 - x T B                 |
           -------------------------------------------------

        Reference                      10.1021/acs.jctc.8b01176
      * Hamiltonian:
        H0-scaling (s, p, d)           1.850000    2.230000    2.230000
        zeta-weighting                 0.500000
      * Dispersion:
        s8                             2.700000
        a1                             0.520000
        a2                             5.000000
        s9                             5.000000
      * Repulsion:
        kExp                           1.500000    1.000000
        rExp                           1.000000
      * Coulomb:
        alpha                          2.000000
        third order                    shell-resolved
        anisotropic                    true
        a3                             3.000000
        a5                             4.000000
        cn-shift                       1.200000
        cn-exp                         4.000000
        max-rad                        5.000000


          ...................................................
          :                      SETUP                      :
          :.................................................:
          :  # basis functions                 178          :
          :  # atomic orbitals                 177          :
          :  # shells                           87          :
          :  # electrons                       188          :
          :  max. iterations                   300          :
          :  Hamiltonian                  GFN2-xTB          :
          :  restarted?                      false          :
          :  GBSA solvation                  false          :
          :  PC potential                    false          :
          :  electronic temp.          300.0000000     K    :
          :  accuracy                    1.0000000          :
          :  -> integral cutoff          0.2500000E+02      :
          :  -> integral neglect         0.1000000E-07      :
          :  -> SCF convergence          0.1000000E-05 Eh   :
          :  -> wf. convergence          0.1000000E-03 e    :
          :  Broyden damping             0.4000000          :
          ...................................................

 iter      E             dE          RMSdq      gap      omega  full diag
   1   -104.2351657 -0.104235E+03  0.831E+00    0.06       0.0  T
   2    -80.3765207  0.238586E+02  0.124E+01    0.20       1.0  T
   3    -58.7642687  0.216123E+02  0.133E+01    0.10       1.0  T
   4    -75.3671412 -0.166029E+02  0.113E+01    0.11       1.0  T
   5    -79.4797860 -0.411264E+01  0.101E+01    0.63       1.0  T
   6    -98.4819461 -0.190022E+02  0.654E+00    0.15       1.0  T
   7   -103.7235390 -0.524159E+01  0.491E+00    0.06       1.0  T
   8   -104.2733340 -0.549795E+00  0.416E+00    0.06       1.0  T
   9   -103.4818732  0.791461E+00  0.359E+00    0.12       1.0  T
  10   -103.6811492 -0.199276E+00  0.389E+00    0.03       1.0  T
  11   -103.6154722  0.656769E-01  0.342E+00    0.07       1.0  T
  12   -104.7900775 -0.117461E+01  0.264E+00    0.02       1.0  T
  13   -104.6478990  0.142179E+00  0.249E+00    0.04       1.0  T
  14   -104.7273113 -0.794123E-01  0.248E+00    0.09       1.0  T
  15   -104.5042465  0.223065E+00  0.235E+00    0.09       1.0  T
  16   -104.3148210  0.189425E+00  0.219E+00    0.03       1.0  T
  17   -104.4284180 -0.113597E+00  0.249E+00    0.01       1.0  T
  18   -104.8888202 -0.460402E+00  0.163E+00    0.03       1.0  T
  19   -104.6867177  0.202102E+00  0.211E+00    0.01       1.0  T
  20   -103.6867413  0.999976E+00  0.310E+00    0.11       1.0  T
  21   -104.2321772 -0.545436E+00  0.256E+00    0.05       1.0  T
  22   -104.4533741 -0.221197E+00  0.216E+00    0.03       1.0  T
  23   -104.9564138 -0.503040E+00  0.136E+00    0.03       1.0  T
  24   -104.8967195  0.596942E-01  0.128E+00    0.01       1.0  T
  25   -105.0223158 -0.125596E+00  0.101E+00    0.01       1.0  T
  26   -104.8110603  0.211255E+00  0.127E+00    0.03       1.0  T
  27   -104.9512404 -0.140180E+00  0.103E+00    0.01       1.0  T
  28   -104.9664401 -0.151997E-01  0.934E-01    0.01       1.0  T
  29   -105.0373158 -0.708758E-01  0.763E-01    0.01       1.0  T
  30   -105.0583301 -0.210143E-01  0.558E-01    0.00       1.0  T
  31   -105.0769165 -0.185864E-01  0.478E-01    0.01       1.0  T
  32   -105.0935861 -0.166696E-01  0.397E-01    0.01       1.0  T
  33   -105.0994523 -0.586624E-02  0.357E-01    0.01       1.0  T
  34   -105.0738954  0.255569E-01  0.491E-01    0.01       1.0  T
  35   -105.1092833 -0.353879E-01  0.257E-01    0.02       1.0  T
  36   -105.1128778 -0.359450E-02  0.207E-01    0.03       1.0  T
  37   -105.1142173 -0.133946E-02  0.172E-01    0.03       1.0  T
  38   -105.1136943  0.523010E-03  0.162E-01    0.03       1.0  T
  39   -105.1141206 -0.426323E-03  0.157E-01    0.03       1.0  T
  40   -105.1129141  0.120655E-02  0.147E-01    0.02       1.0  T
  41   -105.1160756 -0.316156E-02  0.725E-02    0.03       1.0  T
  42   -105.1163450 -0.269350E-03  0.633E-02    0.03       1.0  T
  43   -105.1162419  0.103042E-03  0.570E-02    0.03       1.0  T
  44   -105.1165511 -0.309216E-03  0.299E-02    0.03       1.0  T
  45   -105.1166400 -0.888099E-04  0.195E-02    0.03       1.0  T
  46   -105.1164622  0.177798E-03  0.398E-02    0.03       1.0  T
  47   -105.1165665 -0.104365E-03  0.267E-02    0.03       1.0  T
  48   -105.1166445 -0.780264E-04  0.194E-02    0.03       1.0  T
  49   -105.1166909 -0.463212E-04  0.640E-03    0.03       2.4  T
  50   -105.1166901  0.744716E-06  0.860E-03    0.03       1.8  T
  51   -105.1166968 -0.669270E-05  0.303E-03    0.03       5.0  T
  52   -105.1166972 -0.349505E-06  0.196E-03    0.03       7.8  T
  53   -105.1166972 -0.543708E-07  0.199E-03    0.03       7.7  T
  54   -105.1166976 -0.373277E-06  0.766E-04    0.03      19.9  T
  55   -105.1166976  0.348602E-07  0.103E-03    0.03      14.8  T
  56   -105.1166976 -0.886668E-07  0.498E-04    0.03      30.6  T

   *** convergence criteria satisfied after 56 iterations ***

         #    Occupation            Energy/Eh            Energy/eV
      -------------------------------------------------------------
         1        2.0000           -1.0870127             -29.5791
       ...           ...                  ...                  ...
        88        1.9992           -0.4234903             -11.5238
        89        1.9884           -0.4208876             -11.4529
        90        1.9802           -0.4203730             -11.4389
        91        1.7587           -0.4178842             -11.3712
        92        1.7083           -0.4176762             -11.3655
        93        1.4780           -0.4169859             -11.3468
        94        1.4519           -0.4169227             -11.3450 (HOMO)
        95        0.9614           -0.4159238             -11.3179 (LUMO)
        96        0.6708           -0.4153476             -11.3022
        97        0.0031           -0.4098626             -11.1529
        98        0.0000           -0.4032356             -10.9726
        99                         -0.3977382             -10.8230
       ...                                ...                  ...
       177                          1.0520803              28.6286
      -------------------------------------------------------------
                  HL-Gap            0.0009989 Eh            0.0272 eV
             Fermi-level           -0.4159972 Eh          -11.3199 eV

 SCC (total)                   0 d,  0 h,  0 min,  1.437 sec
 SCC setup                      ...        0 min,  0.003 sec (  0.199%)
 Dispersion                     ...        0 min,  0.002 sec (  0.127%)
 classical contributions        ...        0 min,  0.001 sec (  0.058%)
 integral evaluation            ...        0 min,  0.011 sec (  0.795%)
 iterations                     ...        0 min,  1.379 sec ( 95.955%)
 molecular gradient             ...        0 min,  0.037 sec (  2.584%)
 printout                       ...        0 min,  0.004 sec (  0.278%)

         :::::::::::::::::::::::::::::::::::::::::::::::::::::
         ::                     SUMMARY                     ::
         :::::::::::::::::::::::::::::::::::::::::::::::::::::
         :: total energy            -103.983707754010 Eh    ::
         :: gradient norm              0.549717293159 Eh/a0 ::
         :: HOMO-LUMO gap              0.027181385133 eV    ::
         ::.................................................::
         :: SCC energy              -105.116697648372 Eh    ::
         :: -> isotropic ES            0.038719627995 Eh    ::
         :: -> anisotropic ES          0.009759862350 Eh    ::
         :: -> anisotropic XC          0.063311403648 Eh    ::
         :: -> dispersion             -0.062611122110 Eh    ::
         :: repulsion energy           1.133433758248 Eh    ::
         :: add. restraining           0.000000000000 Eh    ::
         :: total charge               0.000000000481 e     ::
         :::::::::::::::::::::::::::::::::::::::::::::::::::::

           -------------------------------------------------
          |                Property Printout                |
           -------------------------------------------------

    * Orbital Energies and Occupations

         #    Occupation            Energy/Eh            Energy/eV
      -------------------------------------------------------------
         1        2.0000           -1.0870127             -29.5791
       ...           ...                  ...                  ...
        82        2.0000           -0.4433997             -12.0655
        83        2.0000           -0.4413747             -12.0104
        84        2.0000           -0.4346201             -11.8266
        85        2.0000           -0.4340718             -11.8117
        86        2.0000           -0.4287149             -11.6659
        87        1.9999           -0.4253667             -11.5748
        88        1.9992           -0.4234903             -11.5238
        89        1.9884           -0.4208876             -11.4529
        90        1.9802           -0.4203730             -11.4389
        91        1.7587           -0.4178842             -11.3712
        92        1.7083           -0.4176762             -11.3655
        93        1.4780           -0.4169859             -11.3468
        94        1.4519           -0.4169227             -11.3450 (HOMO)
        95        0.9614           -0.4159238             -11.3179 (LUMO)
        96        0.6708           -0.4153476             -11.3022
        97        0.0031           -0.4098626             -11.1529
        98        0.0000           -0.4032356             -10.9726
        99                         -0.3977382             -10.8230
       100                         -0.3853246             -10.4852
       101                         -0.3824987             -10.4083
       102                         -0.3657769              -9.9533
       103                         -0.3650578              -9.9337
       104                         -0.3568347              -9.7100
       105                         -0.3545251              -9.6471
       ...                                ...                  ...
       177                          1.0520803              28.6286
      -------------------------------------------------------------
                  HL-Gap            0.0009989 Eh            0.0272 eV
             Fermi-level           -0.4159972 Eh          -11.3199 eV

     #   Z          covCN         q      C6AA      α(0)
     1   6 C        0.976    -0.101    39.100    10.500
     2   6 C        1.836     0.098    28.722     8.658
     3   8 O        1.703    -0.094    15.746     5.357
     4   6 C        2.853     0.163    24.469     8.108
     5   6 C        1.987    -0.081    33.252     9.312
     6   6 C        2.911     0.119    25.389     8.262
     7   7 N        1.831    -0.140    24.806     7.381
     8   6 C        1.938     0.089    28.872     8.677
     9   6 C        2.944     0.010    27.803     8.648
    10   6 C        1.913     0.118    28.189     8.574
    11   7 N        0.911    -0.201    25.378     7.286
    12   6 C        2.900     0.132    25.122     8.218
    13   7 N        1.837    -0.095    23.861     7.239
    14   6 C        2.917     0.125    25.249     8.240
    15   6 C        1.992    -0.046    32.276     9.175
    16   6 C        1.986    -0.051    32.431     9.197
    17   6 C        2.895     0.164    24.456     8.108
    18   8 O        1.702    -0.148    16.537     5.490
    19   6 C        1.859     0.053    29.782     8.815
    20   6 C        2.958     0.075    26.313     8.414
    21   6 C        1.990    -0.012    31.369     9.045
    22   6 C        1.985    -0.003    31.123     9.009
    23   6 C        1.987     0.034    30.177     8.871
    24   6 C        1.985    -0.005    31.187     9.019
    25   6 C        1.989    -0.024    31.695     9.092
    26   6 C        2.878     0.093    25.942     8.350
    27  17 Cl       0.959    -0.064   101.156    15.387
    28   6 C        2.032    -0.092    33.534     9.353
    29   6 C        2.972     0.020    27.559     8.611
    30   6 C        1.986    -0.039    32.094     9.149
    31   6 C        2.896     0.120    25.363     8.257
    32   7 N        1.835    -0.215    26.529     7.633
    33   6 C        2.753     0.326    21.469     7.587
    34   8 O        0.857    -0.330    20.336     6.046
    35   6 C        1.971     0.003    30.984     8.989
    36   6 C        1.966     0.029    30.328     8.893
    37   6 C        1.900     0.022    30.536     8.925
    38   7 N        2.722     0.078    19.897     6.625
    39   6 C        1.896    -0.048    32.407     9.194
    40   6 C        1.840     0.045    30.011     8.850
    41   8 O        1.695    -0.119    16.115     5.420
    42   6 C        1.840     0.039    30.159     8.872
    43   6 C        1.895    -0.045    32.326     9.183

 Mol. C6AA /au·bohr⁶  :      52610.786309
 Mol. C8AA /au·bohr⁸  :    1472015.951645
 Mol. α(0) /au        :        364.019383


Wiberg/Mayer (AO) data.
largest (>0.10) Wiberg bond orders for each atom

 ---------------------------------------------------------------------------
     #   Z sym  total        # sym  WBO       # sym  WBO       # sym  WBO
 ---------------------------------------------------------------------------
     1   6 C    2.488 --     2 C    2.174     3 O    0.113
     2   6 C    3.501 --     1 C    2.174     3 O    1.124
     3   8 O    2.487 --     2 C    1.124     4 C    1.111     1 C    0.113
     4   6 C    3.906 --     5 C    1.474     3 O    1.111    31 C    1.049
     5   6 C    3.711 --     4 C    1.474     6 C    1.400    30 C    0.537
     6   6 C    3.915 --     5 C    1.400     7 N    1.185    29 C    1.103
     7   7 N    3.200 --     8 C    1.628     6 C    1.185
     8   6 C    3.742 --     7 N    1.628     9 C    1.580    13 N    0.184
     9   6 C    3.892 --     8 C    1.580    10 C    1.104    12 C    0.972
    10   6 C    3.944 --    11 N    2.778     9 C    1.104
    11   7 N    2.984 --    10 C    2.778
    12   6 C    3.936 --    13 N    1.669    29 C    1.045     9 C    0.972
    13   7 N    3.330 --    12 C    1.669    14 C    1.122     8 C    0.184
    14   6 C    3.903 --    28 C    1.324    15 C    1.268    13 N    1.122
    15   6 C    3.655 --    16 C    1.725    14 C    1.268    28 C    0.318
                            26 C    0.100
    16   6 C    3.397 --    15 C    1.725    17 C    1.335    28 C    0.162
    17   6 C    3.848 --    16 C    1.335    26 C    1.225    18 O    1.025
    18   8 O    2.373 --    19 C    1.128    17 C    1.025
    19   6 C    2.885 --    20 C    1.178    18 O    1.128    24 C    0.110
    20   6 C    3.897 --    21 C    1.265    25 C    1.259    19 C    1.178
    21   6 C    3.523 --    22 C    1.658    20 C    1.265    24 C    0.217
                            23 C    0.202
    22   6 C    3.627 --    21 C    1.658    23 C    1.584    25 C    0.247
    23   6 C    3.747 --    22 C    1.584    24 C    1.565    21 C    0.202
Note: The following floating-point exceptions are signalling: IEEE_UNDERFLOW_FLAG IEEE_DENORMAL
normal termination of xtb
                            25 C    0.201
    24   6 C    3.655 --    25 C    1.631    23 C    1.565    21 C    0.217
                            19 C    0.110
    25   6 C    3.510 --    24 C    1.631    20 C    1.259    22 C    0.247
                            23 C    0.201
    26   6 C    3.866 --    28 C    1.451    17 C    1.225    27 Cl   1.009
                            15 C    0.100
    27  17 Cl   1.178 --    26 C    1.009
    28   6 C    3.470 --    26 C    1.451    14 C    1.324    15 C    0.318
                            16 C    0.162
    29   6 C    3.934 --    30 C    1.537     6 C    1.103    12 C    1.045
    30   6 C    3.762 --    29 C    1.537    31 C    1.347     5 C    0.537
    31   6 C    3.935 --    30 C    1.347    32 N    1.325     4 C    1.049
    32   7 N    3.030 --    31 C    1.325    33 C    1.187
    33   6 C    3.924 --    34 O    1.659    32 N    1.187    35 C    0.986
    34   8 O    2.086 --    33 C    1.659    35 C    0.103
    35   6 C    3.653 --    36 C    2.245    33 C    0.986    37 C    0.130
                            34 O    0.103
    36   6 C    3.808 --    35 C    2.245    37 C    1.369
    37   6 C    3.201 --    36 C    1.369    38 N    1.100    40 C    0.150
                            42 C    0.147    35 C    0.130    43 C    0.126
    38   7 N    3.523 --    43 C    1.112    37 C    1.100    39 C    1.080
                            42 C    0.100
    39   6 C    2.820 --    40 C    1.431    38 N    1.080    43 C    0.131
    40   6 C    2.949 --    39 C    1.431    41 O    1.166    37 C    0.150
                            43 C    0.106
    41   8 O    2.502 --    40 C    1.166    42 C    1.147
    42   6 C    2.904 --    43 C    1.360    41 O    1.147    37 C    0.147
                            38 N    0.100
    43   6 C    2.954 --    42 C    1.360    38 N    1.112    39 C    0.131
                            37 C    0.126    40 C    0.106
 ---------------------------------------------------------------------------

Topologies differ in total number of bonds
Writing topology from bond orders to xtbtopo.mol

molecular dipole:
                 x           y           z       tot (Debye)
 q only:       -0.095      -0.619      -0.690
   full:        0.845      -0.088      -0.759       2.897
molecular quadrupole (traceless):
                xx          xy          yy          xz          yz          zz
 q only:        5.077     -15.866       0.270      -8.376      -3.043      -5.347
  q+dip:        1.348     -18.131       8.149      -6.001      -5.272      -9.497
   full:       -1.548     -16.891      11.462      -6.242      -7.091      -9.914


           -------------------------------------------------
          | TOTAL ENERGY             -103.983707754010 Eh   |
          | GRADIENT NORM               0.549717293159 Eh/α |
          | HOMO-LUMO GAP               0.027181385133 eV   |
           -------------------------------------------------

------------------------------------------------------------------------
 * finished run on 2026/07/23 at 16:40:21.274     
------------------------------------------------------------------------
 total:
 * wall-time:     0 d,  0 h,  0 min,  1.463 sec
 *  cpu-time:     0 d,  0 h,  0 min,  1.439 sec
 * ratio c/w:     0.984 speedup
 SCF:
 * wall-time:     0 d,  0 h,  0 min,  1.438 sec
 *  cpu-time:     0 d,  0 h,  0 min,  1.407 sec
 * ratio c/w:     0.979 speedup

