      -----------------------------------------------------------      
     |                   =====================                   |     
     |                           x T B                           |     
     |                   =====================                   |     
     |                         S. Grimme                         |     
     |          Mulliken Center for Theoretical Chemistry        |     
     |                    University of Bonn                     |     
      -----------------------------------------------------------      

   * xtb version 6.6.1 (unknown) compiled by 'builduser@buildhost' on 2023-08-07

   xtb is free software: you can redistribute it and/or modify it under
   the terms of the GNU Lesser General Public License as published by
   the Free Software Foundation, either version 3 of the License, or
   (at your option) any later version.
   
   xtb is distributed in the hope that it will be useful,
   but WITHOUT ANY WARRANTY; without even the implied warranty of
   MERCHANTABILITY or FITNESS FOR A PARTICULAR PURPOSE.  See the
   GNU Lesser General Public License for more details.
   
   Cite this work as:
   * C. Bannwarth, E. Caldeweyher, S. Ehlert, A. Hansen, P. Pracht,
     J. Seibert, S. Spicher, S. Grimme, WIREs Comput. Mol. Sci., 2020, 11,
     e01493. DOI: 10.1002/wcms.1493
   
   for GFN2-xTB:
   * C. Bannwarth, S. Ehlert and S. Grimme., J. Chem. Theory Comput., 2019,
     15, 1652-1671. DOI: 10.1021/acs.jctc.8b01176
   for GFN1-xTB:
   * S. Grimme, C. Bannwarth, P. Shushkov, J. Chem. Theory Comput., 2017,
     13, 1989-2009. DOI: 10.1021/acs.jctc.7b00118
   for GFN0-xTB:
   * P. Pracht, E. Caldeweyher, S. Ehlert, S. Grimme, ChemRxiv, 2019, preprint.
     DOI: 10.26434/chemrxiv.8326202.v1
   for GFN-FF:
   * S. Spicher and S. Grimme, Angew. Chem. Int. Ed., 2020, 59, 15665-15673.
     DOI: 10.1002/anie.202004239
   
   for ALPB and GBSA implicit solvation:
   * S. Ehlert, M. Stahn, S. Spicher, S. Grimme, J. Chem. Theory Comput.,
     2021, 17, 4250-4261. DOI: 10.1021/acs.jctc.1c00471
   
   for DFT-D4:
   * E. Caldeweyher, C. Bannwarth and S. Grimme, J. Chem. Phys., 2017,
     147, 034112. DOI: 10.1063/1.4993215
   * E. Caldeweyher, S. Ehlert, A. Hansen, H. Neugebauer, S. Spicher,
     C. Bannwarth and S. Grimme, J. Chem. Phys., 2019, 150, 154122.
     DOI: 10.1063/1.5090222
   * E. Caldeweyher, J.-M. Mewes, S. Ehlert and S. Grimme, Phys. Chem. Chem. Phys.
     2020, 22, 8499-8512. DOI: 10.1039/D0CP00502A
   
   for sTDA-xTB:
   * S. Grimme and C. Bannwarth, J. Chem. Phys., 2016, 145, 054103.
     DOI: 10.1063/1.4959605
   
   in the mass-spec context:
   * V. Asgeirsson, C. Bauer and S. Grimme, Chem. Sci., 2017, 8, 4879.
     DOI: 10.1039/c7sc00601b
   * J. Koopman and S. Grimme, ACS Omega 2019, 4, 12, 15120-15133.
     DOI: 10.1021/acsomega.9b02011
   
   for metadynamics refer to:
   * S. Grimme, J. Chem. Theory Comput., 2019, 155, 2847-2862
     DOI: 10.1021/acs.jctc.9b00143
   
   for SPH calculations refer to:
   * S. Spicher and S. Grimme, J. Chem. Theory Comput., 2021, 17, 1701-1714
     DOI: 10.1021/acs.jctc.0c01306
   
   with help from (in alphabetical order)
   P. Atkinson, C. Bannwarth, F. Bohle, G. Brandenburg, E. Caldeweyher
   M. Checinski, S. Dohm, S. Ehlert, S. Ehrlich, I. Gerasimov, C. Hölzer
   A. Katbashev, J. Koopman, C. Lavigne, S. Lehtola, F. März, M. Müller,
   F. Musil, H. Neugebauer, J. Pisarek, C. Plett, P. Pracht, F. Pultar,
   J. Seibert, P. Shushkov, S. Spicher, M. Stahn, M. Steiner, T. Strunk,
   J. Stückrath, T. Rose, and J. Unsleber
   
 * started run on 2026/07/23 at 16:39:32.601     

           -------------------------------------------------
          |                Calculation Setup                |
           -------------------------------------------------

          program call               : xtb /home/selva/covalent_quantum_benchmark/data/quantum/erbB_xyz/EGFR__CHEMBL94062__state03.xyz --gfn2 --chrg 0 --uhf 0 --iterations 300
          coordinate file            : /home/selva/covalent_quantum_benchmark/data/quantum/erbB_xyz/EGFR__CHEMBL94062__state03.xyz
          omp threads                :                    24

   ID    Z sym.   atoms
    1    8 O      1, 6
    2    6 C      2-5, 8-11, 13, 15, 17-21, 23-25
    3    7 N      7, 12, 14, 16
    4   35 Br     22

           -------------------------------------------------
          |                 G F N 2 - x T B                 |
           -------------------------------------------------

        Reference                      10.1021/acs.jctc.8b01176
      * Hamiltonian:
        H0-scaling (s, p, d)           1.850000    2.230000    2.230000
        zeta-weighting                 0.500000
      * Dispersion:
        s8                             2.700000
        a1                             0.520000
        a2                             5.000000
        s9                             5.000000
      * Repulsion:
        kExp                           1.500000    1.000000
        rExp                           1.000000
      * Coulomb:
        alpha                          2.000000
        third order                    shell-resolved
        anisotropic                    true
        a3                             3.000000
        a5                             4.000000
        cn-shift                       1.200000
        cn-exp                         4.000000
        max-rad                        5.000000


          ...................................................
          :                      SETUP                      :
          :.................................................:
          :  # basis functions                 106          :
          :  # atomic orbitals                 105          :
          :  # shells                           51          :
          :  # electrons                       111          :
          :  max. iterations                   300          :
          :  Hamiltonian                  GFN2-xTB          :
          :  restarted?                      false          :
          :  GBSA solvation                  false          :
          :  PC potential                    false          :
          :  electronic temp.          300.0000000     K    :
          :  accuracy                    1.0000000          :
          :  -> integral cutoff          0.2500000E+02      :
          :  -> integral neglect         0.1000000E-07      :
          :  -> SCF convergence          0.1000000E-05 Eh   :
          :  -> wf. convergence          0.1000000E-03 e    :
          :  Broyden damping             0.4000000          :
          ...................................................

 iter      E             dE          RMSdq      gap      omega  full diag
   1    -61.8281598 -0.618282E+02  0.781E+00    0.27       0.0  T
   2    -57.3846508  0.444351E+01  0.951E+00    0.21       1.0  T
   3    -59.0464802 -0.166183E+01  0.788E+00    0.28       1.0  T
   4    -59.3783564 -0.331876E+00  0.655E+00    0.18       1.0  T
   5    -59.3186938  0.596626E-01  0.697E+00    0.16       1.0  T
   6    -61.9590087 -0.264031E+01  0.347E+00    0.41       1.0  T
   7    -60.5252137  0.143380E+01  0.462E+00    0.20       1.0  T
   8    -61.9424313 -0.141722E+01  0.283E+00    0.56       1.0  T
   9    -62.1039206 -0.161489E+00  0.239E+00    0.39       1.0  T
  10    -62.1357571 -0.318365E-01  0.208E+00    0.36       1.0  T
  11    -62.1903484 -0.545913E-01  0.171E+00    0.32       1.0  T
  12    -62.2338635 -0.435151E-01  0.124E+00    0.28       1.0  T
  13    -62.2646667 -0.308032E-01  0.870E-01    0.24       1.0  T
  14    -62.2402150  0.244516E-01  0.100E+00    0.28       1.0  T
  15    -62.2539609 -0.137459E-01  0.823E-01    0.21       1.0  T
  16    -62.2850420 -0.310811E-01  0.278E-01    0.22       1.0  T
  17    -62.2839833  0.105865E-02  0.292E-01    0.20       1.0  T
  18    -62.2803958  0.358750E-02  0.371E-01    0.23       1.0  T
  19    -62.2828598 -0.246395E-02  0.276E-01    0.20       1.0  T
  20    -62.2854126 -0.255282E-02  0.179E-01    0.22       1.0  T
  21    -62.2862614 -0.848814E-03  0.108E-01    0.22       1.0  T
  22    -62.2867971 -0.535707E-03  0.421E-02    0.22       1.0  T
  23    -62.2867435  0.535581E-04  0.541E-02    0.22       1.0  T
  24    -62.2868058 -0.622793E-04  0.285E-02    0.22       1.0  T
  25    -62.2867442  0.616301E-04  0.439E-02    0.22       1.0  T
  26    -62.2868207 -0.764573E-04  0.208E-02    0.22       1.0  T
  27    -62.2868371 -0.164867E-04  0.744E-03    0.22       2.7  T
  28    -62.2868383 -0.118168E-05  0.512E-03    0.22       3.9  T
  29    -62.2868378  0.547831E-06  0.518E-03    0.22       3.9  T
  30    -62.2868390 -0.124665E-05  0.227E-03    0.22       8.8  T
  31    -62.2868386  0.381222E-06  0.328E-03    0.22       6.1  T
  32    -62.2868391 -0.437958E-06  0.180E-03    0.22      11.1  T
  33    -62.2868392 -0.157050E-06  0.558E-04    0.22      35.8  T
  34    -62.2868392  0.191124E-07  0.760E-04    0.22      26.3  T

   *** convergence criteria satisfied after 34 iterations ***

         #    Occupation            Energy/Eh            Energy/eV
      -------------------------------------------------------------
         1        2.0000           -0.8771355             -23.8681
       ...           ...                  ...                  ...
        50        2.0000           -0.4461252             -12.1397
        51        2.0000           -0.4445848             -12.0978
        52        2.0000           -0.4432544             -12.0616
        53        1.9946           -0.4357793             -11.8582
        54        1.8706           -0.4326320             -11.7725
        55        1.8054           -0.4321715             -11.7600
        56        1.3131           -0.4301247             -11.7043 (HOMO)
        57        0.0162           -0.4221368             -11.4869 (LUMO)
        58                         -0.4100846             -11.1590
        59                         -0.4018863             -10.9359
        60                         -0.3824014             -10.4057
        61                         -0.3695319             -10.0555
       ...                                ...                  ...
       105                          1.3121179              35.7045
      -------------------------------------------------------------
                  HL-Gap            0.0079880 Eh            0.2174 eV
             Fermi-level           -0.4284291 Eh          -11.6581 eV

 SCC (total)                   0 d,  0 h,  0 min,  0.254 sec
 SCC setup                      ...        0 min,  0.000 sec (  0.177%)
 Dispersion                     ...        0 min,  0.001 sec (  0.463%)
 classical contributions        ...        0 min,  0.001 sec (  0.275%)
 integral evaluation            ...        0 min,  0.007 sec (  2.610%)
 iterations                     ...        0 min,  0.229 sec ( 90.212%)
 molecular gradient             ...        0 min,  0.013 sec (  5.214%)
 printout                       ...        0 min,  0.003 sec (  1.033%)

         :::::::::::::::::::::::::::::::::::::::::::::::::::::
         ::                     SUMMARY                     ::
         :::::::::::::::::::::::::::::::::::::::::::::::::::::
         :: total energy             -61.501686111386 Eh    ::
         :: gradient norm              0.447170410090 Eh/a0 ::
         :: HOMO-LUMO gap              0.217364193103 eV    ::
         ::.................................................::
         :: SCC energy               -62.286839218295 Eh    ::
         :: -> isotropic ES            0.068711629253 Eh    ::
         :: -> anisotropic ES          0.006948158805 Eh    ::
         :: -> anisotropic XC          0.032955522676 Eh    ::
         :: -> dispersion             -0.037687435784 Eh    ::
         :: repulsion energy           0.784146158936 Eh    ::
         :: add. restraining           0.000000000000 Eh    ::
         :: total charge               0.000000000020 e     ::
         :::::::::::::::::::::::::::::::::::::::::::::::::::::

           -------------------------------------------------
          |                Property Printout                |
           -------------------------------------------------

    * Orbital Energies and Occupations

         #    Occupation            Energy/Eh            Energy/eV
      -------------------------------------------------------------
         1        2.0000           -0.8771355             -23.8681
       ...           ...                  ...                  ...
        44        2.0000           -0.4835444             -13.1579
        45        2.0000           -0.4692351             -12.7685
        46        2.0000           -0.4651749             -12.6581
        47        2.0000           -0.4584811             -12.4759
        48        2.0000           -0.4558021             -12.4030
        49        2.0000           -0.4515770             -12.2880
        50        2.0000           -0.4461252             -12.1397
        51        2.0000           -0.4445848             -12.0978
        52        2.0000           -0.4432544             -12.0616
        53        1.9946           -0.4357793             -11.8582
        54        1.8706           -0.4326320             -11.7725
        55        1.8054           -0.4321715             -11.7600
        56        1.3131           -0.4301247             -11.7043 (HOMO)
        57        0.0162           -0.4221368             -11.4869 (LUMO)
        58                         -0.4100846             -11.1590
        59                         -0.4018863             -10.9359
        60                         -0.3824014             -10.4057
        61                         -0.3695319             -10.0555
        62                         -0.3643045              -9.9132
        63                         -0.3310892              -9.0094
        64                         -0.3115936              -8.4789
        65                         -0.3038520              -8.2682
        66                         -0.3025555              -8.2330
        67                         -0.2906224              -7.9082
       ...                                ...                  ...
       105                          1.3121179              35.7045
      -------------------------------------------------------------
                  HL-Gap            0.0079880 Eh            0.2174 eV
             Fermi-level           -0.4284291 Eh          -11.6581 eV

     #   Z          covCN         q      C6AA      α(0)
     1   8 O        0.850    -0.228    18.538     5.773
     2   6 C        1.828     0.162    27.252     8.434
     3   6 C        1.962     0.051    29.768     8.811
     4   6 C        1.969     0.033    30.209     8.876
     5   6 C        2.784     0.302    21.875     7.661
     6   8 O        0.857    -0.366    21.020     6.147
     7   7 N        1.836    -0.134    24.684     7.363
     8   6 C        2.933     0.130    25.148     8.224
     9   6 C        1.991    -0.029    31.817     9.109
    10   6 C        1.987    -0.011    31.344     9.041
    11   6 C        2.929     0.129    25.179     8.229
    12   7 N        1.830    -0.159    25.238     7.444
    13   6 C        1.914     0.178    26.839     8.367
    14   7 N        1.854    -0.140    24.807     7.382
    15   6 C        2.890     0.198    23.793     7.997
    16   7 N        1.858    -0.147    24.970     7.406
    17   6 C        2.915     0.127    25.221     8.235
    18   6 C        1.993     0.016    30.641     8.939
    19   6 C        1.986    -0.008    31.261     9.029
    20   6 C        2.063     0.016    30.558     8.929
    21   6 C        2.906     0.111    25.542     8.287
    22  35 Br       1.069    -0.060   186.658    22.029
    23   6 C        2.065    -0.092    33.479     9.346
    24   6 C        2.966    -0.003    28.099     8.695
    25   6 C        1.992    -0.076    33.120     9.294

 Mol. C6AA /au·bohr⁶  :      19064.502088
 Mol. C8AA /au·bohr⁸  :     572054.453635
 Mol. α(0) /au        :        219.048784


Wiberg/Mayer (AO) data.
largest (>0.10) Wiberg bond orders for each atom

 ---------------------------------------------------------------------------
     #   Z sym  total        # sym  WBO       # sym  WBO       # sym  WBO
 ---------------------------------------------------------------------------
     1   8 O    2.103 --     2 C    1.877     4 C    0.161
Note: The following floating-point exceptions are signalling: IEEE_UNDERFLOW_FLAG IEEE_DENORMAL
normal termination of xtb
     2   6 C    3.423 --     1 O    1.877     3 C    1.156     6 O    0.127
     3   6 C    3.946 --     4 C    2.591     2 C    1.156
     4   6 C    3.922 --     3 C    2.591     5 C    0.990     1 O    0.161
     5   6 C    3.954 --     7 N    1.460     6 O    1.424     4 C    0.990
     6   8 O    1.975 --     5 C    1.424     7 N    0.234     2 C    0.127
     7   7 N    3.205 --     5 C    1.460     8 C    1.174     6 O    0.234
     8   6 C    3.939 --    25 C    1.292     9 C    1.248     7 N    1.174
     9   6 C    3.716 --    10 C    1.741     8 C    1.248    25 C    0.178
                            13 C    0.120
    10   6 C    3.594 --     9 C    1.741    11 C    1.314    25 C    0.218
    11   6 C    3.888 --    10 C    1.314    24 C    1.166    12 N    1.145
    12   7 N    3.096 --    13 C    1.594    11 C    1.145
    13   6 C    3.859 --    14 N    1.779    12 N    1.594     9 C    0.120
    14   7 N    3.225 --    13 C    1.779    15 C    1.101
    15   6 C    3.951 --    16 N    1.620    14 N    1.101    24 C    1.018
    16   7 N    3.214 --    15 C    1.620    17 C    1.109
    17   6 C    3.950 --    23 C    1.342    18 C    1.314    16 N    1.109
    18   6 C    3.745 --    19 C    1.628    17 C    1.314    20 C    0.391
                            23 C    0.155
    19   6 C    3.736 --    20 C    1.636    18 C    1.628    23 C    0.373
    20   6 C    3.755 --    19 C    1.636    21 C    1.364    18 C    0.391
                            23 C    0.155
    21   6 C    3.927 --    23 C    1.417    20 C    1.364    22 Br   0.995
    22  35 Br   1.198 --    21 C    0.995
    23   6 C    3.572 --    21 C    1.417    17 C    1.342    19 C    0.373
                            18 C    0.155    20 C    0.155
    24   6 C    3.944 --    25 C    1.469    11 C    1.166    15 C    1.018
    25   6 C    3.526 --    24 C    1.469     8 C    1.292    10 C    0.218
                             9 C    0.178
 ---------------------------------------------------------------------------

Topologies differ in total number of bonds
Writing topology from bond orders to xtbtopo.mol

molecular dipole:
                 x           y           z       tot (Debye)
 q only:        1.631       0.722       0.609
   full:        1.753       1.280       0.608       5.729
molecular quadrupole (traceless):
                xx          xy          yy          xz          yz          zz
 q only:      -10.192     -12.087       6.260       5.764      -5.901       3.932
  q+dip:      -10.495     -10.008       1.622       5.079      -7.223       8.873
   full:      -10.656     -10.930       3.575       6.243      -5.907       7.080


           -------------------------------------------------
          | TOTAL ENERGY              -61.501686111386 Eh   |
          | GRADIENT NORM               0.447170410090 Eh/α |
          | HOMO-LUMO GAP               0.217364193103 eV   |
           -------------------------------------------------

------------------------------------------------------------------------
 * finished run on 2026/07/23 at 16:39:32.869     
------------------------------------------------------------------------
 total:
 * wall-time:     0 d,  0 h,  0 min,  0.268 sec
 *  cpu-time:     0 d,  0 h,  0 min,  0.260 sec
 * ratio c/w:     0.968 speedup
 SCF:
 * wall-time:     0 d,  0 h,  0 min,  0.254 sec
 *  cpu-time:     0 d,  0 h,  0 min,  0.245 sec
 * ratio c/w:     0.965 speedup

