      -----------------------------------------------------------      
     |                   =====================                   |     
     |                           x T B                           |     
     |                   =====================                   |     
     |                         S. Grimme                         |     
     |          Mulliken Center for Theoretical Chemistry        |     
     |                    University of Bonn                     |     
      -----------------------------------------------------------      

   * xtb version 6.6.1 (unknown) compiled by 'builduser@buildhost' on 2023-08-07

   xtb is free software: you can redistribute it and/or modify it under
   the terms of the GNU Lesser General Public License as published by
   the Free Software Foundation, either version 3 of the License, or
   (at your option) any later version.
   
   xtb is distributed in the hope that it will be useful,
   but WITHOUT ANY WARRANTY; without even the implied warranty of
   MERCHANTABILITY or FITNESS FOR A PARTICULAR PURPOSE.  See the
   GNU Lesser General Public License for more details.
   
   Cite this work as:
   * C. Bannwarth, E. Caldeweyher, S. Ehlert, A. Hansen, P. Pracht,
     J. Seibert, S. Spicher, S. Grimme, WIREs Comput. Mol. Sci., 2020, 11,
     e01493. DOI: 10.1002/wcms.1493
   
   for GFN2-xTB:
   * C. Bannwarth, S. Ehlert and S. Grimme., J. Chem. Theory Comput., 2019,
     15, 1652-1671. DOI: 10.1021/acs.jctc.8b01176
   for GFN1-xTB:
   * S. Grimme, C. Bannwarth, P. Shushkov, J. Chem. Theory Comput., 2017,
     13, 1989-2009. DOI: 10.1021/acs.jctc.7b00118
   for GFN0-xTB:
   * P. Pracht, E. Caldeweyher, S. Ehlert, S. Grimme, ChemRxiv, 2019, preprint.
     DOI: 10.26434/chemrxiv.8326202.v1
   for GFN-FF:
   * S. Spicher and S. Grimme, Angew. Chem. Int. Ed., 2020, 59, 15665-15673.
     DOI: 10.1002/anie.202004239
   
   for ALPB and GBSA implicit solvation:
   * S. Ehlert, M. Stahn, S. Spicher, S. Grimme, J. Chem. Theory Comput.,
     2021, 17, 4250-4261. DOI: 10.1021/acs.jctc.1c00471
   
   for DFT-D4:
   * E. Caldeweyher, C. Bannwarth and S. Grimme, J. Chem. Phys., 2017,
     147, 034112. DOI: 10.1063/1.4993215
   * E. Caldeweyher, S. Ehlert, A. Hansen, H. Neugebauer, S. Spicher,
     C. Bannwarth and S. Grimme, J. Chem. Phys., 2019, 150, 154122.
     DOI: 10.1063/1.5090222
   * E. Caldeweyher, J.-M. Mewes, S. Ehlert and S. Grimme, Phys. Chem. Chem. Phys.
     2020, 22, 8499-8512. DOI: 10.1039/D0CP00502A
   
   for sTDA-xTB:
   * S. Grimme and C. Bannwarth, J. Chem. Phys., 2016, 145, 054103.
     DOI: 10.1063/1.4959605
   
   in the mass-spec context:
   * V. Asgeirsson, C. Bauer and S. Grimme, Chem. Sci., 2017, 8, 4879.
     DOI: 10.1039/c7sc00601b
   * J. Koopman and S. Grimme, ACS Omega 2019, 4, 12, 15120-15133.
     DOI: 10.1021/acsomega.9b02011
   
   for metadynamics refer to:
   * S. Grimme, J. Chem. Theory Comput., 2019, 155, 2847-2862
     DOI: 10.1021/acs.jctc.9b00143
   
   for SPH calculations refer to:
   * S. Spicher and S. Grimme, J. Chem. Theory Comput., 2021, 17, 1701-1714
     DOI: 10.1021/acs.jctc.0c01306
   
   with help from (in alphabetical order)
   P. Atkinson, C. Bannwarth, F. Bohle, G. Brandenburg, E. Caldeweyher
   M. Checinski, S. Dohm, S. Ehlert, S. Ehrlich, I. Gerasimov, C. Hölzer
   A. Katbashev, J. Koopman, C. Lavigne, S. Lehtola, F. März, M. Müller,
   F. Musil, H. Neugebauer, J. Pisarek, C. Plett, P. Pracht, F. Pultar,
   J. Seibert, P. Shushkov, S. Spicher, M. Stahn, M. Steiner, T. Strunk,
   J. Stückrath, T. Rose, and J. Unsleber
   
 * started run on 2026/07/23 at 16:42:47.661     

           -------------------------------------------------
          |                Calculation Setup                |
           -------------------------------------------------

          program call               : xtb /home/selva/covalent_quantum_benchmark/data/quantum/erbB_xyz/ERBB2__CHEMBL419501__state03.xyz --gfn2 --chrg 0 --uhf 0 --iterations 300
          coordinate file            : /home/selva/covalent_quantum_benchmark/data/quantum/erbB_xyz/ERBB2__CHEMBL419501__state03.xyz
          omp threads                :                    24

   ID    Z sym.   atoms
    1    6 C      1, 3-7, 9-12, 15-18, 20, 22, 24-28, 30-32
    2    8 O      2, 13
    3    7 N      8, 14, 19, 21, 23
    4   35 Br     29

           -------------------------------------------------
          |                 G F N 2 - x T B                 |
           -------------------------------------------------

        Reference                      10.1021/acs.jctc.8b01176
      * Hamiltonian:
        H0-scaling (s, p, d)           1.850000    2.230000    2.230000
        zeta-weighting                 0.500000
      * Dispersion:
        s8                             2.700000
        a1                             0.520000
        a2                             5.000000
        s9                             5.000000
      * Repulsion:
        kExp                           1.500000    1.000000
        rExp                           1.000000
      * Coulomb:
        alpha                          2.000000
        third order                    shell-resolved
        anisotropic                    true
        a3                             3.000000
        a5                             4.000000
        cn-shift                       1.200000
        cn-exp                         4.000000
        max-rad                        5.000000


          ...................................................
          :                      SETUP                      :
          :.................................................:
          :  # basis functions                 134          :
          :  # atomic orbitals                 133          :
          :  # shells                           65          :
          :  # electrons                       140          :
          :  max. iterations                   300          :
          :  Hamiltonian                  GFN2-xTB          :
          :  restarted?                      false          :
          :  GBSA solvation                  false          :
          :  PC potential                    false          :
          :  electronic temp.          300.0000000     K    :
          :  accuracy                    1.0000000          :
          :  -> integral cutoff          0.2500000E+02      :
          :  -> integral neglect         0.1000000E-07      :
          :  -> SCF convergence          0.1000000E-05 Eh   :
          :  -> wf. convergence          0.1000000E-03 e    :
          :  Broyden damping             0.4000000          :
          ...................................................

 iter      E             dE          RMSdq      gap      omega  full diag
   1    -76.2175488 -0.762175E+02  0.869E+00    0.04       0.0  T
   2    -63.0654778  0.131521E+02  0.133E+01    0.13       1.0  T
   3    -69.6802751 -0.661480E+01  0.950E+00    0.08       1.0  T
   4    -68.6632659  0.101701E+01  0.925E+00    0.09       1.0  T
   5    -68.3433822  0.319884E+00  0.874E+00    0.45       1.0  T
   6    -72.1642398 -0.382086E+01  0.718E+00    0.11       1.0  T
   7    -76.1259257 -0.396169E+01  0.417E+00    0.17       1.0  T
   8    -76.4068537 -0.280928E+00  0.395E+00    0.03       1.0  T
   9    -76.7154465 -0.308593E+00  0.282E+00    0.08       1.0  T
  10    -76.9142245 -0.198778E+00  0.261E+00    0.24       1.0  T
  11    -76.9540385 -0.398140E-01  0.241E+00    0.22       1.0  T
  12    -77.0035988 -0.495603E-01  0.217E+00    0.20       1.0  T
  13    -77.0578015 -0.542027E-01  0.215E+00    0.14       1.0  T
  14    -76.2901443  0.767657E+00  0.377E+00    0.03       1.0  T
  15    -77.2879340 -0.997790E+00  0.124E+00    0.03       1.0  T
  16    -76.6846175  0.603316E+00  0.305E+00    0.03       1.0  T
  17    -76.3467921  0.337825E+00  0.361E+00    0.04       1.0  T
  18    -76.0926042  0.254188E+00  0.403E+00    0.05       1.0  T
  19    -76.7153222 -0.622718E+00  0.297E+00    0.05       1.0  T
  20    -77.0202692 -0.304947E+00  0.219E+00    0.04       1.0  T
  21    -76.8430865  0.177183E+00  0.257E+00    0.02       1.0  T
  22    -76.9875040 -0.144417E+00  0.227E+00    0.04       1.0  T
  23    -77.1305579 -0.143054E+00  0.175E+00    0.03       1.0  T
  24    -77.1536888 -0.231309E-01  0.154E+00    0.02       1.0  T
  25    -77.3294313 -0.175743E+00  0.520E-01    0.06       1.0  T
  26    -77.3326384 -0.320707E-02  0.543E-01    0.04       1.0  T
  27    -77.3444352 -0.117968E-01  0.343E-01    0.05       1.0  T
  28    -77.3455064 -0.107122E-02  0.323E-01    0.05       1.0  T
  29    -77.3510436 -0.553716E-02  0.201E-01    0.04       1.0  T
  30    -77.3479657  0.307792E-02  0.281E-01    0.04       1.0  T
  31    -77.3474349  0.530725E-03  0.256E-01    0.03       1.0  T
  32    -77.3496931 -0.225812E-02  0.208E-01    0.03       1.0  T
  33    -77.3516513 -0.195826E-02  0.146E-01    0.04       1.0  T
  34    -77.3521568 -0.505463E-03  0.116E-01    0.04       1.0  T
  35    -77.3518348  0.322037E-03  0.128E-01    0.05       1.0  T
  36    -77.3527956 -0.960849E-03  0.685E-02    0.04       1.0  T
  37    -77.3529603 -0.164656E-03  0.506E-02    0.04       1.0  T
  38    -77.3529983 -0.380234E-04  0.443E-02    0.04       1.0  T
  39    -77.3531269 -0.128666E-03  0.204E-02    0.04       1.0  T
  40    -77.3531426 -0.156977E-04  0.108E-02    0.04       1.6  T
  41    -77.3531297  0.129682E-04  0.178E-02    0.04       1.0  T
  42    -77.3531450 -0.153486E-04  0.108E-02    0.04       1.6  T
  43    -77.3531480 -0.293712E-05  0.689E-03    0.04       2.6  T
  44    -77.3531506 -0.259173E-05  0.506E-03    0.04       3.5  T
  45    -77.3531508 -0.214463E-06  0.442E-03    0.04       4.0  T
  46    -77.3531510 -0.206254E-06  0.305E-03    0.04       5.8  T
  47    -77.3531517 -0.731115E-06  0.143E-03    0.04      12.4  T
  48    -77.3531517  0.498082E-07  0.164E-03    0.04      10.8  T
  49    -77.3531519 -0.221044E-06  0.291E-04    0.04      60.8  T
  50    -77.3531519 -0.119810E-08  0.265E-04    0.04      66.6  T

   *** convergence criteria satisfied after 50 iterations ***

         #    Occupation            Energy/Eh            Energy/eV
      -------------------------------------------------------------
         1        2.0000           -0.8706359             -23.6912
       ...           ...                  ...                  ...
        64        2.0000           -0.4407041             -11.9922
        65        2.0000           -0.4389682             -11.9449
        66        2.0000           -0.4321478             -11.7593
        67        1.9996           -0.4299857             -11.7005
        68        1.9709           -0.4258849             -11.5889
        69        1.8429           -0.4242204             -11.5436
        70        1.2839           -0.4224358             -11.4951 (HOMO)
        71        0.5030           -0.4208451             -11.4518 (LUMO)
        72        0.3315           -0.4203458             -11.4382
        73        0.0682           -0.4187044             -11.3935
        74                         -0.4049078             -11.0181
        75                         -0.3986485             -10.8478
       ...                                ...                  ...
       133                          0.5710265              15.5384
      -------------------------------------------------------------
                  HL-Gap            0.0015907 Eh            0.0433 eV
             Fermi-level           -0.4218811 Eh          -11.4800 eV

 SCC (total)                   0 d,  0 h,  0 min,  0.618 sec
 SCC setup                      ...        0 min,  0.000 sec (  0.051%)
 Dispersion                     ...        0 min,  0.002 sec (  0.384%)
 classical contributions        ...        0 min,  0.001 sec (  0.111%)
 integral evaluation            ...        0 min,  0.007 sec (  1.202%)
 iterations                     ...        0 min,  0.582 sec ( 94.226%)
 molecular gradient             ...        0 min,  0.023 sec (  3.759%)
 printout                       ...        0 min,  0.002 sec (  0.262%)

         :::::::::::::::::::::::::::::::::::::::::::::::::::::
         ::                     SUMMARY                     ::
         :::::::::::::::::::::::::::::::::::::::::::::::::::::
         :: total energy             -76.551603892832 Eh    ::
         :: gradient norm              0.479636601462 Eh/a0 ::
         :: HOMO-LUMO gap              0.043285782120 eV    ::
         ::.................................................::
         :: SCC energy               -77.353151876288 Eh    ::
         :: -> isotropic ES            0.027675086864 Eh    ::
         :: -> anisotropic ES          0.008600439294 Eh    ::
         :: -> anisotropic XC          0.037859521867 Eh    ::
         :: -> dispersion             -0.047523090075 Eh    ::
         :: repulsion energy           0.800902624056 Eh    ::
         :: add. restraining           0.000000000000 Eh    ::
         :: total charge              -0.000000000000 e     ::
         :::::::::::::::::::::::::::::::::::::::::::::::::::::

           -------------------------------------------------
          |                Property Printout                |
           -------------------------------------------------

    * Orbital Energies and Occupations

         #    Occupation            Energy/Eh            Energy/eV
      -------------------------------------------------------------
         1        2.0000           -0.8706359             -23.6912
       ...           ...                  ...                  ...
        58        2.0000           -0.4558107             -12.4032
        59        2.0000           -0.4496188             -12.2347
        60        2.0000           -0.4477725             -12.1845
        61        2.0000           -0.4456414             -12.1265
        62        2.0000           -0.4444210             -12.0933
        63        2.0000           -0.4432728             -12.0621
        64        2.0000           -0.4407041             -11.9922
        65        2.0000           -0.4389682             -11.9449
        66        2.0000           -0.4321478             -11.7593
        67        1.9996           -0.4299857             -11.7005
        68        1.9709           -0.4258849             -11.5889
        69        1.8429           -0.4242204             -11.5436
        70        1.2839           -0.4224358             -11.4951 (HOMO)
        71        0.5030           -0.4208451             -11.4518 (LUMO)
        72        0.3315           -0.4203458             -11.4382
        73        0.0682           -0.4187044             -11.3935
        74                         -0.4049078             -11.0181
        75                         -0.3986485             -10.8478
        76                         -0.3977430             -10.8231
        77                         -0.3949903             -10.7482
        78                         -0.3720849             -10.1249
        79                         -0.3623491              -9.8600
        80                         -0.3609973              -9.8232
        81                         -0.3554428              -9.6721
       ...                                ...                  ...
       133                          0.5710265              15.5384
      -------------------------------------------------------------
                  HL-Gap            0.0015907 Eh            0.0433 eV
             Fermi-level           -0.4218811 Eh          -11.4800 eV

     #   Z          covCN         q      C6AA      α(0)
     1   6 C        0.877     0.001    35.175     9.908
     2   8 O        1.697    -0.019    14.727     5.181
     3   6 C        1.851     0.023    30.564     8.931
     4   6 C        2.896     0.073    26.362     8.418
     5   6 C        1.970    -0.032    31.930     9.125
     6   6 C        1.967    -0.022    31.659     9.087
     7   6 C        1.928    -0.029    31.873     9.117
     8   7 N        2.734     0.012    21.054     6.815
     9   6 C        1.900     0.031    30.316     8.892
    10   6 C        1.964     0.034    30.186     8.873
    11   6 C        1.965    -0.005    31.204     9.021
    12   6 C        2.795     0.297    21.957     7.676
    13   8 O        0.859    -0.359    20.869     6.125
    14   7 N        1.832    -0.137    24.753     7.373
    15   6 C        2.940     0.135    25.052     8.209
    16   6 C        1.992    -0.025    31.719     9.095
    17   6 C        1.989    -0.015    31.457     9.058
    18   6 C        2.923     0.129    25.168     8.227
    19   7 N        1.831    -0.168    25.442     7.474
    20   6 C        1.908     0.171    26.991     8.390
    21   7 N        1.831    -0.191    25.948     7.548
    22   6 C        2.908     0.201    23.737     7.989
    23   7 N        1.839    -0.154    25.114     7.427
    24   6 C        2.933     0.133    25.093     8.215
    25   6 C        1.992     0.009    30.802     8.963
    26   6 C        1.986    -0.018    31.516     9.066
    27   6 C        2.061     0.011    30.687     8.948
    28   6 C        2.906     0.114    25.497     8.280
    29  35 Br       1.068    -0.063   186.750    22.034
    30   6 C        2.067    -0.077    33.045     9.286
    31   6 C        2.978     0.003    27.953     8.673
    32   6 C        1.992    -0.063    32.765     9.244

 Mol. C6AA /au·bohr⁶  :      31047.984188
 Mol. C8AA /au·bohr⁸  :     918963.041592
 Mol. α(0) /au        :        280.666556


Wiberg/Mayer (AO) data.
largest (>0.10) Wiberg bond orders for each atom

 ---------------------------------------------------------------------------
     #   Z sym  total        # sym  WBO       # sym  WBO       # sym  WBO
 ---------------------------------------------------------------------------
     1   6 C    2.097 --     2 O    1.497     4 C    0.190     3 C    0.116
                             6 C    0.107
     2   8 O    2.685 --     1 C    1.497     3 C    1.110
     3   6 C    2.948 --     4 C    1.163     2 O    1.110     7 C    0.191
                             5 C    0.156     6 C    0.140     1 C    0.116
     4   6 C    3.734 --     3 C    1.163     5 C    1.074     8 N    0.888
                             1 C    0.190     7 C    0.182     6 C    0.178
     5   6 C    3.269 --     6 C    1.383     4 C    1.074     7 C    0.251
                             3 C    0.156     9 C    0.143
     6   6 C    3.496 --     5 C    1.383     7 C    1.343     4 C    0.178
                             9 C    0.143     3 C    0.140     1 C    0.107
                             8 N    0.107
     7   6 C    3.183 --     6 C    1.343     8 N    1.022     5 C    0.251
                             3 C    0.191     4 C    0.182
     8   7 N    3.379 --     9 C    1.145     7 C    1.022     4 C    0.888
                             6 C    0.107
     9   6 C    3.332 --    10 C    1.444     8 N    1.145     6 C    0.143
                             5 C    0.143    13 O    0.131    11 C    0.117
    10   6 C    3.817 --    11 C    2.160     9 C    1.444
    11   6 C    3.618 --    10 C    2.160    12 C    0.958    13 O    0.170
                             9 C    0.117
    12   6 C    3.941 --    14 N    1.502    13 O    1.390    11 C    0.958
    13   8 O    2.011 --    12 C    1.390    14 N    0.185    11 C    0.170
                             9 C    0.131
    14   7 N    3.141 --    12 C    1.502    15 C    1.163    13 O    0.185
    15   6 C    3.902 --    32 C    1.308    16 C    1.249    14 N    1.163
    16   6 C    3.692 --    17 C    1.731    15 C    1.249    32 C    0.236
                            20 C    0.110
    17   6 C    3.470 --    16 C    1.731    18 C    1.301    32 C    0.168
    18   6 C    3.886 --    17 C    1.301    31 C    1.176    19 N    1.158
    19   7 N    3.118 --    20 C    1.592    18 C    1.158
    20   6 C    3.847 --    21 N    1.726    19 N    1.592    23 N    0.133
                            16 C    0.110
    21   7 N    3.171 --    20 C    1.726    22 C    1.091
    22   6 C    3.951 --    23 N    1.590    21 N    1.091    31 C    1.056
    23   7 N    3.241 --    22 C    1.590    24 C    1.090    20 C    0.133
    24   6 C    3.953 --    30 C    1.356    25 C    1.321    23 N    1.090
                            27 C    0.101
    25   6 C    3.743 --    26 C    1.622    24 C    1.321    27 C    0.387
                            30 C    0.156    28 C    0.101
    26   6 C    3.738 --    27 C    1.631    25 C    1.622    30 C    0.381
Note: The following floating-point exceptions are signalling: IEEE_UNDERFLOW_FLAG IEEE_DENORMAL
normal termination of xtb
    27   6 C    3.745 --    26 C    1.631    28 C    1.366    25 C    0.387
                            30 C    0.157    24 C    0.101
    28   6 C    3.927 --    30 C    1.416    27 C    1.366    29 Br   0.995
                            25 C    0.101
    29  35 Br   1.198 --    28 C    0.995
    30   6 C    3.592 --    28 C    1.416    24 C    1.356    26 C    0.381
                            27 C    0.157    25 C    0.156
    31   6 C    3.936 --    32 C    1.433    18 C    1.176    22 C    1.056
    32   6 C    3.475 --    31 C    1.433    15 C    1.308    16 C    0.236
                            17 C    0.168
 ---------------------------------------------------------------------------

Topologies differ in total number of bonds
Writing topology from bond orders to xtbtopo.mol

molecular dipole:
                 x           y           z       tot (Debye)
 q only:       -1.321       0.706       0.062
   full:       -0.964       1.635      -0.306       4.886
molecular quadrupole (traceless):
                xx          xy          yy          xz          yz          zz
 q only:      -19.055      13.493       8.033      -1.608      -3.163      11.022
  q+dip:      -32.509       5.731      13.856       1.413      -0.966      18.653
   full:      -34.744       5.322      13.687      -0.296      -1.235      21.057


           -------------------------------------------------
          | TOTAL ENERGY              -76.551603892832 Eh   |
          | GRADIENT NORM               0.479636601462 Eh/α |
          | HOMO-LUMO GAP               0.043285782120 eV   |
           -------------------------------------------------

------------------------------------------------------------------------
 * finished run on 2026/07/23 at 16:42:48.309     
------------------------------------------------------------------------
 total:
 * wall-time:     0 d,  0 h,  0 min,  0.648 sec
 *  cpu-time:     0 d,  0 h,  0 min,  0.644 sec
 * ratio c/w:     0.993 speedup
 SCF:
 * wall-time:     0 d,  0 h,  0 min,  0.619 sec
 *  cpu-time:     0 d,  0 h,  0 min,  0.619 sec
 * ratio c/w:     1.001 speedup

