      -----------------------------------------------------------      
     |                   =====================                   |     
     |                           x T B                           |     
     |                   =====================                   |     
     |                         S. Grimme                         |     
     |          Mulliken Center for Theoretical Chemistry        |     
     |                    University of Bonn                     |     
      -----------------------------------------------------------      

   * xtb version 6.6.1 (unknown) compiled by 'builduser@buildhost' on 2023-08-07

   xtb is free software: you can redistribute it and/or modify it under
   the terms of the GNU Lesser General Public License as published by
   the Free Software Foundation, either version 3 of the License, or
   (at your option) any later version.
   
   xtb is distributed in the hope that it will be useful,
   but WITHOUT ANY WARRANTY; without even the implied warranty of
   MERCHANTABILITY or FITNESS FOR A PARTICULAR PURPOSE.  See the
   GNU Lesser General Public License for more details.
   
   Cite this work as:
   * C. Bannwarth, E. Caldeweyher, S. Ehlert, A. Hansen, P. Pracht,
     J. Seibert, S. Spicher, S. Grimme, WIREs Comput. Mol. Sci., 2020, 11,
     e01493. DOI: 10.1002/wcms.1493
   
   for GFN2-xTB:
   * C. Bannwarth, S. Ehlert and S. Grimme., J. Chem. Theory Comput., 2019,
     15, 1652-1671. DOI: 10.1021/acs.jctc.8b01176
   for GFN1-xTB:
   * S. Grimme, C. Bannwarth, P. Shushkov, J. Chem. Theory Comput., 2017,
     13, 1989-2009. DOI: 10.1021/acs.jctc.7b00118
   for GFN0-xTB:
   * P. Pracht, E. Caldeweyher, S. Ehlert, S. Grimme, ChemRxiv, 2019, preprint.
     DOI: 10.26434/chemrxiv.8326202.v1
   for GFN-FF:
   * S. Spicher and S. Grimme, Angew. Chem. Int. Ed., 2020, 59, 15665-15673.
     DOI: 10.1002/anie.202004239
   
   for ALPB and GBSA implicit solvation:
   * S. Ehlert, M. Stahn, S. Spicher, S. Grimme, J. Chem. Theory Comput.,
     2021, 17, 4250-4261. DOI: 10.1021/acs.jctc.1c00471
   
   for DFT-D4:
   * E. Caldeweyher, C. Bannwarth and S. Grimme, J. Chem. Phys., 2017,
     147, 034112. DOI: 10.1063/1.4993215
   * E. Caldeweyher, S. Ehlert, A. Hansen, H. Neugebauer, S. Spicher,
     C. Bannwarth and S. Grimme, J. Chem. Phys., 2019, 150, 154122.
     DOI: 10.1063/1.5090222
   * E. Caldeweyher, J.-M. Mewes, S. Ehlert and S. Grimme, Phys. Chem. Chem. Phys.
     2020, 22, 8499-8512. DOI: 10.1039/D0CP00502A
   
   for sTDA-xTB:
   * S. Grimme and C. Bannwarth, J. Chem. Phys., 2016, 145, 054103.
     DOI: 10.1063/1.4959605
   
   in the mass-spec context:
   * V. Asgeirsson, C. Bauer and S. Grimme, Chem. Sci., 2017, 8, 4879.
     DOI: 10.1039/c7sc00601b
   * J. Koopman and S. Grimme, ACS Omega 2019, 4, 12, 15120-15133.
     DOI: 10.1021/acsomega.9b02011
   
   for metadynamics refer to:
   * S. Grimme, J. Chem. Theory Comput., 2019, 155, 2847-2862
     DOI: 10.1021/acs.jctc.9b00143
   
   for SPH calculations refer to:
   * S. Spicher and S. Grimme, J. Chem. Theory Comput., 2021, 17, 1701-1714
     DOI: 10.1021/acs.jctc.0c01306
   
   with help from (in alphabetical order)
   P. Atkinson, C. Bannwarth, F. Bohle, G. Brandenburg, E. Caldeweyher
   M. Checinski, S. Dohm, S. Ehlert, S. Ehrlich, I. Gerasimov, C. Hölzer
   A. Katbashev, J. Koopman, C. Lavigne, S. Lehtola, F. März, M. Müller,
   F. Musil, H. Neugebauer, J. Pisarek, C. Plett, P. Pracht, F. Pultar,
   J. Seibert, P. Shushkov, S. Spicher, M. Stahn, M. Steiner, T. Strunk,
   J. Stückrath, T. Rose, and J. Unsleber
   
 * started run on 2026/07/23 at 16:39:36.272     

           -------------------------------------------------
          |                Calculation Setup                |
           -------------------------------------------------

          program call               : xtb /home/selva/covalent_quantum_benchmark/data/quantum/erbB_xyz/EGFR__CHEMBL95774__state03.xyz --gfn2 --chrg 0 --uhf 0 --iterations 300
          coordinate file            : /home/selva/covalent_quantum_benchmark/data/quantum/erbB_xyz/EGFR__CHEMBL95774__state03.xyz
          omp threads                :                    24

   ID    Z sym.   atoms
    1    6 C      1-3, 6-9, 11-14, 16, 18-20, 22, 24-26, 28-30, 32, 33, 35, 36
    2    8 O      4, 27, 34
    3    7 N      5, 10, 21, 23, 31
    4    9 F      15
    5   17 Cl     17

           -------------------------------------------------
          |                 G F N 2 - x T B                 |
           -------------------------------------------------

        Reference                      10.1021/acs.jctc.8b01176
      * Hamiltonian:
        H0-scaling (s, p, d)           1.850000    2.230000    2.230000
        zeta-weighting                 0.500000
      * Dispersion:
        s8                             2.700000
        a1                             0.520000
        a2                             5.000000
        s9                             5.000000
      * Repulsion:
        kExp                           1.500000    1.000000
        rExp                           1.000000
      * Coulomb:
        alpha                          2.000000
        third order                    shell-resolved
        anisotropic                    true
        a3                             3.000000
        a5                             4.000000
        cn-shift                       1.200000
        cn-exp                         4.000000
        max-rad                        5.000000


          ...................................................
          :                      SETUP                      :
          :.................................................:
          :  # basis functions                 150          :
          :  # atomic orbitals                 149          :
          :  # shells                           73          :
          :  # electrons                       161          :
          :  max. iterations                   300          :
          :  Hamiltonian                  GFN2-xTB          :
          :  restarted?                      false          :
          :  GBSA solvation                  false          :
          :  PC potential                    false          :
          :  electronic temp.          300.0000000     K    :
          :  accuracy                    1.0000000          :
          :  -> integral cutoff          0.2500000E+02      :
          :  -> integral neglect         0.1000000E-07      :
          :  -> SCF convergence          0.1000000E-05 Eh   :
          :  -> wf. convergence          0.1000000E-03 e    :
          :  Broyden damping             0.4000000          :
          ...................................................

 iter      E             dE          RMSdq      gap      omega  full diag
   1    -90.2643282 -0.902643E+02  0.827E+00    0.19       0.0  T
   2    -76.2729232  0.139914E+02  0.109E+01    0.09       1.0  T
   3    -77.5658838 -0.129296E+01  0.105E+01    0.32       1.0  T
   4    -72.4350896  0.513079E+01  0.109E+01    0.10       1.0  T
   5    -79.2222079 -0.678712E+01  0.882E+00    0.22       1.0  T
   6    -87.9654679 -0.874326E+01  0.575E+00    0.05       1.0  T
   7    -89.7810926 -0.181562E+01  0.410E+00    0.11       1.0  T
   8    -90.1758437 -0.394751E+00  0.382E+00    0.22       1.0  T
   9    -89.9048553  0.270988E+00  0.316E+00    0.27       1.0  T
  10    -90.4173850 -0.512530E+00  0.302E+00    0.24       1.0  T
  11    -90.5437474 -0.126362E+00  0.279E+00    0.12       1.0  T
  12    -90.7794491 -0.235702E+00  0.248E+00    0.27       1.0  T
  13    -90.8818222 -0.102373E+00  0.198E+00    0.21       1.0  T
  14    -90.8123620  0.694602E-01  0.205E+00    0.23       1.0  T
  15    -90.7843618  0.280002E-01  0.189E+00    0.04       1.0  T
  16    -90.7994630 -0.151012E-01  0.172E+00    0.01       1.0  T
  17    -90.9680878 -0.168625E+00  0.111E+00    0.05       1.0  T
  18    -90.9803498 -0.122620E-01  0.989E-01    0.07       1.0  T
  19    -90.9799136  0.436239E-03  0.857E-01    0.01       1.0  T
  20    -90.9727265  0.718705E-02  0.867E-01    0.01       1.0  T
  21    -91.0342209 -0.614944E-01  0.453E-01    0.04       1.0  T
  22    -91.0396546 -0.543369E-02  0.365E-01    0.03       1.0  T
  23    -91.0358408  0.381383E-02  0.422E-01    0.02       1.0  T
  24    -91.0233182  0.125226E-01  0.558E-01    0.01       1.0  T
  25    -91.0251470 -0.182880E-02  0.449E-01    0.03       1.0  T
  26    -91.0388965 -0.137495E-01  0.330E-01    0.02       1.0  T
  27    -91.0306711  0.822543E-02  0.351E-01    0.05       1.0  T
  28    -91.0352692 -0.459807E-02  0.314E-01    0.06       1.0  T
  29    -91.0454503 -0.101812E-01  0.149E-01    0.04       1.0  T
  30    -91.0472728 -0.182245E-02  0.483E-02    0.04       1.0  T
  31    -91.0473001 -0.272945E-04  0.408E-02    0.04       1.0  T
  32    -91.0471959  0.104155E-03  0.457E-02    0.04       1.0  T
  33    -91.0471692  0.267501E-04  0.503E-02    0.04       1.0  T
  34    -91.0472682 -0.990124E-04  0.419E-02    0.04       1.0  T
  35    -91.0473822 -0.113988E-03  0.223E-02    0.04       1.0  T
  36    -91.0474015 -0.193088E-04  0.146E-02    0.04       1.1  T
  37    -91.0474099 -0.847272E-05  0.901E-03    0.04       1.9  T
  38    -91.0473945  0.154494E-04  0.140E-02    0.04       1.2  T
  39    -91.0474101 -0.156452E-04  0.795E-03    0.04       2.1  T
  40    -91.0474148 -0.461889E-05  0.576E-03    0.04       2.9  T
  41    -91.0474175 -0.277106E-05  0.311E-03    0.04       5.4  T
  42    -91.0474181 -0.533882E-06  0.234E-03    0.04       7.1  T
  43    -91.0474184 -0.334522E-06  0.146E-03    0.04      11.4  T
  44    -91.0474185 -0.141587E-06  0.740E-04    0.04      22.5  T
  45    -91.0474186 -0.171915E-07  0.543E-04    0.04      30.7  T

   *** convergence criteria satisfied after 45 iterations ***

         #    Occupation            Energy/Eh            Energy/eV
      -------------------------------------------------------------
         1        2.0000           -1.0911633             -29.6921
       ...           ...                  ...                  ...
        75        2.0000           -0.4378320             -11.9140
        76        1.9999           -0.4363129             -11.8727
        77        1.9931           -0.4318417             -11.7510
        78        1.9344           -0.4296599             -11.6916
        79        1.8782           -0.4290310             -11.6745
        80        1.6226           -0.4277544             -11.6398
        81        1.0697           -0.4263357             -11.6012 (HOMO)
        82        0.5013           -0.4249860             -11.5645 (LUMO)
        83        0.0006           -0.4181845             -11.3794
        84                         -0.4097254             -11.1492
        85                         -0.3893137             -10.5938
        86                         -0.3852582             -10.4834
       ...                                ...                  ...
       149                          1.0473343              28.4994
      -------------------------------------------------------------
                  HL-Gap            0.0013497 Eh            0.0367 eV
             Fermi-level           -0.4261805 Eh          -11.5970 eV

 SCC (total)                   0 d,  0 h,  0 min,  0.791 sec
 SCC setup                      ...        0 min,  0.000 sec (  0.059%)
 Dispersion                     ...        0 min,  0.001 sec (  0.161%)
 classical contributions        ...        0 min,  0.003 sec (  0.346%)
 integral evaluation            ...        0 min,  0.014 sec (  1.830%)
 iterations                     ...        0 min,  0.740 sec ( 93.514%)
 molecular gradient             ...        0 min,  0.022 sec (  2.804%)
 printout                       ...        0 min,  0.010 sec (  1.280%)

         :::::::::::::::::::::::::::::::::::::::::::::::::::::
         ::                     SUMMARY                     ::
         :::::::::::::::::::::::::::::::::::::::::::::::::::::
         :: total energy             -90.122372742802 Eh    ::
         :: gradient norm              0.540625307764 Eh/a0 ::
         :: HOMO-LUMO gap              0.036727494978 eV    ::
         ::.................................................::
         :: SCC energy               -91.047418558719 Eh    ::
         :: -> isotropic ES            0.054972719880 Eh    ::
         :: -> anisotropic ES          0.008331802118 Eh    ::
         :: -> anisotropic XC          0.046163093181 Eh    ::
         :: -> dispersion             -0.052330829183 Eh    ::
         :: repulsion energy           0.924992766867 Eh    ::
         :: add. restraining           0.000000000000 Eh    ::
         :: total charge               0.000000000002 e     ::
         :::::::::::::::::::::::::::::::::::::::::::::::::::::

           -------------------------------------------------
          |                Property Printout                |
           -------------------------------------------------

    * Orbital Energies and Occupations

         #    Occupation            Energy/Eh            Energy/eV
      -------------------------------------------------------------
         1        2.0000           -1.0911633             -29.6921
       ...           ...                  ...                  ...
        69        2.0000           -0.4624503             -12.5839
        70        2.0000           -0.4589780             -12.4894
        71        2.0000           -0.4555730             -12.3968
        72        2.0000           -0.4530419             -12.3279
        73        2.0000           -0.4473687             -12.1735
        74        2.0000           -0.4418819             -12.0242
        75        2.0000           -0.4378320             -11.9140
        76        1.9999           -0.4363129             -11.8727
        77        1.9931           -0.4318417             -11.7510
        78        1.9344           -0.4296599             -11.6916
        79        1.8782           -0.4290310             -11.6745
        80        1.6226           -0.4277544             -11.6398
        81        1.0697           -0.4263357             -11.6012 (HOMO)
        82        0.5013           -0.4249860             -11.5645 (LUMO)
        83        0.0006           -0.4181845             -11.3794
        84                         -0.4097254             -11.1492
        85                         -0.3893137             -10.5938
        86                         -0.3852582             -10.4834
        87                         -0.3770618             -10.2604
        88                         -0.3665451              -9.9742
        89                         -0.3646193              -9.9218
        90                         -0.3509881              -9.5509
        91                         -0.3449414              -9.3863
        92                         -0.3385761              -9.2131
       ...                                ...                  ...
       149                          1.0473343              28.4994
      -------------------------------------------------------------
                  HL-Gap            0.0013497 Eh            0.0367 eV
             Fermi-level           -0.4261805 Eh          -11.5970 eV

     #   Z          covCN         q      C6AA      α(0)
     1   6 C        0.989    -0.048    37.456    10.283
     2   6 C        1.966     0.044    29.948     8.838
     3   6 C        2.776     0.312    21.694     7.629
     4   8 O        0.859    -0.357    20.833     6.120
     5   7 N        1.830    -0.196    26.071     7.566
     6   6 C        2.913     0.116    25.439     8.271
     7   6 C        2.000    -0.050    32.387     9.191
     8   6 C        2.977     0.020    27.560     8.611
     9   6 C        2.909     0.130    25.148     8.223
    10   7 N        1.827    -0.141    24.824     7.383
    11   6 C        2.892     0.136    25.020     8.201
    12   6 C        1.991    -0.061    32.702     9.235
    13   6 C        1.987    -0.027    31.779     9.104
    14   6 C        2.806     0.194    23.871     8.004
    15   9 F        0.787    -0.153    10.758     3.874
    16   6 C        2.877     0.091    25.979     8.356
    17  17 Cl       0.962    -0.060   101.041    15.378
    18   6 C        2.030    -0.056    32.520     9.210
    19   6 C        2.958     0.039    27.132     8.544
    20   6 C        1.907     0.124    28.058     8.555
    21   7 N        0.911    -0.172    24.720     7.191
    22   6 C        1.969     0.063    29.468     8.766
    23   7 N        1.844    -0.104    24.034     7.266
    24   6 C        2.952     0.120    25.366     8.261
    25   6 C        2.000    -0.068    32.874     9.259
    26   6 C        2.892     0.166    24.422     8.102
    27   8 O        1.702    -0.163    16.761     5.528
    28   6 C        1.869     0.061    29.594     8.787
    29   6 C        1.950    -0.011    31.379     9.046
    30   6 C        1.898     0.005    30.974     8.988
    31   7 N        2.719     0.089    19.701     6.592
    32   6 C        1.903    -0.024    31.740     9.099
    33   6 C        1.850     0.039    30.145     8.869
    34   8 O        1.695    -0.095    15.769     5.361
    35   6 C        1.851     0.047    29.945     8.840
    36   6 C        1.907    -0.012    31.420     9.053

 Mol. C6AA /au·bohr⁶  :      35999.530046
 Mol. C8AA /au·bohr⁸  :     999331.454418
 Mol. α(0) /au        :        299.582695


Wiberg/Mayer (AO) data.
largest (>0.10) Wiberg bond orders for each atom

 ---------------------------------------------------------------------------
     #   Z sym  total        # sym  WBO       # sym  WBO       # sym  WBO
 ---------------------------------------------------------------------------
     1   6 C    3.052 --     2 C    2.595     4 O    0.287
     2   6 C    3.637 --     1 C    2.595     3 C    0.907     4 O    0.109
     3   6 C    3.914 --     5 N    1.518     4 O    1.358     2 C    0.907
     4   8 O    1.969 --     3 C    1.358     1 C    0.287     5 N    0.166
                             2 C    0.109
     5   7 N    3.128 --     3 C    1.518     6 C    1.156     4 O    0.166
     6   6 C    3.928 --     7 C    1.436     5 N    1.156    26 C    1.127
     7   6 C    3.644 --     6 C    1.436     8 C    1.415    25 C    0.399
     8   6 C    3.953 --     7 C    1.415     9 C    1.194    24 C    1.079
     9   6 C    3.954 --    10 N    1.251    19 C    1.225     8 C    1.194
    10   7 N    3.166 --    11 C    1.255     9 C    1.251    22 C    0.233
    11   6 C    3.915 --    18 C    1.267    10 N    1.255    12 C    1.207
    12   6 C    3.629 --    13 C    1.721    11 C    1.207    18 C    0.373
    13   6 C    3.462 --    12 C    1.721    14 C    1.358    18 C    0.152
    14   6 C    3.778 --    13 C    1.358    16 C    1.249    15 F    1.006
    15   9 F    1.154 --    14 C    1.006
    16   6 C    3.902 --    18 C    1.466    14 C    1.249    17 Cl   1.009
    17  17 Cl   1.196 --    16 C    1.009
    18   6 C    3.421 --    16 C    1.466    11 C    1.267    12 C    0.373
                            13 C    0.152
    19   6 C    3.936 --    22 C    1.390     9 C    1.225    20 C    1.082
    20   6 C    3.946 --    21 N    2.816    19 C    1.082
    21   7 N    2.996 --    20 C    2.816
    22   6 C    3.632 --    23 N    1.653    19 C    1.390    10 N    0.233
    23   7 N    3.261 --    22 C    1.653    24 C    1.257
    24   6 C    3.909 --    25 C    1.350    23 N    1.257     8 C    1.079
    25   6 C    3.651 --    26 C    1.527    24 C    1.350     7 C    0.399
    26   6 C    3.898 --    25 C    1.527     6 C    1.127    27 O    1.002
    27   8 O    2.374 --    28 C    1.112    26 C    1.002
    28   6 C    3.205 --    29 C    1.513    27 O    1.112    30 C    0.373
    29   6 C    3.566 --    30 C    1.708    28 C    1.513
    30   6 C    3.452 --    29 C    1.708    31 N    1.150    28 C    0.373
    31   7 N    3.597 --    30 C    1.150    32 C    1.077    36 C    1.071
    32   6 C    3.375 --    33 C    1.512    31 N    1.077    35 C    0.351
                            36 C    0.196    34 O    0.102
    33   6 C    3.341 --    32 C    1.512    34 O    1.113    36 C    0.355
                            35 C    0.181
    34   8 O    2.523 --    35 C    1.119    33 C    1.113    36 C    0.105
                            32 C    0.102
    35   6 C    3.324 --    36 C    1.529    34 O    1.119    32 C    0.351
                            33 C    0.181
    36   6 C    3.373 --    35 C    1.529    31 N    1.071    33 C    0.355
Note: The following floating-point exceptions are signalling: IEEE_UNDERFLOW_FLAG IEEE_DENORMAL
normal termination of xtb
                            32 C    0.196    34 O    0.105
 ---------------------------------------------------------------------------

Topologies differ in total number of bonds
Writing topology from bond orders to xtbtopo.mol

molecular dipole:
                 x           y           z       tot (Debye)
 q only:       -1.009      -0.537       0.845
   full:       -0.357      -0.295       0.264       1.354
molecular quadrupole (traceless):
                xx          xy          yy          xz          yz          zz
 q only:       -5.937       7.774       6.345      -6.233       2.542      -0.408
  q+dip:        4.494       5.514       0.640       1.207       6.041      -5.134
   full:        6.487       4.277      -0.728      -0.053       9.128      -5.759


           -------------------------------------------------
          | TOTAL ENERGY              -90.122372742802 Eh   |
          | GRADIENT NORM               0.540625307764 Eh/α |
          | HOMO-LUMO GAP               0.036727494978 eV   |
           -------------------------------------------------

------------------------------------------------------------------------
 * finished run on 2026/07/23 at 16:39:37.093     
------------------------------------------------------------------------
 total:
 * wall-time:     0 d,  0 h,  0 min,  0.821 sec
 *  cpu-time:     0 d,  0 h,  0 min,  0.763 sec
 * ratio c/w:     0.929 speedup
 SCF:
 * wall-time:     0 d,  0 h,  0 min,  0.792 sec
 *  cpu-time:     0 d,  0 h,  0 min,  0.739 sec
 * ratio c/w:     0.934 speedup

