      -----------------------------------------------------------      
     |                   =====================                   |     
     |                           x T B                           |     
     |                   =====================                   |     
     |                         S. Grimme                         |     
     |          Mulliken Center for Theoretical Chemistry        |     
     |                    University of Bonn                     |     
      -----------------------------------------------------------      

   * xtb version 6.6.1 (unknown) compiled by 'builduser@buildhost' on 2023-08-07

   xtb is free software: you can redistribute it and/or modify it under
   the terms of the GNU Lesser General Public License as published by
   the Free Software Foundation, either version 3 of the License, or
   (at your option) any later version.
   
   xtb is distributed in the hope that it will be useful,
   but WITHOUT ANY WARRANTY; without even the implied warranty of
   MERCHANTABILITY or FITNESS FOR A PARTICULAR PURPOSE.  See the
   GNU Lesser General Public License for more details.
   
   Cite this work as:
   * C. Bannwarth, E. Caldeweyher, S. Ehlert, A. Hansen, P. Pracht,
     J. Seibert, S. Spicher, S. Grimme, WIREs Comput. Mol. Sci., 2020, 11,
     e01493. DOI: 10.1002/wcms.1493
   
   for GFN2-xTB:
   * C. Bannwarth, S. Ehlert and S. Grimme., J. Chem. Theory Comput., 2019,
     15, 1652-1671. DOI: 10.1021/acs.jctc.8b01176
   for GFN1-xTB:
   * S. Grimme, C. Bannwarth, P. Shushkov, J. Chem. Theory Comput., 2017,
     13, 1989-2009. DOI: 10.1021/acs.jctc.7b00118
   for GFN0-xTB:
   * P. Pracht, E. Caldeweyher, S. Ehlert, S. Grimme, ChemRxiv, 2019, preprint.
     DOI: 10.26434/chemrxiv.8326202.v1
   for GFN-FF:
   * S. Spicher and S. Grimme, Angew. Chem. Int. Ed., 2020, 59, 15665-15673.
     DOI: 10.1002/anie.202004239
   
   for ALPB and GBSA implicit solvation:
   * S. Ehlert, M. Stahn, S. Spicher, S. Grimme, J. Chem. Theory Comput.,
     2021, 17, 4250-4261. DOI: 10.1021/acs.jctc.1c00471
   
   for DFT-D4:
   * E. Caldeweyher, C. Bannwarth and S. Grimme, J. Chem. Phys., 2017,
     147, 034112. DOI: 10.1063/1.4993215
   * E. Caldeweyher, S. Ehlert, A. Hansen, H. Neugebauer, S. Spicher,
     C. Bannwarth and S. Grimme, J. Chem. Phys., 2019, 150, 154122.
     DOI: 10.1063/1.5090222
   * E. Caldeweyher, J.-M. Mewes, S. Ehlert and S. Grimme, Phys. Chem. Chem. Phys.
     2020, 22, 8499-8512. DOI: 10.1039/D0CP00502A
   
   for sTDA-xTB:
   * S. Grimme and C. Bannwarth, J. Chem. Phys., 2016, 145, 054103.
     DOI: 10.1063/1.4959605
   
   in the mass-spec context:
   * V. Asgeirsson, C. Bauer and S. Grimme, Chem. Sci., 2017, 8, 4879.
     DOI: 10.1039/c7sc00601b
   * J. Koopman and S. Grimme, ACS Omega 2019, 4, 12, 15120-15133.
     DOI: 10.1021/acsomega.9b02011
   
   for metadynamics refer to:
   * S. Grimme, J. Chem. Theory Comput., 2019, 155, 2847-2862
     DOI: 10.1021/acs.jctc.9b00143
   
   for SPH calculations refer to:
   * S. Spicher and S. Grimme, J. Chem. Theory Comput., 2021, 17, 1701-1714
     DOI: 10.1021/acs.jctc.0c01306
   
   with help from (in alphabetical order)
   P. Atkinson, C. Bannwarth, F. Bohle, G. Brandenburg, E. Caldeweyher
   M. Checinski, S. Dohm, S. Ehlert, S. Ehrlich, I. Gerasimov, C. Hölzer
   A. Katbashev, J. Koopman, C. Lavigne, S. Lehtola, F. März, M. Müller,
   F. Musil, H. Neugebauer, J. Pisarek, C. Plett, P. Pracht, F. Pultar,
   J. Seibert, P. Shushkov, S. Spicher, M. Stahn, M. Steiner, T. Strunk,
   J. Stückrath, T. Rose, and J. Unsleber
   
 * started run on 2026/07/23 at 16:43:13.198     

           -------------------------------------------------
          |                Calculation Setup                |
           -------------------------------------------------

          program call               : xtb /home/selva/covalent_quantum_benchmark/data/quantum/erbB_xyz/ERBB2__CHEMBL605957__state03.xyz --gfn2 --chrg 0 --uhf 0 --iterations 300
          coordinate file            : /home/selva/covalent_quantum_benchmark/data/quantum/erbB_xyz/ERBB2__CHEMBL605957__state03.xyz
          omp threads                :                    24

   ID    Z sym.   atoms
    1    6 C      1, 3-9, 11-14, 16-18, 21, 23, 24, 26, 27, 29
    2    8 O      2, 19, 22, 25, 28
    3    7 N      10, 20
    4   35 Br     15

           -------------------------------------------------
          |                 G F N 2 - x T B                 |
           -------------------------------------------------

        Reference                      10.1021/acs.jctc.8b01176
      * Hamiltonian:
        H0-scaling (s, p, d)           1.850000    2.230000    2.230000
        zeta-weighting                 0.500000
      * Dispersion:
        s8                             2.700000
        a1                             0.520000
        a2                             5.000000
        s9                             5.000000
      * Repulsion:
        kExp                           1.500000    1.000000
        rExp                           1.000000
      * Coulomb:
        alpha                          2.000000
        third order                    shell-resolved
        anisotropic                    true
        a3                             3.000000
        a5                             4.000000
        cn-shift                       1.200000
        cn-exp                         4.000000
        max-rad                        5.000000


          ...................................................
          :                      SETUP                      :
          :.................................................:
          :  # basis functions                 122          :
          :  # atomic orbitals                 121          :
          :  # shells                           59          :
          :  # electrons                       131          :
          :  max. iterations                   300          :
          :  Hamiltonian                  GFN2-xTB          :
          :  restarted?                      false          :
          :  GBSA solvation                  false          :
          :  PC potential                    false          :
          :  electronic temp.          300.0000000     K    :
          :  accuracy                    1.0000000          :
          :  -> integral cutoff          0.2500000E+02      :
          :  -> integral neglect         0.1000000E-07      :
          :  -> SCF convergence          0.1000000E-05 Eh   :
          :  -> wf. convergence          0.1000000E-03 e    :
          :  Broyden damping             0.4000000          :
          ...................................................

 iter      E             dE          RMSdq      gap      omega  full diag
   1    -73.1531472 -0.731531E+02  0.899E+00    0.33       0.0  T
   2    -42.7671509  0.303860E+02  0.161E+01    0.13       1.0  T
   3    -56.9451615 -0.141780E+02  0.115E+01    0.21       1.0  T
   4    -69.2855283 -0.123404E+02  0.915E+00    0.10       1.0  T
   5    -72.8436349 -0.355811E+01  0.658E+00    0.18       1.0  T
   6    -73.0722517 -0.228617E+00  0.513E+00    0.14       1.0  T
   7    -74.1783708 -0.110612E+01  0.370E+00    0.11       1.0  T
   8    -73.8755621  0.302809E+00  0.463E+00    0.02       1.0  T
   9    -74.2934423 -0.417880E+00  0.381E+00    0.07       1.0  T
  10    -74.3012760 -0.783371E-02  0.343E+00    0.04       1.0  T
  11    -73.9234689  0.377807E+00  0.484E+00    0.05       1.0  T
  12    -73.5989364  0.324533E+00  0.526E+00    0.03       1.0  T
  13    -73.6839249 -0.849885E-01  0.511E+00    0.04       1.0  T
  14    -73.7154621 -0.315372E-01  0.508E+00    0.05       1.0  T
  15    -73.5262106  0.189251E+00  0.558E+00    0.03       1.0  T
  16    -74.0496731 -0.523462E+00  0.413E+00    0.06       1.0  T
  17    -74.2043557 -0.154683E+00  0.362E+00    0.04       1.0  T
  18    -74.2273885 -0.230328E-01  0.367E+00    0.10       1.0  T
  19    -74.0998274  0.127561E+00  0.395E+00    0.08       1.0  T
  20    -74.0396252  0.602022E-01  0.408E+00    0.07       1.0  T
  21    -73.8150982  0.224527E+00  0.403E+00    0.04       1.0  T
  22    -74.0244294 -0.209331E+00  0.357E+00    0.02       1.0  T
  23    -74.3801210 -0.355692E+00  0.288E+00    0.08       1.0  T
  24    -74.5759939 -0.195873E+00  0.206E+00    0.04       1.0  T
  25    -74.5864502 -0.104563E-01  0.196E+00    0.02       1.0  T
  26    -74.5697968  0.166534E-01  0.205E+00    0.02       1.0  T
  27    -74.6196438 -0.498470E-01  0.168E+00    0.01       1.0  T
  28    -74.6871661 -0.675223E-01  0.918E-01    0.03       1.0  T
  29    -74.6929721 -0.580602E-02  0.858E-01    0.03       1.0  T
  30    -74.6907378  0.223431E-02  0.884E-01    0.03       1.0  T
  31    -74.6977593 -0.702158E-02  0.800E-01    0.03       1.0  T
  32    -74.7117723 -0.140130E-01  0.626E-01    0.02       1.0  T
  33    -74.7088508  0.292156E-02  0.669E-01    0.01       1.0  T
  34    -74.7217868 -0.129360E-01  0.441E-01    0.02       1.0  T
  35    -74.7237471 -0.196037E-02  0.357E-01    0.02       1.0  T
  36    -74.7273182 -0.357105E-02  0.201E-01    0.02       1.0  T
  37    -74.7277417 -0.423522E-03  0.171E-01    0.02       1.0  T
  38    -74.7281543 -0.412643E-03  0.151E-01    0.03       1.0  T
  39    -74.7288607 -0.706400E-03  0.880E-02    0.02       1.0  T
  40    -74.7289487 -0.879956E-04  0.763E-02    0.02       1.0  T
  41    -74.7289467  0.202103E-05  0.744E-02    0.02       1.0  T
  42    -74.7290089 -0.621812E-04  0.637E-02    0.02       1.0  T
  43    -74.7290174 -0.850554E-05  0.693E-02    0.02       1.0  T
  44    -74.7290354 -0.180419E-04  0.649E-02    0.03       1.0  T
  45    -74.7291799 -0.144435E-03  0.296E-02    0.02       1.0  T
  46    -74.7292013 -0.213899E-04  0.196E-02    0.02       1.0  T
  47    -74.7291999  0.133800E-05  0.189E-02    0.02       1.0  T
  48    -74.7292102 -0.102677E-04  0.107E-02    0.02       1.7  T
  49    -74.7292091  0.105740E-05  0.111E-02    0.02       1.7  T
  50    -74.7292102 -0.110401E-05  0.937E-03    0.02       2.0  T
  51    -74.7292104 -0.163129E-06  0.891E-03    0.02       2.1  T
  52    -74.7292112 -0.794801E-06  0.734E-03    0.02       2.5  T
  53    -74.7292113 -0.603169E-07  0.543E-03    0.02       3.4  T
  54    -74.7292114 -0.122977E-06  0.453E-03    0.02       4.1  T
  55    -74.7292120 -0.617323E-06  0.201E-03    0.02       9.3  T
  56    -74.7292120 -0.224773E-07  0.175E-03    0.02      10.6  T
  57    -74.7292121 -0.377499E-07  0.119E-03    0.02      15.6  T
  58    -74.7292121 -0.329923E-07  0.803E-04    0.02      23.1  T
  59    -74.7292121 -0.280010E-07  0.156E-04    0.02     119.0  T

   *** convergence criteria satisfied after 59 iterations ***

         #    Occupation            Energy/Eh            Energy/eV
      -------------------------------------------------------------
         1        2.0000           -0.8706886             -23.6926
       ...           ...                  ...                  ...
        60        2.0000           -0.4505942             -12.2613
        61        2.0000           -0.4423876             -12.0380
        62        2.0000           -0.4416166             -12.0170
        63        2.0000           -0.4387057             -11.9378
        64        1.9579           -0.4310424             -11.7293
        65        1.8924           -0.4300953             -11.7035
        66        0.5903           -0.4256953             -11.5838 (HOMO)
        67        0.3201           -0.4247973             -11.5593 (LUMO)
        68        0.1688           -0.4240407             -11.5387
        69        0.0613           -0.4229828             -11.5099
        70        0.0093           -0.4211461             -11.4600
        71        0.0000           -0.4106063             -11.1732
       ...           ...                  ...                  ...
       121                          0.6690033              18.2045
      -------------------------------------------------------------
                  HL-Gap            0.0008980 Eh            0.0244 eV
             Fermi-level           -0.4268266 Eh          -11.6145 eV

 SCC (total)                   0 d,  0 h,  0 min,  0.497 sec
 SCC setup                      ...        0 min,  0.003 sec (  0.631%)
 Dispersion                     ...        0 min,  0.001 sec (  0.244%)
 classical contributions        ...        0 min,  0.001 sec (  0.169%)
 integral evaluation            ...        0 min,  0.009 sec (  1.742%)
 iterations                     ...        0 min,  0.462 sec ( 92.955%)
 molecular gradient             ...        0 min,  0.017 sec (  3.320%)
 printout                       ...        0 min,  0.005 sec (  0.928%)

         :::::::::::::::::::::::::::::::::::::::::::::::::::::
         ::                     SUMMARY                     ::
         :::::::::::::::::::::::::::::::::::::::::::::::::::::
         :: total energy             -73.972302326790 Eh    ::
         :: gradient norm              0.441715266919 Eh/a0 ::
         :: HOMO-LUMO gap              0.024437142540 eV    ::
         ::.................................................::
         :: SCC energy               -74.729212128728 Eh    ::
         :: -> isotropic ES            0.041622327282 Eh    ::
         :: -> anisotropic ES          0.011019037357 Eh    ::
         :: -> anisotropic XC          0.014170221884 Eh    ::
         :: -> dispersion             -0.044307508704 Eh    ::
         :: repulsion energy           0.756518306548 Eh    ::
         :: add. restraining           0.000000000000 Eh    ::
         :: total charge              -0.000000001439 e     ::
         :::::::::::::::::::::::::::::::::::::::::::::::::::::

           -------------------------------------------------
          |                Property Printout                |
           -------------------------------------------------

    * Orbital Energies and Occupations

         #    Occupation            Energy/Eh            Energy/eV
      -------------------------------------------------------------
         1        2.0000           -0.8706886             -23.6926
       ...           ...                  ...                  ...
        54        2.0000           -0.4818993             -13.1131
        55        2.0000           -0.4799613             -13.0604
        56        2.0000           -0.4766622             -12.9706
        57        2.0000           -0.4670818             -12.7099
        58        2.0000           -0.4536453             -12.3443
        59        2.0000           -0.4517282             -12.2922
        60        2.0000           -0.4505942             -12.2613
        61        2.0000           -0.4423876             -12.0380
        62        2.0000           -0.4416166             -12.0170
        63        2.0000           -0.4387057             -11.9378
        64        1.9579           -0.4310424             -11.7293
        65        1.8924           -0.4300953             -11.7035
        66        0.5903           -0.4256953             -11.5838 (HOMO)
        67        0.3201           -0.4247973             -11.5593 (LUMO)
        68        0.1688           -0.4240407             -11.5387
        69        0.0613           -0.4229828             -11.5099
        70        0.0093           -0.4211461             -11.4600
        71        0.0000           -0.4106063             -11.1732
        72                         -0.4086265             -11.1193
        73                         -0.4011348             -10.9154
        74                         -0.3723260             -10.1315
        75                         -0.3625180              -9.8646
        76                         -0.3245478              -8.8314
        77                         -0.3185326              -8.6677
       ...                                ...                  ...
       121                          0.6690033              18.2045
      -------------------------------------------------------------
                  HL-Gap            0.0008980 Eh            0.0244 eV
             Fermi-level           -0.4268266 Eh          -11.6145 eV

     #   Z          covCN         q      C6AA      α(0)
     1   6 C        0.884    -0.018    35.800     9.999
     2   8 O        1.703    -0.050    15.147     5.255
     3   6 C        2.871     0.140    24.941     8.187
     4   6 C        1.994    -0.047    32.294     9.177
     5   6 C        2.964     0.066    26.526     8.448
     6   6 C        3.169     0.012    27.383     8.549
     7   6 C        3.020     0.033    27.233     8.560
     8   6 C        2.975     0.028    27.361     8.580
     9   6 C        2.145     0.075    28.874     8.686
    10   7 N        1.843    -0.078    23.507     7.185
    11   6 C        3.136     0.107    25.430     8.254
    12   6 C        1.985    -0.024    31.692     9.091
    13   6 C        2.061    -0.001    30.978     8.990
    14   6 C        2.911     0.116    25.451     8.272
    15  35 Br       1.066    -0.049   186.346    22.010
    16   6 C        2.058    -0.065    32.733     9.241
    17   6 C        3.046     0.026    27.390     8.584
    18   6 C        3.259     0.291    21.170     7.436
    19   8 O        0.857    -0.377    21.226     6.177
    20   7 N        1.856    -0.212    26.452     7.623
    21   6 C        3.111     0.298    21.831     7.655
    22   8 O        0.857    -0.313    20.015     5.998
    23   6 C        1.991    -0.069    32.927     9.267
    24   6 C        2.853     0.142    24.901     8.179
    25   8 O        1.703    -0.050    15.140     5.253
    26   6 C        0.868    -0.009    35.401     9.935
    27   6 C        2.899     0.121    25.334     8.253
    28   8 O        1.702    -0.068    15.386     5.296
    29   6 C        0.907    -0.027    36.220    10.070

 Mol. C6AA /au·bohr⁶  :      24401.396759
 Mol. C8AA /au·bohr⁸  :     722825.359382
 Mol. α(0) /au        :        248.211892


Wiberg/Mayer (AO) data.
largest (>0.10) Wiberg bond orders for each atom

 ---------------------------------------------------------------------------
     #   Z sym  total        # sym  WBO       # sym  WBO       # sym  WBO
 ---------------------------------------------------------------------------
     1   6 C    2.053 --     2 O    1.532     4 C    0.144    29 C    0.122
                            23 C    0.114
     2   8 O    2.597 --     1 C    1.532     3 C    0.983
     3   6 C    3.902 --     4 C    1.380    27 C    1.304     2 O    0.983
     4   6 C    3.607 --     3 C    1.380     5 C    1.353    23 C    0.362
                             1 C    0.144
     5   6 C    3.967 --    23 C    1.361     4 C    1.353     6 C    1.054
     6   6 C    3.926 --     7 C    1.663     5 C    1.054    21 C    0.920
     7   6 C    3.950 --     6 C    1.663     8 C    1.145    18 C    0.876
     8   6 C    3.792 --     7 C    1.145     9 C    1.063    17 C    1.061
                            20 N    0.128    19 O    0.111
     9   6 C    3.731 --    10 N    1.938     8 C    1.063    13 C    0.316
                            12 C    0.113
    10   7 N    3.238 --     9 C    1.938    11 C    1.005
    11   6 C    3.918 --    12 C    1.420    17 C    1.155    10 N    1.005
    12   6 C    3.724 --    13 C    1.631    11 C    1.420    16 C    0.329
                             9 C    0.113
    13   6 C    3.780 --    12 C    1.631    14 C    1.359     9 C    0.316
                            16 C    0.120    17 C    0.103
    14   6 C    3.921 --    16 C    1.379    13 C    1.359    15 Br   1.005
    15  35 Br   1.178 --    14 C    1.005
    16   6 C    3.654 --    17 C    1.461    14 C    1.379    12 C    0.329
                            13 C    0.120
    17   6 C    3.955 --    16 C    1.461    11 C    1.155     8 C    1.061
                            13 C    0.103
    18   6 C    3.944 --    19 O    1.516    20 N    1.423     7 C    0.876
    19   8 O    2.100 --    18 C    1.516    20 N    0.168     8 C    0.111
    20   7 N    3.161 --    18 C    1.423    21 C    1.158    19 O    0.168
                             8 C    0.128    22 O    0.107
    21   6 C    3.946 --    22 O    1.747    20 N    1.158     6 C    0.920
    22   8 O    2.102 --    21 C    1.747    20 N    0.107
    23   6 C    3.638 --     5 C    1.361    24 C    1.359     4 C    0.362
                            26 C    0.201     1 C    0.114
    24   6 C    3.892 --    23 C    1.359    27 C    1.265    25 O    1.029
    25   8 O    2.619 --    26 C    1.505    24 C    1.029
Note: The following floating-point exceptions are signalling: IEEE_UNDERFLOW_FLAG IEEE_DENORMAL
normal termination of xtb
    26   6 C    2.076 --    25 O    1.505    23 C    0.201    29 C    0.158
    27   6 C    3.888 --     3 C    1.304    24 C    1.265    28 O    0.968
    28   8 O    2.563 --    29 C    1.477    27 C    0.968
    29   6 C    2.025 --    28 O    1.477    26 C    0.158     1 C    0.122
 ---------------------------------------------------------------------------

Topologies differ in total number of bonds
Writing topology from bond orders to xtbtopo.mol

molecular dipole:
                 x           y           z       tot (Debye)
 q only:        0.739       1.799      -1.280
   full:        0.047       2.295      -1.406       6.842
molecular quadrupole (traceless):
                xx          xy          yy          xz          yz          zz
 q only:       14.098      -9.229     -10.242       6.031      22.559      -3.856
  q+dip:        9.670      -4.083     -11.712       5.605      25.821       2.042
   full:        8.872      -4.349      -8.887       3.585      25.376       0.015


           -------------------------------------------------
          | TOTAL ENERGY              -73.972302326790 Eh   |
          | GRADIENT NORM               0.441715266919 Eh/α |
          | HOMO-LUMO GAP               0.024437142540 eV   |
           -------------------------------------------------

------------------------------------------------------------------------
 * finished run on 2026/07/23 at 16:43:13.711     
------------------------------------------------------------------------
 total:
 * wall-time:     0 d,  0 h,  0 min,  0.513 sec
 *  cpu-time:     0 d,  0 h,  0 min,  0.476 sec
 * ratio c/w:     0.928 speedup
 SCF:
 * wall-time:     0 d,  0 h,  0 min,  0.498 sec
 *  cpu-time:     0 d,  0 h,  0 min,  0.456 sec
 * ratio c/w:     0.917 speedup

