      -----------------------------------------------------------      
     |                   =====================                   |     
     |                           x T B                           |     
     |                   =====================                   |     
     |                         S. Grimme                         |     
     |          Mulliken Center for Theoretical Chemistry        |     
     |                    University of Bonn                     |     
      -----------------------------------------------------------      

   * xtb version 6.6.1 (unknown) compiled by 'builduser@buildhost' on 2023-08-07

   xtb is free software: you can redistribute it and/or modify it under
   the terms of the GNU Lesser General Public License as published by
   the Free Software Foundation, either version 3 of the License, or
   (at your option) any later version.
   
   xtb is distributed in the hope that it will be useful,
   but WITHOUT ANY WARRANTY; without even the implied warranty of
   MERCHANTABILITY or FITNESS FOR A PARTICULAR PURPOSE.  See the
   GNU Lesser General Public License for more details.
   
   Cite this work as:
   * C. Bannwarth, E. Caldeweyher, S. Ehlert, A. Hansen, P. Pracht,
     J. Seibert, S. Spicher, S. Grimme, WIREs Comput. Mol. Sci., 2020, 11,
     e01493. DOI: 10.1002/wcms.1493
   
   for GFN2-xTB:
   * C. Bannwarth, S. Ehlert and S. Grimme., J. Chem. Theory Comput., 2019,
     15, 1652-1671. DOI: 10.1021/acs.jctc.8b01176
   for GFN1-xTB:
   * S. Grimme, C. Bannwarth, P. Shushkov, J. Chem. Theory Comput., 2017,
     13, 1989-2009. DOI: 10.1021/acs.jctc.7b00118
   for GFN0-xTB:
   * P. Pracht, E. Caldeweyher, S. Ehlert, S. Grimme, ChemRxiv, 2019, preprint.
     DOI: 10.26434/chemrxiv.8326202.v1
   for GFN-FF:
   * S. Spicher and S. Grimme, Angew. Chem. Int. Ed., 2020, 59, 15665-15673.
     DOI: 10.1002/anie.202004239
   
   for ALPB and GBSA implicit solvation:
   * S. Ehlert, M. Stahn, S. Spicher, S. Grimme, J. Chem. Theory Comput.,
     2021, 17, 4250-4261. DOI: 10.1021/acs.jctc.1c00471
   
   for DFT-D4:
   * E. Caldeweyher, C. Bannwarth and S. Grimme, J. Chem. Phys., 2017,
     147, 034112. DOI: 10.1063/1.4993215
   * E. Caldeweyher, S. Ehlert, A. Hansen, H. Neugebauer, S. Spicher,
     C. Bannwarth and S. Grimme, J. Chem. Phys., 2019, 150, 154122.
     DOI: 10.1063/1.5090222
   * E. Caldeweyher, J.-M. Mewes, S. Ehlert and S. Grimme, Phys. Chem. Chem. Phys.
     2020, 22, 8499-8512. DOI: 10.1039/D0CP00502A
   
   for sTDA-xTB:
   * S. Grimme and C. Bannwarth, J. Chem. Phys., 2016, 145, 054103.
     DOI: 10.1063/1.4959605
   
   in the mass-spec context:
   * V. Asgeirsson, C. Bauer and S. Grimme, Chem. Sci., 2017, 8, 4879.
     DOI: 10.1039/c7sc00601b
   * J. Koopman and S. Grimme, ACS Omega 2019, 4, 12, 15120-15133.
     DOI: 10.1021/acsomega.9b02011
   
   for metadynamics refer to:
   * S. Grimme, J. Chem. Theory Comput., 2019, 155, 2847-2862
     DOI: 10.1021/acs.jctc.9b00143
   
   for SPH calculations refer to:
   * S. Spicher and S. Grimme, J. Chem. Theory Comput., 2021, 17, 1701-1714
     DOI: 10.1021/acs.jctc.0c01306
   
   with help from (in alphabetical order)
   P. Atkinson, C. Bannwarth, F. Bohle, G. Brandenburg, E. Caldeweyher
   M. Checinski, S. Dohm, S. Ehlert, S. Ehrlich, I. Gerasimov, C. Hölzer
   A. Katbashev, J. Koopman, C. Lavigne, S. Lehtola, F. März, M. Müller,
   F. Musil, H. Neugebauer, J. Pisarek, C. Plett, P. Pracht, F. Pultar,
   J. Seibert, P. Shushkov, S. Spicher, M. Stahn, M. Steiner, T. Strunk,
   J. Stückrath, T. Rose, and J. Unsleber
   
 * started run on 2026/07/23 at 16:42:23.312     

           -------------------------------------------------
          |                Calculation Setup                |
           -------------------------------------------------

          program call               : xtb /home/selva/covalent_quantum_benchmark/data/quantum/erbB_xyz/ERBB2__CHEMBL361343__state03.xyz --gfn2 --chrg 0 --uhf 0 --iterations 300
          coordinate file            : /home/selva/covalent_quantum_benchmark/data/quantum/erbB_xyz/ERBB2__CHEMBL361343__state03.xyz
          omp threads                :                    24

   ID    Z sym.   atoms
    1    6 C      1, 2, 4-6, 8-10, 12, 14-17, 19-26, 28-31, 33, 35-37, 39-41
    2    8 O      3, 18, 34, 42
    3    7 N      7, 11, 13, 32, 38
    4   17 Cl     27

           -------------------------------------------------
          |                 G F N 2 - x T B                 |
           -------------------------------------------------

        Reference                      10.1021/acs.jctc.8b01176
      * Hamiltonian:
        H0-scaling (s, p, d)           1.850000    2.230000    2.230000
        zeta-weighting                 0.500000
      * Dispersion:
        s8                             2.700000
        a1                             0.520000
        a2                             5.000000
        s9                             5.000000
      * Repulsion:
        kExp                           1.500000    1.000000
        rExp                           1.000000
      * Coulomb:
        alpha                          2.000000
        third order                    shell-resolved
        anisotropic                    true
        a3                             3.000000
        a5                             4.000000
        cn-shift                       1.200000
        cn-exp                         4.000000
        max-rad                        5.000000


          ...................................................
          :                      SETUP                      :
          :.................................................:
          :  # basis functions                 174          :
          :  # atomic orbitals                 173          :
          :  # shells                           85          :
          :  # electrons                       184          :
          :  max. iterations                   300          :
          :  Hamiltonian                  GFN2-xTB          :
          :  restarted?                      false          :
          :  GBSA solvation                  false          :
          :  PC potential                    false          :
          :  electronic temp.          300.0000000     K    :
          :  accuracy                    1.0000000          :
          :  -> integral cutoff          0.2500000E+02      :
          :  -> integral neglect         0.1000000E-07      :
          :  -> SCF convergence          0.1000000E-05 Eh   :
          :  -> wf. convergence          0.1000000E-03 e    :
          :  Broyden damping             0.4000000          :
          ...................................................

 iter      E             dE          RMSdq      gap      omega  full diag
   1   -102.2086269 -0.102209E+03  0.851E+00    0.07       0.0  T
   2    -85.7069944  0.165016E+02  0.112E+01    0.12       1.0  T
   3    -50.3977449  0.353092E+02  0.140E+01    0.02       1.0  T
   4    -67.9184304 -0.175207E+02  0.122E+01    0.26       1.0  T
   5    -96.3265788 -0.284081E+02  0.755E+00    0.32       1.0  T
   6    -96.1476880  0.178891E+00  0.676E+00    0.02       1.0  T
   7   -100.2258332 -0.407815E+01  0.597E+00    0.26       1.0  T
   8   -102.2310457 -0.200521E+01  0.421E+00    0.10       1.0  T
   9   -100.6074660  0.162358E+01  0.471E+00    0.16       1.0  T
  10   -101.9699094 -0.136244E+01  0.381E+00    0.21       1.0  T
  11   -101.5172140  0.452695E+00  0.370E+00    0.10       1.0  T
  12   -102.0726027 -0.555389E+00  0.346E+00    0.11       1.0  T
  13   -102.4741708 -0.401568E+00  0.327E+00    0.14       1.0  T
  14   -102.1494788  0.324692E+00  0.314E+00    0.11       1.0  T
  15   -102.5726752 -0.423196E+00  0.269E+00    0.16       1.0  T
  16   -102.6284035 -0.557283E-01  0.216E+00    0.13       1.0  T
  17   -102.4406498  0.187754E+00  0.221E+00    0.01       1.0  T
  18   -102.7466126 -0.305963E+00  0.173E+00    0.09       1.0  T
  19   -101.0245525  0.172206E+01  0.362E+00    0.01       1.0  T
  20   -101.5868875 -0.562335E+00  0.320E+00    0.03       1.0  T
  21   -100.8644455  0.722442E+00  0.369E+00    0.01       1.0  T
  22   -101.2088565 -0.344411E+00  0.354E+00    0.07       1.0  T
  23   -101.7380177 -0.529161E+00  0.286E+00    0.06       1.0  T
  24   -101.8884691 -0.150451E+00  0.268E+00    0.05       1.0  T
  25   -101.7589130  0.129556E+00  0.280E+00    0.07       1.0  T
  26   -102.1786515 -0.419738E+00  0.230E+00    0.04       1.0  T
  27   -102.8818958 -0.703244E+00  0.991E-01    0.06       1.0  T
  28   -102.8994894 -0.175936E-01  0.751E-01    0.04       1.0  T
  29   -102.9217144 -0.222250E-01  0.680E-01    0.05       1.0  T
  30   -102.8079938  0.113721E+00  0.105E+00    0.02       1.0  T
  31   -102.7846201  0.233737E-01  0.107E+00    0.01       1.0  T
  32   -102.7804407  0.417945E-02  0.113E+00    0.02       1.0  T
  33   -102.9321213 -0.151681E+00  0.484E-01    0.05       1.0  T
  34   -102.9389998 -0.687845E-02  0.404E-01    0.05       1.0  T
  35   -102.9633505 -0.243507E-01  0.140E-01    0.06       1.0  T
  36   -102.9635315 -0.180983E-03  0.131E-01    0.06       1.0  T
  37   -102.9644600 -0.928447E-03  0.972E-02    0.06       1.0  T
  38   -102.9646771 -0.217195E-03  0.776E-02    0.06       1.0  T
  39   -102.9617206  0.295656E-02  0.156E-01    0.06       1.0  T
  40   -102.9635311 -0.181047E-02  0.109E-01    0.06       1.0  T
  41   -102.9646755 -0.114440E-02  0.575E-02    0.06       1.0  T
  42   -102.9650628 -0.387361E-03  0.262E-02    0.06       1.0  T
  43   -102.9645890  0.473781E-03  0.587E-02    0.06       1.0  T
  44   -102.9649281 -0.339061E-03  0.448E-02    0.06       1.0  T
  45   -102.9650521 -0.124035E-03  0.285E-02    0.06       1.0  T
  46   -102.9650904 -0.382882E-04  0.198E-02    0.06       1.0  T
  47   -102.9650630  0.274302E-04  0.265E-02    0.06       1.0  T
  48   -102.9651019 -0.388626E-04  0.139E-02    0.06       1.1  T
  49   -102.9651164 -0.145963E-04  0.475E-03    0.06       3.2  T
  50   -102.9651156  0.802396E-06  0.490E-03    0.06       3.1  T
  51   -102.9651164 -0.734691E-06  0.340E-03    0.06       4.5  T
  52   -102.9651158  0.622333E-06  0.341E-03    0.06       4.5  T
  53   -102.9651153  0.419464E-06  0.376E-03    0.06       4.1  T
  54   -102.9651172 -0.185176E-05  0.167E-03    0.06       9.2  T
  55   -102.9651172  0.796987E-09  0.163E-03    0.06       9.5  T
  56   -102.9651174 -0.240239E-06  0.902E-04    0.06      17.1  T
  57   -102.9651175 -0.331630E-07  0.694E-04    0.06      22.2  T

   *** convergence criteria satisfied after 57 iterations ***

         #    Occupation            Energy/Eh            Energy/eV
      -------------------------------------------------------------
         1        2.0000           -1.0979102             -29.8757
       ...           ...                  ...                  ...
        86        2.0000           -0.4341256             -11.8132
        87        1.9989           -0.4306242             -11.7179
        88        1.9796           -0.4278111             -11.6413
        89        1.8464           -0.4258267             -11.5873
        90        1.7351           -0.4252499             -11.5716
        91        1.7012           -0.4251167             -11.5680
        92        1.6668           -0.4249937             -11.5647 (HOMO)
        93        0.6265           -0.4227183             -11.5028 (LUMO)
        94        0.4423           -0.4222680             -11.4905
        95        0.0030           -0.4173003             -11.3553
        96                         -0.4074017             -11.0860
        97                         -0.3997325             -10.8773
       ...                                ...                  ...
       173                          1.0456943              28.4548
      -------------------------------------------------------------
                  HL-Gap            0.0022754 Eh            0.0619 eV
             Fermi-level           -0.4234641 Eh          -11.5230 eV

 SCC (total)                   0 d,  0 h,  0 min,  1.392 sec
 SCC setup                      ...        0 min,  0.000 sec (  0.022%)
 Dispersion                     ...        0 min,  0.004 sec (  0.295%)
 classical contributions        ...        0 min,  0.004 sec (  0.303%)
 integral evaluation            ...        0 min,  0.006 sec (  0.456%)
 iterations                     ...        0 min,  1.349 sec ( 96.950%)
 molecular gradient             ...        0 min,  0.023 sec (  1.688%)
 printout                       ...        0 min,  0.004 sec (  0.281%)

         :::::::::::::::::::::::::::::::::::::::::::::::::::::
         ::                     SUMMARY                     ::
         :::::::::::::::::::::::::::::::::::::::::::::::::::::
         :: total energy            -101.846197487295 Eh    ::
         :: gradient norm              0.647813586429 Eh/a0 ::
         :: HOMO-LUMO gap              0.061916923219 eV    ::
         ::.................................................::
         :: SCC energy              -102.965117462327 Eh    ::
         :: -> isotropic ES            0.045888944421 Eh    ::
         :: -> anisotropic ES          0.005545186649 Eh    ::
         :: -> anisotropic XC          0.061008484838 Eh    ::
         :: -> dispersion             -0.059777093904 Eh    ::
         :: repulsion energy           1.118533932980 Eh    ::
         :: add. restraining           0.000000000000 Eh    ::
         :: total charge               0.000000000107 e     ::
         :::::::::::::::::::::::::::::::::::::::::::::::::::::

           -------------------------------------------------
          |                Property Printout                |
           -------------------------------------------------

    * Orbital Energies and Occupations

         #    Occupation            Energy/Eh            Energy/eV
      -------------------------------------------------------------
         1        2.0000           -1.0979102             -29.8757
       ...           ...                  ...                  ...
        80        2.0000           -0.4506865             -12.2638
        81        2.0000           -0.4487629             -12.2115
        82        2.0000           -0.4469789             -12.1629
        83        2.0000           -0.4434729             -12.0675
        84        2.0000           -0.4403974             -11.9838
        85        2.0000           -0.4366472             -11.8818
        86        2.0000           -0.4341256             -11.8132
        87        1.9989           -0.4306242             -11.7179
        88        1.9796           -0.4278111             -11.6413
        89        1.8464           -0.4258267             -11.5873
        90        1.7351           -0.4252499             -11.5716
        91        1.7012           -0.4251167             -11.5680
        92        1.6668           -0.4249937             -11.5647 (HOMO)
        93        0.6265           -0.4227183             -11.5028 (LUMO)
        94        0.4423           -0.4222680             -11.4905
        95        0.0030           -0.4173003             -11.3553
        96                         -0.4074017             -11.0860
        97                         -0.3997325             -10.8773
        98                         -0.3974536             -10.8153
        99                         -0.3907900             -10.6339
       100                         -0.3866049             -10.5201
       101                         -0.3735099             -10.1637
       102                         -0.3725345             -10.1372
       103                         -0.3710977             -10.0981
       ...                                ...                  ...
       173                          1.0456943              28.4548
      -------------------------------------------------------------
                  HL-Gap            0.0022754 Eh            0.0619 eV
             Fermi-level           -0.4234641 Eh          -11.5230 eV

     #   Z          covCN         q      C6AA      α(0)
     1   6 C        0.976    -0.094    38.864    10.468
     2   6 C        1.837     0.106    28.517     8.627
     3   8 O        1.703    -0.112    16.004     5.401
     4   6 C        2.851     0.162    24.491     8.111
     5   6 C        2.001    -0.081    33.260     9.314
     6   6 C        2.950     0.119    25.385     8.264
     7   7 N        1.844    -0.108    24.132     7.280
     8   6 C        1.969     0.067    29.379     8.753
     9   6 C        2.958     0.033    27.250     8.562
    10   6 C        1.907     0.122    28.095     8.560
    11   7 N        0.911    -0.179    24.878     7.214
    12   6 C        2.910     0.130    25.161     8.225
    13   7 N        1.827    -0.151    25.054     7.417
    14   6 C        2.891     0.146    24.823     8.169
    15   6 C        1.993    -0.026    31.725     9.096
    16   6 C        1.986    -0.069    32.935     9.268
    17   6 C        2.874     0.180    24.144     8.055
    18   8 O        1.702    -0.115    16.056     5.410
    19   6 C        1.843     0.061    29.605     8.790
    20   6 C        2.958     0.077    26.288     8.410
    21   6 C        1.989    -0.035    31.986     9.133
    22   6 C        1.985    -0.005    31.194     9.020
    23   6 C        1.987     0.042    29.979     8.842
    24   6 C        1.985    -0.002    31.109     9.007
    25   6 C        1.990    -0.017    31.488     9.062
    26   6 C        2.879     0.091    25.984     8.357
    27  17 Cl       0.958    -0.062   101.089    15.382
    28   6 C        2.030    -0.105    33.898     9.403
    29   6 C        2.978     0.024    27.474     8.598
    30   6 C        1.995    -0.065    32.796     9.248
    31   6 C        2.936     0.102    25.748     8.322
    32   7 N        1.833    -0.153    25.108     7.425
    33   6 C        2.790     0.298    21.954     7.675
    34   8 O        0.860    -0.370    21.096     6.158
    35   6 C        1.964    -0.025    31.729     9.097
    36   6 C        1.964     0.042    30.006     8.846
    37   6 C        1.912    -0.019    31.599     9.078
    38   7 N        2.720     0.144    18.801     6.440
    39   6 C        0.929    -0.064    37.545    10.265
    40   6 C        1.905    -0.007    31.285     9.033
    41   6 C        1.823     0.160    27.297     8.442
    42   8 O        0.849    -0.242    18.761     5.807

 Mol. C6AA /au·bohr⁶  :      50288.796386
 Mol. C8AA /au·bohr⁸  :    1405618.692151
 Mol. α(0) /au        :        356.035041


Wiberg/Mayer (AO) data.
largest (>0.10) Wiberg bond orders for each atom

 ---------------------------------------------------------------------------
     #   Z sym  total        # sym  WBO       # sym  WBO       # sym  WBO
 ---------------------------------------------------------------------------
     1   6 C    2.434 --     2 C    2.178     3 O    0.109
     2   6 C    3.461 --     1 C    2.178     3 O    1.122
     3   8 O    2.431 --     2 C    1.122     4 C    1.093     1 C    0.109
     4   6 C    3.896 --     5 C    1.464     3 O    1.093    31 C    1.082
     5   6 C    3.677 --     4 C    1.464     6 C    1.394    30 C    0.498
     6   6 C    3.918 --     5 C    1.394     7 N    1.237    29 C    1.067
     7   7 N    3.275 --     8 C    1.683     6 C    1.237
     8   6 C    3.527 --     7 N    1.683     9 C    1.371    13 N    0.146
     9   6 C    3.929 --     8 C    1.371    12 C    1.240    10 C    1.082
    10   6 C    3.944 --    11 N    2.815     9 C    1.082
    11   7 N    2.997 --    10 C    2.815
    12   6 C    3.944 --     9 C    1.240    13 N    1.226    29 C    1.193
    13   7 N    3.073 --    14 C    1.312    12 C    1.226     8 C    0.146
    14   6 C    3.901 --    13 N    1.312    28 C    1.237    15 C    1.190
    15   6 C    3.666 --    16 C    1.856    14 C    1.190    28 C    0.300
    16   6 C    3.481 --    15 C    1.856    17 C    1.289    28 C    0.165
    17   6 C    3.848 --    16 C    1.289    26 C    1.168    18 O    1.103
    18   8 O    2.444 --    19 C    1.128    17 C    1.103
    19   6 C    2.980 --    20 C    1.224    18 O    1.128
    20   6 C    3.896 --    25 C    1.243    21 C    1.241    19 C    1.224
    21   6 C    3.491 --    22 C    1.605    20 C    1.241    24 C    0.262
                            23 C    0.192
    22   6 C    3.622 --    21 C    1.605    23 C    1.582    25 C    0.232
    23   6 C    3.750 --    24 C    1.600    22 C    1.582    25 C    0.199
                            21 C    0.192
    24   6 C    3.632 --    25 C    1.626    23 C    1.600    21 C    0.262
Note: The following floating-point exceptions are signalling: IEEE_UNDERFLOW_FLAG IEEE_DENORMAL
normal termination of xtb
    25   6 C    3.493 --    24 C    1.626    20 C    1.243    22 C    0.232
                            23 C    0.199
    26   6 C    3.875 --    28 C    1.513    17 C    1.168    27 Cl   1.011
    27  17 Cl   1.196 --    26 C    1.011
    28   6 C    3.486 --    26 C    1.513    14 C    1.237    15 C    0.300
                            16 C    0.165
    29   6 C    3.932 --    30 C    1.427    12 C    1.193     6 C    1.067
    30   6 C    3.744 --    31 C    1.447    29 C    1.427     5 C    0.498
    31   6 C    3.933 --    30 C    1.447    32 N    1.175     4 C    1.082
    32   7 N    3.202 --    33 C    1.482    31 C    1.175    34 O    0.170
    33   6 C    3.938 --    32 N    1.482    34 O    1.401    35 C    0.968
    34   8 O    1.991 --    33 C    1.401    32 N    0.170    35 C    0.126
                            37 C    0.111
    35   6 C    3.720 --    36 C    2.263    33 C    0.968    37 C    0.146
                            34 O    0.126    39 C    0.109
    36   6 C    3.834 --    35 C    2.263    37 C    1.363
    37   6 C    3.231 --    36 C    1.363    38 N    1.094    39 C    0.381
                            35 C    0.146    34 O    0.111
    38   7 N    3.662 --    39 C    1.394    37 C    1.094    40 C    1.068
    39   6 C    2.560 --    38 N    1.394    40 C    0.422    37 C    0.381
                            35 C    0.109
    40   6 C    3.127 --    41 C    1.446    38 N    1.068    39 C    0.422
                            42 O    0.133
    41   6 C    3.496 --    42 O    1.889    40 C    1.446
    42   8 O    2.150 --    41 C    1.889    40 C    0.133
 ---------------------------------------------------------------------------

Topologies differ in total number of bonds
Writing topology from bond orders to xtbtopo.mol

molecular dipole:
                 x           y           z       tot (Debye)
 q only:        1.686      -1.288       2.072
   full:        1.901      -1.381       2.053       7.931
molecular quadrupole (traceless):
                xx          xy          yy          xz          yz          zz
 q only:       33.558       0.165     -22.864     -22.006       4.425     -10.694
  q+dip:       32.995     -11.354     -11.668     -16.880       2.492     -21.327
   full:       31.943     -13.693     -10.178     -19.065       3.976     -21.765


           -------------------------------------------------
          | TOTAL ENERGY             -101.846197487295 Eh   |
          | GRADIENT NORM               0.647813586429 Eh/α |
          | HOMO-LUMO GAP               0.061916923219 eV   |
           -------------------------------------------------

------------------------------------------------------------------------
 * finished run on 2026/07/23 at 16:42:24.728     
------------------------------------------------------------------------
 total:
 * wall-time:     0 d,  0 h,  0 min,  1.416 sec
 *  cpu-time:     0 d,  0 h,  0 min,  1.384 sec
 * ratio c/w:     0.977 speedup
 SCF:
 * wall-time:     0 d,  0 h,  0 min,  1.392 sec
 *  cpu-time:     0 d,  0 h,  0 min,  1.357 sec
 * ratio c/w:     0.975 speedup

