      -----------------------------------------------------------      
     |                   =====================                   |     
     |                           x T B                           |     
     |                   =====================                   |     
     |                         S. Grimme                         |     
     |          Mulliken Center for Theoretical Chemistry        |     
     |                    University of Bonn                     |     
      -----------------------------------------------------------      

   * xtb version 6.6.1 (unknown) compiled by 'builduser@buildhost' on 2023-08-07

   xtb is free software: you can redistribute it and/or modify it under
   the terms of the GNU Lesser General Public License as published by
   the Free Software Foundation, either version 3 of the License, or
   (at your option) any later version.
   
   xtb is distributed in the hope that it will be useful,
   but WITHOUT ANY WARRANTY; without even the implied warranty of
   MERCHANTABILITY or FITNESS FOR A PARTICULAR PURPOSE.  See the
   GNU Lesser General Public License for more details.
   
   Cite this work as:
   * C. Bannwarth, E. Caldeweyher, S. Ehlert, A. Hansen, P. Pracht,
     J. Seibert, S. Spicher, S. Grimme, WIREs Comput. Mol. Sci., 2020, 11,
     e01493. DOI: 10.1002/wcms.1493
   
   for GFN2-xTB:
   * C. Bannwarth, S. Ehlert and S. Grimme., J. Chem. Theory Comput., 2019,
     15, 1652-1671. DOI: 10.1021/acs.jctc.8b01176
   for GFN1-xTB:
   * S. Grimme, C. Bannwarth, P. Shushkov, J. Chem. Theory Comput., 2017,
     13, 1989-2009. DOI: 10.1021/acs.jctc.7b00118
   for GFN0-xTB:
   * P. Pracht, E. Caldeweyher, S. Ehlert, S. Grimme, ChemRxiv, 2019, preprint.
     DOI: 10.26434/chemrxiv.8326202.v1
   for GFN-FF:
   * S. Spicher and S. Grimme, Angew. Chem. Int. Ed., 2020, 59, 15665-15673.
     DOI: 10.1002/anie.202004239
   
   for ALPB and GBSA implicit solvation:
   * S. Ehlert, M. Stahn, S. Spicher, S. Grimme, J. Chem. Theory Comput.,
     2021, 17, 4250-4261. DOI: 10.1021/acs.jctc.1c00471
   
   for DFT-D4:
   * E. Caldeweyher, C. Bannwarth and S. Grimme, J. Chem. Phys., 2017,
     147, 034112. DOI: 10.1063/1.4993215
   * E. Caldeweyher, S. Ehlert, A. Hansen, H. Neugebauer, S. Spicher,
     C. Bannwarth and S. Grimme, J. Chem. Phys., 2019, 150, 154122.
     DOI: 10.1063/1.5090222
   * E. Caldeweyher, J.-M. Mewes, S. Ehlert and S. Grimme, Phys. Chem. Chem. Phys.
     2020, 22, 8499-8512. DOI: 10.1039/D0CP00502A
   
   for sTDA-xTB:
   * S. Grimme and C. Bannwarth, J. Chem. Phys., 2016, 145, 054103.
     DOI: 10.1063/1.4959605
   
   in the mass-spec context:
   * V. Asgeirsson, C. Bauer and S. Grimme, Chem. Sci., 2017, 8, 4879.
     DOI: 10.1039/c7sc00601b
   * J. Koopman and S. Grimme, ACS Omega 2019, 4, 12, 15120-15133.
     DOI: 10.1021/acsomega.9b02011
   
   for metadynamics refer to:
   * S. Grimme, J. Chem. Theory Comput., 2019, 155, 2847-2862
     DOI: 10.1021/acs.jctc.9b00143
   
   for SPH calculations refer to:
   * S. Spicher and S. Grimme, J. Chem. Theory Comput., 2021, 17, 1701-1714
     DOI: 10.1021/acs.jctc.0c01306
   
   with help from (in alphabetical order)
   P. Atkinson, C. Bannwarth, F. Bohle, G. Brandenburg, E. Caldeweyher
   M. Checinski, S. Dohm, S. Ehlert, S. Ehrlich, I. Gerasimov, C. Hölzer
   A. Katbashev, J. Koopman, C. Lavigne, S. Lehtola, F. März, M. Müller,
   F. Musil, H. Neugebauer, J. Pisarek, C. Plett, P. Pracht, F. Pultar,
   J. Seibert, P. Shushkov, S. Spicher, M. Stahn, M. Steiner, T. Strunk,
   J. Stückrath, T. Rose, and J. Unsleber
   
 * started run on 2026/07/23 at 16:42:38.426     

           -------------------------------------------------
          |                Calculation Setup                |
           -------------------------------------------------

          program call               : xtb /home/selva/covalent_quantum_benchmark/data/quantum/erbB_xyz/ERBB2__CHEMBL369088__state03.xyz --gfn2 --chrg 0 --uhf 0 --iterations 300
          coordinate file            : /home/selva/covalent_quantum_benchmark/data/quantum/erbB_xyz/ERBB2__CHEMBL369088__state03.xyz
          omp threads                :                    24

   ID    Z sym.   atoms
    1    6 C      1, 2, 4-6, 8-10, 12, 14-17, 19-26, 28-31, 33, 35-37, 39-41,
                  43-45
    2    8 O      3, 18, 34, 42, 46
    3    7 N      7, 11, 13, 32, 38
    4   17 Cl     27

           -------------------------------------------------
          |                 G F N 2 - x T B                 |
           -------------------------------------------------

        Reference                      10.1021/acs.jctc.8b01176
      * Hamiltonian:
        H0-scaling (s, p, d)           1.850000    2.230000    2.230000
        zeta-weighting                 0.500000
      * Dispersion:
        s8                             2.700000
        a1                             0.520000
        a2                             5.000000
        s9                             5.000000
      * Repulsion:
        kExp                           1.500000    1.000000
        rExp                           1.000000
      * Coulomb:
        alpha                          2.000000
        third order                    shell-resolved
        anisotropic                    true
        a3                             3.000000
        a5                             4.000000
        cn-shift                       1.200000
        cn-exp                         4.000000
        max-rad                        5.000000


          ...................................................
          :                      SETUP                      :
          :.................................................:
          :  # basis functions                 190          :
          :  # atomic orbitals                 189          :
          :  # shells                           93          :
          :  # electrons                       202          :
          :  max. iterations                   300          :
          :  Hamiltonian                  GFN2-xTB          :
          :  restarted?                      false          :
          :  GBSA solvation                  false          :
          :  PC potential                    false          :
          :  electronic temp.          300.0000000     K    :
          :  accuracy                    1.0000000          :
          :  -> integral cutoff          0.2500000E+02      :
          :  -> integral neglect         0.1000000E-07      :
          :  -> SCF convergence          0.1000000E-05 Eh   :
          :  -> wf. convergence          0.1000000E-03 e    :
          :  Broyden damping             0.4000000          :
          ...................................................

 iter      E             dE          RMSdq      gap      omega  full diag
   1   -111.9047306 -0.111905E+03  0.943E+00    0.18       0.0  T
   2    -83.6796609  0.282251E+02  0.138E+01    0.14       1.0  T
   3    -59.6506784  0.240290E+02  0.140E+01    0.11       1.0  T
   4    -77.8719305 -0.182213E+02  0.119E+01    0.02       1.0  T
   5   -105.4656056 -0.275937E+02  0.832E+00    0.04       1.0  T
   6   -106.8265445 -0.136094E+01  0.662E+00    0.11       1.0  T
   7   -110.4860584 -0.365951E+01  0.591E+00    0.16       1.0  T
   8   -111.7021418 -0.121608E+01  0.459E+00    0.12       1.0  T
   9   -111.4621646  0.239977E+00  0.432E+00    0.03       1.0  T
  10   -112.1068780 -0.644713E+00  0.360E+00    0.09       1.0  T
  11   -112.1773718 -0.704938E-01  0.345E+00    0.03       1.0  T
  12   -112.4795823 -0.302211E+00  0.304E+00    0.02       1.0  T
  13   -112.1746647  0.304918E+00  0.324E+00    0.08       1.0  T
  14   -112.4210616 -0.246397E+00  0.270E+00    0.02       1.0  T
  15   -112.6800698 -0.259008E+00  0.235E+00    0.01       1.0  T
  16   -111.8150543  0.865016E+00  0.320E+00    0.11       1.0  T
  17   -112.9800516 -0.116500E+01  0.161E+00    0.05       1.0  T
  18   -112.9259095  0.541421E-01  0.171E+00    0.03       1.0  T
  19   -112.7853129  0.140597E+00  0.197E+00    0.04       1.0  T
  20   -112.9000571 -0.114744E+00  0.172E+00    0.05       1.0  T
  21   -112.9909005 -0.908434E-01  0.159E+00    0.01       1.0  T
  22   -112.3746803  0.616220E+00  0.243E+00    0.03       1.0  T
  23   -112.9399108 -0.565230E+00  0.158E+00    0.01       1.0  T
  24   -112.1491794  0.790731E+00  0.259E+00    0.04       1.0  T
  25   -112.5403462 -0.391167E+00  0.205E+00    0.01       1.0  T
  26   -112.7195960 -0.179250E+00  0.187E+00    0.00       1.0  T
  27   -112.7800014 -0.604053E-01  0.169E+00    0.01       1.0  T
  28   -112.6826120  0.973894E-01  0.187E+00    0.01       1.0  T
  29   -112.9139348 -0.231323E+00  0.145E+00    0.01       1.0  T
  30   -112.9114723  0.246248E-02  0.137E+00    0.02       1.0  T
  31   -112.9154289 -0.395654E-02  0.132E+00    0.03       1.0  T
  32   -112.9225879 -0.715897E-02  0.126E+00    0.02       1.0  T
  33   -112.9542697 -0.316819E-01  0.117E+00    0.03       1.0  T
  34   -113.0119093 -0.576396E-01  0.989E-01    0.02       1.0  T
  35   -113.0153919 -0.348262E-02  0.970E-01    0.02       1.0  T
  36   -113.0632059 -0.478140E-01  0.695E-01    0.03       1.0  T
  37   -113.1090269 -0.458210E-01  0.351E-01    0.03       1.0  T
  38   -113.1033898  0.563714E-02  0.392E-01    0.03       1.0  T
  39   -113.1158293 -0.124395E-01  0.229E-01    0.03       1.0  T
  40   -113.1215492 -0.571993E-02  0.113E-01    0.03       1.0  T
  41   -113.1216910 -0.141819E-03  0.105E-01    0.02       1.0  T
  42   -113.1219071 -0.216047E-03  0.728E-02    0.03       1.0  T
  43   -113.1204467  0.146039E-02  0.140E-01    0.03       1.0  T
  44   -113.1219113 -0.146461E-02  0.840E-02    0.02       1.0  T
  45   -113.1223301 -0.418777E-03  0.530E-02    0.02       1.0  T
  46   -113.1224447 -0.114601E-03  0.326E-02    0.02       1.0  T
  47   -113.1221545  0.290219E-03  0.592E-02    0.02       1.0  T
  48   -113.1223504 -0.195918E-03  0.403E-02    0.02       1.0  T
  49   -113.1225745 -0.224098E-03  0.160E-02    0.03       1.0  T
  50   -113.1225943 -0.198027E-04  0.499E-03    0.02       3.0  T
  51   -113.1225945 -0.214998E-06  0.446E-03    0.02       3.3  T
  52   -113.1225915  0.297890E-05  0.550E-03    0.02       2.7  T
  53   -113.1225914  0.110021E-06  0.662E-03    0.02       2.2  T
  54   -113.1225906  0.858154E-06  0.716E-03    0.02       2.1  T
  55   -113.1225950 -0.445492E-05  0.293E-03    0.02       5.0  T
  56   -113.1225951 -0.422037E-07  0.282E-03    0.02       5.2  T
  57   -113.1225953 -0.222426E-06  0.217E-03    0.02       6.8  T
  58   -113.1225954 -0.133593E-06  0.147E-03    0.02      10.0  T
  59   -113.1225950  0.416915E-06  0.223E-03    0.02       6.6  T
  60   -113.1225953 -0.325650E-06  0.154E-03    0.02       9.5  T
  61   -113.1225955 -0.187782E-06  0.110E-03    0.02      13.4  T
  62   -113.1225957 -0.152153E-06  0.436E-04    0.02      33.8  T
  63   -113.1225957 -0.120750E-07  0.291E-04    0.02      50.7  T

   *** convergence criteria satisfied after 63 iterations ***

         #    Occupation            Energy/Eh            Energy/eV
      -------------------------------------------------------------
         1        2.0000           -1.1077336             -30.1430
       ...           ...                  ...                  ...
        95        1.9910           -0.4417655             -12.0210
        96        1.9818           -0.4410871             -12.0026
        97        1.9697           -0.4405978             -11.9893
        98        1.9080           -0.4395121             -11.9597
        99        1.7959           -0.4386979             -11.9376
       100        1.5906           -0.4379213             -11.9164
       101        1.4236           -0.4374909             -11.9047 (HOMO)
       102        0.9763           -0.4365870             -11.8801 (LUMO)
       103        0.3589           -0.4351879             -11.8421
       104        0.0050           -0.4309361             -11.7264
       105                         -0.4203881             -11.4393
       106                         -0.4194949             -11.4150
       ...                                ...                  ...
       189                          1.0377873              28.2396
      -------------------------------------------------------------
                  HL-Gap            0.0009040 Eh            0.0246 eV
             Fermi-level           -0.4366320 Eh          -11.8814 eV

 SCC (total)                   0 d,  0 h,  0 min,  1.878 sec
 SCC setup                      ...        0 min,  0.001 sec (  0.073%)
 Dispersion                     ...        0 min,  0.003 sec (  0.161%)
 classical contributions        ...        0 min,  0.001 sec (  0.048%)
 integral evaluation            ...        0 min,  0.021 sec (  1.144%)
 iterations                     ...        0 min,  1.807 sec ( 96.235%)
 molecular gradient             ...        0 min,  0.038 sec (  2.028%)
 printout                       ...        0 min,  0.006 sec (  0.309%)

         :::::::::::::::::::::::::::::::::::::::::::::::::::::
         ::                     SUMMARY                     ::
         :::::::::::::::::::::::::::::::::::::::::::::::::::::
         :: total energy            -111.954842857042 Eh    ::
         :: gradient norm              0.631714582105 Eh/a0 ::
         :: HOMO-LUMO gap              0.024598500546 eV    ::
         ::.................................................::
         :: SCC energy              -113.122595666969 Eh    ::
         :: -> isotropic ES            0.064422008540 Eh    ::
         :: -> anisotropic ES          0.001398692783 Eh    ::
         :: -> anisotropic XC          0.069082553061 Eh    ::
         :: -> dispersion             -0.069386874924 Eh    ::
         :: repulsion energy           1.166612408098 Eh    ::
         :: add. restraining           0.000000000000 Eh    ::
         :: total charge               0.000000000336 e     ::
         :::::::::::::::::::::::::::::::::::::::::::::::::::::

           -------------------------------------------------
          |                Property Printout                |
           -------------------------------------------------

    * Orbital Energies and Occupations

         #    Occupation            Energy/Eh            Energy/eV
      -------------------------------------------------------------
         1        2.0000           -1.1077336             -30.1430
       ...           ...                  ...                  ...
        89        2.0000           -0.4540555             -12.3555
        90        2.0000           -0.4508365             -12.2679
        91        2.0000           -0.4503300             -12.2541
        92        2.0000           -0.4479224             -12.1886
        93        2.0000           -0.4474708             -12.1763
        94        1.9994           -0.4444104             -12.0930
        95        1.9910           -0.4417655             -12.0210
        96        1.9818           -0.4410871             -12.0026
        97        1.9697           -0.4405978             -11.9893
        98        1.9080           -0.4395121             -11.9597
        99        1.7959           -0.4386979             -11.9376
       100        1.5906           -0.4379213             -11.9164
       101        1.4236           -0.4374909             -11.9047 (HOMO)
       102        0.9763           -0.4365870             -11.8801 (LUMO)
       103        0.3589           -0.4351879             -11.8421
       104        0.0050           -0.4309361             -11.7264
       105                         -0.4203881             -11.4393
       106                         -0.4194949             -11.4150
       107                         -0.4178096             -11.3692
       108                         -0.4131905             -11.2435
       109                         -0.4042530             -11.0003
       110                         -0.4008994             -10.9090
       111                         -0.3884344             -10.5698
       112                         -0.3881155             -10.5612
       ...                                ...                  ...
       189                          1.0377873              28.2396
      -------------------------------------------------------------
                  HL-Gap            0.0009040 Eh            0.0246 eV
             Fermi-level           -0.4366320 Eh          -11.8814 eV

     #   Z          covCN         q      C6AA      α(0)
     1   6 C        0.976    -0.078    38.313    10.394
     2   6 C        1.838     0.112    28.387     8.607
     3   8 O        1.703    -0.093    15.736     5.356
     4   6 C        2.853     0.163    24.485     8.110
     5   6 C        2.001    -0.076    33.111     9.293
     6   6 C        2.950     0.122    25.328     8.254
     7   7 N        1.844    -0.105    24.065     7.270
     8   6 C        1.968     0.069    29.331     8.746
     9   6 C        2.958     0.038    27.151     8.547
    10   6 C        1.907     0.123    28.075     8.557
    11   7 N        0.911    -0.168    24.647     7.180
    12   6 C        2.912     0.132    25.117     8.218
    13   7 N        1.827    -0.145    24.929     7.399
    14   6 C        2.892     0.137    25.019     8.201
    15   6 C        1.992    -0.015    31.456     9.057
    16   6 C        1.985    -0.017    31.508     9.065
    17   6 C        2.913     0.164    24.455     8.109
    18   8 O        1.702    -0.126    16.214     5.437
    19   6 C        1.874     0.025    30.479     8.917
    20   6 C        2.960     0.082    26.176     8.392
    21   6 C        1.989     0.006    30.899     8.977
    22   6 C        1.986     0.024    30.438     8.910
    23   6 C        1.987     0.040    30.034     8.850
    24   6 C        1.985     0.020    30.541     8.925
    25   6 C        1.990    -0.006    31.196     9.020
    26   6 C        2.876     0.089    26.020     8.362
    27  17 Cl       0.959    -0.078   101.593    15.420
    28   6 C        2.029    -0.105    33.907     9.404
    29   6 C        2.979     0.028    27.368     8.581
    30   6 C        1.993    -0.059    32.651     9.228
    31   6 C        2.927     0.104    25.699     8.314
    32   7 N        1.832    -0.151    25.061     7.418
    33   6 C        2.783     0.297    21.955     7.675
    34   8 O        0.860    -0.352    20.746     6.107
    35   6 C        1.964    -0.009    31.305     9.036
    36   6 C        1.964     0.046    29.900     8.830
    37   6 C        1.904    -0.002    31.168     9.016
    38   7 N        2.720     0.116    19.260     6.518
    39   6 C        1.890     0.012    30.819     8.966
    40   6 C        2.795     0.219    23.389     7.922
    41   6 C        0.977    -0.064    37.870    10.334
    42   8 O        0.848    -0.316    20.072     6.007
    43   6 C        1.896    -0.023    31.725     9.097
    44   6 C        2.796     0.223    23.307     7.909
    45   6 C        0.978    -0.051    37.473    10.280
    46   8 O        0.849    -0.348    20.681     6.097

 Mol. C6AA /au·bohr⁶  :      59812.096949
 Mol. C8AA /au·bohr⁸  :    1666137.613307
 Mol. α(0) /au        :        388.313164


Wiberg/Mayer (AO) data.
largest (>0.10) Wiberg bond orders for each atom

 ---------------------------------------------------------------------------
     #   Z sym  total        # sym  WBO       # sym  WBO       # sym  WBO
 ---------------------------------------------------------------------------
     1   6 C    2.435 --     2 C    2.161     3 O    0.118
     2   6 C    3.473 --     1 C    2.161     3 O    1.137
     3   8 O    2.456 --     2 C    1.137     4 C    1.096     1 C    0.118
     4   6 C    3.895 --     5 C    1.454     3 O    1.096    31 C    1.083
     5   6 C    3.679 --     4 C    1.454     6 C    1.395    30 C    0.462
     6   6 C    3.926 --     5 C    1.395     7 N    1.241    29 C    1.066
     7   7 N    3.288 --     8 C    1.667     6 C    1.241
     8   6 C    3.623 --     7 N    1.667     9 C    1.382    13 N    0.240
     9   6 C    3.937 --     8 C    1.382    12 C    1.232    10 C    1.081
    10   6 C    3.946 --    11 N    2.817     9 C    1.081
    11   7 N    3.001 --    10 C    2.817
    12   6 C    3.954 --    13 N    1.241     9 C    1.232    29 C    1.187
    13   7 N    3.137 --    14 C    1.242    12 C    1.241     8 C    0.240
    14   6 C    3.911 --    28 C    1.252    13 N    1.242    15 C    1.239
    15   6 C    3.586 --    16 C    1.743    14 C    1.239    28 C    0.338
    16   6 C    3.391 --    15 C    1.743    17 C    1.357    28 C    0.140
    17   6 C    3.813 --    16 C    1.357    26 C    1.246    18 O    1.025
    18   8 O    2.488 --    19 C    1.310    17 C    1.025
    19   6 C    2.724 --    18 O    1.310    20 C    1.057
    20   6 C    3.913 --    21 C    1.326    25 C    1.322    19 C    1.057
                            23 C    0.117
    21   6 C    3.533 --    22 C    1.708    20 C    1.326    24 C    0.192
                            23 C    0.187
    22   6 C    3.615 --    21 C    1.708    23 C    1.602    25 C    0.201
    23   6 C    3.777 --    22 C    1.602    24 C    1.591    21 C    0.187
                            25 C    0.186    20 C    0.117
    24   6 C    3.611 --    25 C    1.694    23 C    1.591    21 C    0.192
    25   6 C    3.525 --    24 C    1.694    20 C    1.322    22 C    0.201
                            23 C    0.186
    26   6 C    3.890 --    28 C    1.457    17 C    1.246    27 Cl   1.001
    27  17 Cl   1.180 --    26 C    1.001
    28   6 C    3.396 --    26 C    1.457    14 C    1.252    15 C    0.338
                            16 C    0.140
    29   6 C    3.934 --    30 C    1.428    12 C    1.187     6 C    1.066
    30   6 C    3.674 --    31 C    1.433    29 C    1.428     5 C    0.462
    31   6 C    3.936 --    30 C    1.433    32 N    1.192     4 C    1.083
    32   7 N    3.213 --    33 C    1.492    31 C    1.192    34 O    0.173
    33   6 C    3.939 --    32 N    1.492    34 O    1.396    35 C    0.967
    34   8 O    2.008 --    33 C    1.396    32 N    0.173    35 C    0.140
                            37 C    0.107
    35   6 C    3.628 --    36 C    2.206    33 C    0.967    34 O    0.140
                            37 C    0.138
    36   6 C    3.830 --    35 C    2.206    37 C    1.417
    37   6 C    3.315 --    36 C    1.417    38 N    1.151    39 C    0.157
                            35 C    0.138    34 O    0.107
    38   7 N    3.662 --    43 C    1.221    37 C    1.151    39 C    1.094
    39   6 C    3.364 --    40 C    1.173    38 N    1.094    41 C    0.406
                            37 C    0.157    43 C    0.147    42 O    0.108
    40   6 C    3.877 --    41 C    1.329    42 O    1.289    39 C    1.173
    41   6 C    2.521 --    40 C    1.329    42 O    0.536    39 C    0.406
    42   8 O    2.039 --    40 C    1.289    41 C    0.536    39 C    0.108
    43   6 C    3.122 --    38 N    1.221    44 C    1.179    46 O    0.193
                            45 C    0.193    39 C    0.147
    44   6 C    3.878 --    45 C    1.349    46 O    1.293    43 C    1.179
    45   6 C    2.257 --    44 C    1.349    46 O    0.431    43 C    0.193
    46   8 O    2.036 --    44 C    1.293    45 C    0.431    43 C    0.193
 ---------------------------------------------------------------------------

Topologies differ in total number of bonds
Writing topology from bond orders to xtbtopo.mol

molecular dipole:
                 x           y           z       tot (Debye)
 q only:       -1.153      -1.611       4.508
   full:       -1.377      -2.078       3.224      10.359
molecular quadrupole (traceless):
                xx          xy          yy          xz          yz          zz
 q only:        2.951      -5.346      31.750       2.282       5.221     -34.701
  q+dip:        6.128       2.220      35.072      -4.921       8.961     -41.200
   full:        7.659       5.822      31.505      -5.175       6.746     -39.164


           -------------------------------------------------
          | TOTAL ENERGY             -111.954842857042 Eh   |
          | GRADIENT NORM               0.631714582105 Eh/α |
          | HOMO-LUMO GAP               0.024598500546 eV   |
           -------------------------------------------------

------------------------------------------------------------------------
 * finished run on 2026/07/23 at 16:42:40.327     
------------------------------------------------------------------------
 total:
 * wall-time:     0 d,  0 h,  0 min,  1.901 sec
Note: The following floating-point exceptions are signalling: IEEE_UNDERFLOW_FLAG IEEE_DENORMAL
normal termination of xtb
 *  cpu-time:     0 d,  0 h,  0 min,  1.948 sec
 * ratio c/w:     1.025 speedup
 SCF:
 * wall-time:     0 d,  0 h,  0 min,  1.878 sec
 *  cpu-time:     0 d,  0 h,  0 min,  1.914 sec
 * ratio c/w:     1.019 speedup

