      -----------------------------------------------------------      
     |                   =====================                   |     
     |                           x T B                           |     
     |                   =====================                   |     
     |                         S. Grimme                         |     
     |          Mulliken Center for Theoretical Chemistry        |     
     |                    University of Bonn                     |     
      -----------------------------------------------------------      

   * xtb version 6.6.1 (unknown) compiled by 'builduser@buildhost' on 2023-08-07

   xtb is free software: you can redistribute it and/or modify it under
   the terms of the GNU Lesser General Public License as published by
   the Free Software Foundation, either version 3 of the License, or
   (at your option) any later version.
   
   xtb is distributed in the hope that it will be useful,
   but WITHOUT ANY WARRANTY; without even the implied warranty of
   MERCHANTABILITY or FITNESS FOR A PARTICULAR PURPOSE.  See the
   GNU Lesser General Public License for more details.
   
   Cite this work as:
   * C. Bannwarth, E. Caldeweyher, S. Ehlert, A. Hansen, P. Pracht,
     J. Seibert, S. Spicher, S. Grimme, WIREs Comput. Mol. Sci., 2020, 11,
     e01493. DOI: 10.1002/wcms.1493
   
   for GFN2-xTB:
   * C. Bannwarth, S. Ehlert and S. Grimme., J. Chem. Theory Comput., 2019,
     15, 1652-1671. DOI: 10.1021/acs.jctc.8b01176
   for GFN1-xTB:
   * S. Grimme, C. Bannwarth, P. Shushkov, J. Chem. Theory Comput., 2017,
     13, 1989-2009. DOI: 10.1021/acs.jctc.7b00118
   for GFN0-xTB:
   * P. Pracht, E. Caldeweyher, S. Ehlert, S. Grimme, ChemRxiv, 2019, preprint.
     DOI: 10.26434/chemrxiv.8326202.v1
   for GFN-FF:
   * S. Spicher and S. Grimme, Angew. Chem. Int. Ed., 2020, 59, 15665-15673.
     DOI: 10.1002/anie.202004239
   
   for ALPB and GBSA implicit solvation:
   * S. Ehlert, M. Stahn, S. Spicher, S. Grimme, J. Chem. Theory Comput.,
     2021, 17, 4250-4261. DOI: 10.1021/acs.jctc.1c00471
   
   for DFT-D4:
   * E. Caldeweyher, C. Bannwarth and S. Grimme, J. Chem. Phys., 2017,
     147, 034112. DOI: 10.1063/1.4993215
   * E. Caldeweyher, S. Ehlert, A. Hansen, H. Neugebauer, S. Spicher,
     C. Bannwarth and S. Grimme, J. Chem. Phys., 2019, 150, 154122.
     DOI: 10.1063/1.5090222
   * E. Caldeweyher, J.-M. Mewes, S. Ehlert and S. Grimme, Phys. Chem. Chem. Phys.
     2020, 22, 8499-8512. DOI: 10.1039/D0CP00502A
   
   for sTDA-xTB:
   * S. Grimme and C. Bannwarth, J. Chem. Phys., 2016, 145, 054103.
     DOI: 10.1063/1.4959605
   
   in the mass-spec context:
   * V. Asgeirsson, C. Bauer and S. Grimme, Chem. Sci., 2017, 8, 4879.
     DOI: 10.1039/c7sc00601b
   * J. Koopman and S. Grimme, ACS Omega 2019, 4, 12, 15120-15133.
     DOI: 10.1021/acsomega.9b02011
   
   for metadynamics refer to:
   * S. Grimme, J. Chem. Theory Comput., 2019, 155, 2847-2862
     DOI: 10.1021/acs.jctc.9b00143
   
   for SPH calculations refer to:
   * S. Spicher and S. Grimme, J. Chem. Theory Comput., 2021, 17, 1701-1714
     DOI: 10.1021/acs.jctc.0c01306
   
   with help from (in alphabetical order)
   P. Atkinson, C. Bannwarth, F. Bohle, G. Brandenburg, E. Caldeweyher
   M. Checinski, S. Dohm, S. Ehlert, S. Ehrlich, I. Gerasimov, C. Hölzer
   A. Katbashev, J. Koopman, C. Lavigne, S. Lehtola, F. März, M. Müller,
   F. Musil, H. Neugebauer, J. Pisarek, C. Plett, P. Pracht, F. Pultar,
   J. Seibert, P. Shushkov, S. Spicher, M. Stahn, M. Steiner, T. Strunk,
   J. Stückrath, T. Rose, and J. Unsleber
   
 * started run on 2026/07/23 at 16:41:48.361     

           -------------------------------------------------
          |                Calculation Setup                |
           -------------------------------------------------

          program call               : xtb /home/selva/covalent_quantum_benchmark/data/quantum/erbB_xyz/ERBB2__CHEMBL315701__state01.xyz --gfn2 --chrg 0 --uhf 0 --iterations 300
          coordinate file            : /home/selva/covalent_quantum_benchmark/data/quantum/erbB_xyz/ERBB2__CHEMBL315701__state01.xyz
          omp threads                :                    24

   ID    Z sym.   atoms
    1    8 O      1
    2    6 C      2, 4-15, 17-23
    3    7 N      3, 16

           -------------------------------------------------
          |                 G F N 2 - x T B                 |
           -------------------------------------------------

        Reference                      10.1021/acs.jctc.8b01176
      * Hamiltonian:
        H0-scaling (s, p, d)           1.850000    2.230000    2.230000
        zeta-weighting                 0.500000
      * Dispersion:
        s8                             2.700000
        a1                             0.520000
        a2                             5.000000
        s9                             5.000000
      * Repulsion:
        kExp                           1.500000    1.000000
        rExp                           1.000000
      * Coulomb:
        alpha                          2.000000
        third order                    shell-resolved
        anisotropic                    true
        a3                             3.000000
        a5                             4.000000
        cn-shift                       1.200000
        cn-exp                         4.000000
        max-rad                        5.000000


          ...................................................
          :                      SETUP                      :
          :.................................................:
          :  # basis functions                  92          :
          :  # atomic orbitals                  92          :
          :  # shells                           46          :
          :  # electrons                        96          :
          :  max. iterations                   300          :
          :  Hamiltonian                  GFN2-xTB          :
          :  restarted?                      false          :
          :  GBSA solvation                  false          :
          :  PC potential                    false          :
          :  electronic temp.          300.0000000     K    :
          :  accuracy                    1.0000000          :
          :  -> integral cutoff          0.2500000E+02      :
          :  -> integral neglect         0.1000000E-07      :
          :  -> SCF convergence          0.1000000E-05 Eh   :
          :  -> wf. convergence          0.1000000E-03 e    :
          :  Broyden damping             0.4000000          :
          ...................................................

 iter      E             dE          RMSdq      gap      omega  full diag
   1    -51.4519296 -0.514519E+02  0.854E+00    0.41       0.0  T
   2    -34.4646545  0.169873E+02  0.143E+01    0.13       1.0  T
   3    -32.4078664  0.205679E+01  0.126E+01    0.53       1.0  T
   4    -32.0517161  0.356150E+00  0.127E+01    0.26       1.0  T
   5    -49.8465976 -0.177949E+02  0.672E+00    0.03       1.0  T
   6    -50.8020232 -0.955426E+00  0.550E+00    0.44       1.0  T
   7    -49.7202284  0.108179E+01  0.552E+00    0.13       1.0  T
   8    -51.2379975 -0.151777E+01  0.420E+00    0.49       1.0  T
   9    -51.4750729 -0.237075E+00  0.344E+00    0.31       1.0  T
  10    -51.6719429 -0.196870E+00  0.282E+00    0.16       1.0  T
  11    -51.9767740 -0.304831E+00  0.214E+00    0.04       1.0  T
  12    -51.9598721  0.169018E-01  0.188E+00    0.07       1.0  T
  13    -51.9964205 -0.365483E-01  0.195E+00    0.04       1.0  T
  14    -51.9985773 -0.215681E-02  0.193E+00    0.04       1.0  T
  15    -52.0083135 -0.973622E-02  0.182E+00    0.03       1.0  T
  16    -51.9931168  0.151967E-01  0.168E+00    0.01       1.0  T
  17    -52.0417312 -0.486144E-01  0.972E-01    0.01       1.0  T
  18    -52.0532607 -0.115295E-01  0.857E-01    0.01       1.0  T
  19    -51.7884228  0.264838E+00  0.191E+00    0.02       1.0  T
  20    -52.0356137 -0.247191E+00  0.106E+00    0.06       1.0  T
  21    -51.9978054  0.378083E-01  0.110E+00    0.03       1.0  T
  22    -51.9791327  0.186726E-01  0.115E+00    0.03       1.0  T
  23    -52.0618794 -0.827467E-01  0.559E-01    0.04       1.0  T
  24    -52.0748361 -0.129567E-01  0.261E-01    0.04       1.0  T
  25    -52.0753447 -0.508607E-03  0.234E-01    0.04       1.0  T
  26    -52.0688194  0.652522E-02  0.388E-01    0.04       1.0  T
  27    -52.0708658 -0.204631E-02  0.334E-01    0.04       1.0  T
  28    -52.0748806 -0.401484E-02  0.204E-01    0.03       1.0  T
  29    -52.0760196 -0.113900E-02  0.149E-01    0.03       1.0  T
  30    -52.0769415 -0.921944E-03  0.595E-02    0.03       1.0  T
  31    -52.0767612  0.180375E-03  0.736E-02    0.03       1.0  T
  32    -52.0757318  0.102940E-02  0.139E-01    0.03       1.0  T
  33    -52.0749012  0.830532E-03  0.172E-01    0.03       1.0  T
  34    -52.0760042 -0.110298E-02  0.112E-01    0.03       1.0  T
  35    -52.0766235 -0.619290E-03  0.754E-02    0.03       1.0  T
  36    -52.0767112 -0.877401E-04  0.712E-02    0.03       1.0  T
  37    -52.0768656 -0.154317E-03  0.549E-02    0.03       1.0  T
  38    -52.0770196 -0.154016E-03  0.315E-02    0.03       1.0  T
  39    -52.0770809 -0.613429E-04  0.137E-02    0.03       1.5  T
  40    -52.0770924 -0.115253E-04  0.582E-03    0.03       3.6  T
  41    -52.0770949 -0.246170E-05  0.254E-03    0.03       8.2  T
  42    -52.0770953 -0.372064E-06  0.989E-04    0.03      21.1  T
  43    -52.0770953  0.302110E-08  0.848E-04    0.03      24.6  T

   *** convergence criteria satisfied after 43 iterations ***

         #    Occupation            Energy/Eh            Energy/eV
      -------------------------------------------------------------
         1        2.0000           -0.7206008             -19.6085
       ...           ...                  ...                  ...
        42        2.0000           -0.4358941             -11.8613
        43        2.0000           -0.4248785             -11.5615
        44        2.0000           -0.4233227             -11.5192
        45        1.9949           -0.4143798             -11.2758
        46        1.9188           -0.4117231             -11.2036
        47        1.8856           -0.4113806             -11.1942
        48        1.3100           -0.4093269             -11.1384 (HOMO)
        49        0.7266           -0.4081850             -11.1073 (LUMO)
        50        0.1638           -0.4064219             -11.0593
        51        0.0003           -0.4002039             -10.8901
        52                         -0.3856056             -10.4929
        53                         -0.3702479             -10.0750
       ...                                ...                  ...
        92                          0.6659104              18.1203
      -------------------------------------------------------------
                  HL-Gap            0.0011419 Eh            0.0311 eV
             Fermi-level           -0.4087179 Eh          -11.1218 eV

 SCC (total)                   0 d,  0 h,  0 min,  0.308 sec
 SCC setup                      ...        0 min,  0.000 sec (  0.118%)
 Dispersion                     ...        0 min,  0.001 sec (  0.274%)
 classical contributions        ...        0 min,  0.001 sec (  0.258%)
 integral evaluation            ...        0 min,  0.006 sec (  1.847%)
 iterations                     ...        0 min,  0.281 sec ( 91.280%)
 molecular gradient             ...        0 min,  0.018 sec (  5.977%)
 printout                       ...        0 min,  0.001 sec (  0.235%)

         :::::::::::::::::::::::::::::::::::::::::::::::::::::
         ::                     SUMMARY                     ::
         :::::::::::::::::::::::::::::::::::::::::::::::::::::
         :: total energy             -51.432151655365 Eh    ::
         :: gradient norm              0.476346495491 Eh/a0 ::
         :: HOMO-LUMO gap              0.031073902086 eV    ::
         ::.................................................::
         :: SCC energy               -52.077095277609 Eh    ::
         :: -> isotropic ES            0.031210086120 Eh    ::
         :: -> anisotropic ES          0.001427807260 Eh    ::
         :: -> anisotropic XC          0.027645297146 Eh    ::
         :: -> dispersion             -0.031753602742 Eh    ::
         :: repulsion energy           0.645203924826 Eh    ::
         :: add. restraining           0.000000000000 Eh    ::
         :: total charge               0.000000000038 e     ::
         :::::::::::::::::::::::::::::::::::::::::::::::::::::

           -------------------------------------------------
          |                Property Printout                |
           -------------------------------------------------

    * Orbital Energies and Occupations

         #    Occupation            Energy/Eh            Energy/eV
      -------------------------------------------------------------
         1        2.0000           -0.7206008             -19.6085
       ...           ...                  ...                  ...
        36        2.0000           -0.4703790             -12.7997
        37        2.0000           -0.4615977             -12.5607
        38        2.0000           -0.4574745             -12.4485
        39        2.0000           -0.4440640             -12.0836
        40        2.0000           -0.4420070             -12.0276
        41        2.0000           -0.4402260             -11.9792
        42        2.0000           -0.4358941             -11.8613
        43        2.0000           -0.4248785             -11.5615
        44        2.0000           -0.4233227             -11.5192
        45        1.9949           -0.4143798             -11.2758
        46        1.9188           -0.4117231             -11.2036
        47        1.8856           -0.4113806             -11.1942
        48        1.3100           -0.4093269             -11.1384 (HOMO)
        49        0.7266           -0.4081850             -11.1073 (LUMO)
        50        0.1638           -0.4064219             -11.0593
        51        0.0003           -0.4002039             -10.8901
        52                         -0.3856056             -10.4929
        53                         -0.3702479             -10.0750
        54                         -0.3438518              -9.3567
        55                         -0.3410073              -9.2793
        56                         -0.3366203              -9.1599
        57                         -0.3239385              -8.8148
        58                         -0.3170313              -8.6269
        59                         -0.2799629              -7.6182
       ...                                ...                  ...
        92                          0.6659104              18.1203
      -------------------------------------------------------------
                  HL-Gap            0.0011419 Eh            0.0311 eV
             Fermi-level           -0.4087179 Eh          -11.1218 eV

     #   Z          covCN         q      C6AA      α(0)
     1   8 O        0.856    -0.390    21.474     6.213
     2   6 C        3.035     0.291    22.051     7.702
     3   7 N        1.845    -0.190    25.942     7.549
     4   6 C        3.198     0.104    25.194     8.181
     5   6 C        1.983    -0.039    32.107     9.151
     6   6 C        1.989     0.030    30.269     8.885
     7   6 C        1.991     0.027    30.356     8.898
     8   6 C        1.981    -0.048    32.354     9.186
     9   6 C        3.048     0.020    27.513     8.603
    10   6 C        3.028     0.037    27.144     8.546
    11   6 C        1.975     0.024    30.450     8.911
    12   6 C        2.967     0.093    25.921     8.351
    13   6 C        1.990    -0.029    31.823     9.110
    14   6 C        1.995    -0.031    31.882     9.119
    15   6 C        2.903     0.121    25.348     8.255
    16   7 N        2.731     0.063    20.153     6.667
    17   6 C        1.892    -0.014    31.502     9.065
    18   6 C        1.954    -0.003    31.152     9.013
    19   6 C        1.954     0.017    30.642     8.939
    20   6 C        1.953     0.009    30.849     8.969
    21   6 C        1.900    -0.040    32.192     9.163
    22   6 C        1.993    -0.034    31.951     9.129
    23   6 C        1.990    -0.016    31.484     9.061

 Mol. C6AA /au·bohr⁶  :      15078.335438
 Mol. C8AA /au·bohr⁸  :     422269.542337
 Mol. α(0) /au        :        196.666534


Wiberg/Mayer (AO) data.
largest (>0.10) Wiberg bond orders for each atom

 ---------------------------------------------------------------------------
     #   Z sym  total        # sym  WBO       # sym  WBO       # sym  WBO
 ---------------------------------------------------------------------------
     1   8 O    2.063 --     2 C    1.509    11 C    0.217     3 N    0.173
     2   6 C    3.940 --     1 O    1.509     3 N    1.454    10 C    0.836
     3   7 N    3.112 --     2 C    1.454     4 C    1.124     1 O    0.173
                            11 C    0.156
     4   6 C    3.935 --     5 C    1.391     9 C    1.153     3 N    1.124
                             7 C    0.110
     5   6 C    3.686 --     6 C    1.670     4 C    1.391     8 C    0.368
                             7 C    0.138
     6   6 C    3.869 --     7 C    1.840     5 C    1.670     8 C    0.116
                             9 C    0.115
     7   6 C    3.834 --     6 C    1.840     8 C    1.631     5 C    0.138
                             4 C    0.110
     8   6 C    3.672 --     7 C    1.631     9 C    1.435     5 C    0.368
                             6 C    0.116
     9   6 C    3.924 --     8 C    1.435     4 C    1.153    10 C    1.039
                             6 C    0.115
    10   6 C    3.949 --    11 C    1.893     9 C    1.039     2 C    0.836
    11   6 C    3.819 --    10 C    1.893    12 C    1.180     1 O    0.217
                             3 N    0.156
    12   6 C    3.913 --    13 C    1.268    23 C    1.260    11 C    1.180
    13   6 C    3.428 --    14 C    1.648    12 C    1.268    23 C    0.147
                            22 C    0.128
    14   6 C    3.409 --    13 C    1.648    15 C    1.292    23 C    0.129
                            22 C    0.106
    15   6 C    3.906 --    22 C    1.304    14 C    1.292    16 N    1.054
    16   7 N    3.601 --    21 C    1.182    17 C    1.113    15 C    1.054
    17   6 C    3.350 --    18 C    1.579    16 N    1.113    20 C    0.200
                            19 C    0.132
    18   6 C    3.528 --    17 C    1.579    19 C    1.450    21 C    0.186
                            20 C    0.158
    19   6 C    3.528 --    20 C    1.658    18 C    1.450    21 C    0.134
                            17 C    0.132
    20   6 C    3.510 --    19 C    1.658    21 C    1.352    17 C    0.200
                            18 C    0.158
    21   6 C    3.104 --    20 C    1.352    16 N    1.182    18 C    0.186
                            19 C    0.134
    22   6 C    3.563 --    23 C    1.622    15 C    1.304    13 C    0.128
                            14 C    0.106
    23   6 C    3.420 --    22 C    1.622    12 C    1.260    13 C    0.147
                            14 C    0.129
 ---------------------------------------------------------------------------

Topologies differ in total number of bonds
Writing topology from bond orders to xtbtopo.mol

molecular dipole:
                 x           y           z       tot (Debye)
 q only:        1.328       0.642      -0.054
   full:        1.318       0.738      -0.176       3.865
molecular quadrupole (traceless):
                xx          xy          yy          xz          yz          zz
 q only:      -10.159      -4.819      -3.524      -5.101       2.730      13.683
  q+dip:      -17.285      -7.055     -11.620     -10.212       8.387      28.905
   full:      -16.830      -6.644      -8.486      -9.374       6.511      25.316


           -------------------------------------------------
          | TOTAL ENERGY              -51.432151655365 Eh   |
          | GRADIENT NORM               0.476346495491 Eh/α |
          | HOMO-LUMO GAP               0.031073902086 eV   |
           -------------------------------------------------

------------------------------------------------------------------------
 * finished run on 2026/07/23 at 16:41:48.681     
------------------------------------------------------------------------
 total:
 * wall-time:     0 d,  0 h,  0 min,  0.320 sec
Note: The following floating-point exceptions are signalling: IEEE_UNDERFLOW_FLAG IEEE_DENORMAL
normal termination of xtb
 *  cpu-time:     0 d,  0 h,  0 min,  0.268 sec
 * ratio c/w:     0.838 speedup
 SCF:
 * wall-time:     0 d,  0 h,  0 min,  0.308 sec
 *  cpu-time:     0 d,  0 h,  0 min,  0.251 sec
 * ratio c/w:     0.814 speedup

