      -----------------------------------------------------------      
     |                   =====================                   |     
     |                           x T B                           |     
     |                   =====================                   |     
     |                         S. Grimme                         |     
     |          Mulliken Center for Theoretical Chemistry        |     
     |                    University of Bonn                     |     
      -----------------------------------------------------------      

   * xtb version 6.6.1 (unknown) compiled by 'builduser@buildhost' on 2023-08-07

   xtb is free software: you can redistribute it and/or modify it under
   the terms of the GNU Lesser General Public License as published by
   the Free Software Foundation, either version 3 of the License, or
   (at your option) any later version.
   
   xtb is distributed in the hope that it will be useful,
   but WITHOUT ANY WARRANTY; without even the implied warranty of
   MERCHANTABILITY or FITNESS FOR A PARTICULAR PURPOSE.  See the
   GNU Lesser General Public License for more details.
   
   Cite this work as:
   * C. Bannwarth, E. Caldeweyher, S. Ehlert, A. Hansen, P. Pracht,
     J. Seibert, S. Spicher, S. Grimme, WIREs Comput. Mol. Sci., 2020, 11,
     e01493. DOI: 10.1002/wcms.1493
   
   for GFN2-xTB:
   * C. Bannwarth, S. Ehlert and S. Grimme., J. Chem. Theory Comput., 2019,
     15, 1652-1671. DOI: 10.1021/acs.jctc.8b01176
   for GFN1-xTB:
   * S. Grimme, C. Bannwarth, P. Shushkov, J. Chem. Theory Comput., 2017,
     13, 1989-2009. DOI: 10.1021/acs.jctc.7b00118
   for GFN0-xTB:
   * P. Pracht, E. Caldeweyher, S. Ehlert, S. Grimme, ChemRxiv, 2019, preprint.
     DOI: 10.26434/chemrxiv.8326202.v1
   for GFN-FF:
   * S. Spicher and S. Grimme, Angew. Chem. Int. Ed., 2020, 59, 15665-15673.
     DOI: 10.1002/anie.202004239
   
   for ALPB and GBSA implicit solvation:
   * S. Ehlert, M. Stahn, S. Spicher, S. Grimme, J. Chem. Theory Comput.,
     2021, 17, 4250-4261. DOI: 10.1021/acs.jctc.1c00471
   
   for DFT-D4:
   * E. Caldeweyher, C. Bannwarth and S. Grimme, J. Chem. Phys., 2017,
     147, 034112. DOI: 10.1063/1.4993215
   * E. Caldeweyher, S. Ehlert, A. Hansen, H. Neugebauer, S. Spicher,
     C. Bannwarth and S. Grimme, J. Chem. Phys., 2019, 150, 154122.
     DOI: 10.1063/1.5090222
   * E. Caldeweyher, J.-M. Mewes, S. Ehlert and S. Grimme, Phys. Chem. Chem. Phys.
     2020, 22, 8499-8512. DOI: 10.1039/D0CP00502A
   
   for sTDA-xTB:
   * S. Grimme and C. Bannwarth, J. Chem. Phys., 2016, 145, 054103.
     DOI: 10.1063/1.4959605
   
   in the mass-spec context:
   * V. Asgeirsson, C. Bauer and S. Grimme, Chem. Sci., 2017, 8, 4879.
     DOI: 10.1039/c7sc00601b
   * J. Koopman and S. Grimme, ACS Omega 2019, 4, 12, 15120-15133.
     DOI: 10.1021/acsomega.9b02011
   
   for metadynamics refer to:
   * S. Grimme, J. Chem. Theory Comput., 2019, 155, 2847-2862
     DOI: 10.1021/acs.jctc.9b00143
   
   for SPH calculations refer to:
   * S. Spicher and S. Grimme, J. Chem. Theory Comput., 2021, 17, 1701-1714
     DOI: 10.1021/acs.jctc.0c01306
   
   with help from (in alphabetical order)
   P. Atkinson, C. Bannwarth, F. Bohle, G. Brandenburg, E. Caldeweyher
   M. Checinski, S. Dohm, S. Ehlert, S. Ehrlich, I. Gerasimov, C. Hölzer
   A. Katbashev, J. Koopman, C. Lavigne, S. Lehtola, F. März, M. Müller,
   F. Musil, H. Neugebauer, J. Pisarek, C. Plett, P. Pracht, F. Pultar,
   J. Seibert, P. Shushkov, S. Spicher, M. Stahn, M. Steiner, T. Strunk,
   J. Stückrath, T. Rose, and J. Unsleber
   
 * started run on 2026/07/23 at 16:38:12.675     

           -------------------------------------------------
          |                Calculation Setup                |
           -------------------------------------------------

          program call               : xtb /home/selva/covalent_quantum_benchmark/data/quantum/erbB_xyz/EGFR__CHEMBL31622__state03.xyz --gfn2 --chrg 0 --uhf 0 --iterations 300
          coordinate file            : /home/selva/covalent_quantum_benchmark/data/quantum/erbB_xyz/EGFR__CHEMBL31622__state03.xyz
          omp threads                :                    24

   ID    Z sym.   atoms
    1    6 C      1-3, 6-9, 11-17, 19, 21-23, 25-27, 29, 30, 32-34
    2    8 O      4, 24
    3    7 N      5, 10, 18, 20, 28, 31

           -------------------------------------------------
          |                 G F N 2 - x T B                 |
           -------------------------------------------------

        Reference                      10.1021/acs.jctc.8b01176
      * Hamiltonian:
        H0-scaling (s, p, d)           1.850000    2.230000    2.230000
        zeta-weighting                 0.500000
      * Dispersion:
        s8                             2.700000
        a1                             0.520000
        a2                             5.000000
        s9                             5.000000
      * Repulsion:
        kExp                           1.500000    1.000000
        rExp                           1.000000
      * Coulomb:
        alpha                          2.000000
        third order                    shell-resolved
        anisotropic                    true
        a3                             3.000000
        a5                             4.000000
        cn-shift                       1.200000
        cn-exp                         4.000000
        max-rad                        5.000000


          ...................................................
          :                      SETUP                      :
          :.................................................:
          :  # basis functions                 136          :
          :  # atomic orbitals                 136          :
          :  # shells                           68          :
          :  # electrons                       146          :
          :  max. iterations                   300          :
          :  Hamiltonian                  GFN2-xTB          :
          :  restarted?                      false          :
          :  GBSA solvation                  false          :
          :  PC potential                    false          :
          :  electronic temp.          300.0000000     K    :
          :  accuracy                    1.0000000          :
          :  -> integral cutoff          0.2500000E+02      :
          :  -> integral neglect         0.1000000E-07      :
          :  -> SCF convergence          0.1000000E-05 Eh   :
          :  -> wf. convergence          0.1000000E-03 e    :
          :  Broyden damping             0.4000000          :
          ...................................................

 iter      E             dE          RMSdq      gap      omega  full diag
   1    -78.7921450 -0.787921E+02  0.946E+00    0.07       0.0  T
   2    -53.0553922  0.257368E+02  0.147E+01    0.09       1.0  T
   3    -38.0237098  0.150317E+02  0.156E+01    0.28       1.0  T
   4    -51.9655312 -0.139418E+02  0.131E+01    0.04       1.0  T
   5    -74.6933235 -0.227278E+02  0.845E+00    0.07       1.0  T
   6    -76.8341241 -0.214080E+01  0.667E+00    0.06       1.0  T
   7    -75.4539760  0.138015E+01  0.700E+00    0.07       1.0  T
   8    -78.2760376 -0.282206E+01  0.495E+00    0.11       1.0  T
   9    -79.1788131 -0.902775E+00  0.425E+00    0.13       1.0  T
  10    -78.7627142  0.416099E+00  0.422E+00    0.07       1.0  T
  11    -79.5623673 -0.799653E+00  0.338E+00    0.08       1.0  T
  12    -79.8120801 -0.249713E+00  0.275E+00    0.05       1.0  T
  13    -79.5588393  0.253241E+00  0.327E+00    0.09       1.0  T
  14    -79.7698170 -0.210978E+00  0.276E+00    0.06       1.0  T
  15    -79.2404772  0.529340E+00  0.334E+00    0.03       1.0  T
  16    -79.6971542 -0.456677E+00  0.286E+00    0.09       1.0  T
  17    -79.9851504 -0.287996E+00  0.178E+00    0.05       1.0  T
  18    -79.6900102  0.295140E+00  0.227E+00    0.13       1.0  T
  19    -79.8241450 -0.134135E+00  0.203E+00    0.06       1.0  T
  20    -79.9239415 -0.997965E-01  0.160E+00    0.04       1.0  T
  21    -79.6778092  0.246132E+00  0.253E+00    0.06       1.0  T
  22    -79.7128278 -0.350185E-01  0.236E+00    0.06       1.0  T
  23    -80.0473061 -0.334478E+00  0.110E+00    0.00       1.0  T
  24    -80.0358602  0.114458E-01  0.116E+00    0.00       1.0  T
  25    -79.9310442  0.104816E+00  0.144E+00    0.02       1.0  T
  26    -80.0157424 -0.846982E-01  0.110E+00    0.03       1.0  T
  27    -79.9995328  0.162096E-01  0.121E+00    0.01       1.0  T
  28    -80.0799775 -0.804447E-01  0.710E-01    0.03       1.0  T
  29    -80.1057169 -0.257394E-01  0.463E-01    0.02       1.0  T
  30    -80.1107723 -0.505538E-02  0.357E-01    0.02       1.0  T
  31    -80.1146153 -0.384294E-02  0.302E-01    0.02       1.0  T
  32    -80.1161234 -0.150811E-02  0.263E-01    0.02       1.0  T
  33    -80.1143059  0.181747E-02  0.267E-01    0.02       1.0  T
  34    -80.1180493 -0.374343E-02  0.141E-01    0.02       1.0  T
  35    -80.1142826  0.376674E-02  0.255E-01    0.03       1.0  T
  36    -80.1154049 -0.112234E-02  0.223E-01    0.03       1.0  T
  37    -80.1187580 -0.335302E-02  0.677E-02    0.02       1.0  T
  38    -80.1166051  0.215286E-02  0.180E-01    0.03       1.0  T
  39    -80.1186017 -0.199664E-02  0.869E-02    0.03       1.0  T
  40    -80.1187233 -0.121553E-03  0.661E-02    0.02       1.0  T
  41    -80.1189232 -0.199920E-03  0.483E-02    0.02       1.0  T
  42    -80.1187891  0.134087E-03  0.610E-02    0.02       1.0  T
  43    -80.1191191 -0.330006E-03  0.172E-02    0.02       1.0  T
  44    -80.1191236 -0.444233E-05  0.137E-02    0.02       1.2  T
  45    -80.1191302 -0.658236E-05  0.968E-03    0.02       1.8  T
  46    -80.1191321 -0.194364E-05  0.687E-03    0.02       2.5  T
  47    -80.1191339 -0.181700E-05  0.285E-03    0.02       6.0  T
  48    -80.1191337  0.179447E-06  0.230E-03    0.02       7.5  T
  49    -80.1191341 -0.345524E-06  0.130E-03    0.02      13.2  T
  50    -80.1191342 -0.123291E-06  0.556E-04    0.02      30.8  T
  51    -80.1191342 -0.531170E-08  0.546E-04    0.02      31.4  T

   *** convergence criteria satisfied after 51 iterations ***

         #    Occupation            Energy/Eh            Energy/eV
      -------------------------------------------------------------
         1        2.0000           -0.7863666             -21.3981
       ...           ...                  ...                  ...
        67        2.0000           -0.4334214             -11.7940
        68        2.0000           -0.4310911             -11.7306
        69        2.0000           -0.4296142             -11.6904
        70        1.9999           -0.4270072             -11.6195
        71        1.9999           -0.4263303             -11.6010
        72        1.7259           -0.4186906             -11.3932
        73        1.0921           -0.4171180             -11.3504 (HOMO)
        74        0.6551           -0.4162592             -11.3270 (LUMO)
        75        0.2860           -0.4152411             -11.2993
        76        0.1512           -0.4145638             -11.2809
        77        0.0757           -0.4138690             -11.2619
        78        0.0138           -0.4122217             -11.2171
       ...           ...                  ...                  ...
       136                          0.5576616              15.1747
      -------------------------------------------------------------
                  HL-Gap            0.0008588 Eh            0.0234 eV
             Fermi-level           -0.4169425 Eh          -11.3456 eV

 SCC (total)                   0 d,  0 h,  0 min,  0.687 sec
 SCC setup                      ...        0 min,  0.000 sec (  0.045%)
 Dispersion                     ...        0 min,  0.001 sec (  0.160%)
 classical contributions        ...        0 min,  0.001 sec (  0.092%)
 integral evaluation            ...        0 min,  0.005 sec (  0.761%)
 iterations                     ...        0 min,  0.654 sec ( 95.230%)
 molecular gradient             ...        0 min,  0.023 sec (  3.411%)
 printout                       ...        0 min,  0.002 sec (  0.297%)

         :::::::::::::::::::::::::::::::::::::::::::::::::::::
         ::                     SUMMARY                     ::
         :::::::::::::::::::::::::::::::::::::::::::::::::::::
         :: total energy             -79.309285275533 Eh    ::
         :: gradient norm              0.569564076592 Eh/a0 ::
         :: HOMO-LUMO gap              0.023369243886 eV    ::
         ::.................................................::
         :: SCC energy               -80.119134209293 Eh    ::
         :: -> isotropic ES            0.014052027201 Eh    ::
         :: -> anisotropic ES          0.006613950313 Eh    ::
         :: -> anisotropic XC          0.042363144568 Eh    ::
         :: -> dispersion             -0.050819412463 Eh    ::
         :: repulsion energy           0.808369406000 Eh    ::
         :: add. restraining           0.000000000000 Eh    ::
         :: total charge              -0.000000000001 e     ::
         :::::::::::::::::::::::::::::::::::::::::::::::::::::

           -------------------------------------------------
          |                Property Printout                |
           -------------------------------------------------

    * Orbital Energies and Occupations

         #    Occupation            Energy/Eh            Energy/eV
      -------------------------------------------------------------
         1        2.0000           -0.7863666             -21.3981
       ...           ...                  ...                  ...
        61        2.0000           -0.4562509             -12.4152
        62        2.0000           -0.4539151             -12.3517
        63        2.0000           -0.4515382             -12.2870
        64        2.0000           -0.4456998             -12.1281
        65        2.0000           -0.4406935             -11.9919
        66        2.0000           -0.4367356             -11.8842
        67        2.0000           -0.4334214             -11.7940
        68        2.0000           -0.4310911             -11.7306
        69        2.0000           -0.4296142             -11.6904
        70        1.9999           -0.4270072             -11.6195
        71        1.9999           -0.4263303             -11.6010
        72        1.7259           -0.4186906             -11.3932
        73        1.0921           -0.4171180             -11.3504 (HOMO)
        74        0.6551           -0.4162592             -11.3270 (LUMO)
        75        0.2860           -0.4152411             -11.2993
        76        0.1512           -0.4145638             -11.2809
        77        0.0757           -0.4138690             -11.2619
        78        0.0138           -0.4122217             -11.2171
        79        0.0003           -0.4086869             -11.1209
        80        0.0000           -0.4036892             -10.9849
        81                         -0.3863533             -10.5132
        82                         -0.3844286             -10.4608
        83                         -0.3684390             -10.0257
        84                         -0.3635967              -9.8940
       ...                                ...                  ...
       136                          0.5576616              15.1747
      -------------------------------------------------------------
                  HL-Gap            0.0008588 Eh            0.0234 eV
             Fermi-level           -0.4169425 Eh          -11.3456 eV

     #   Z          covCN         q      C6AA      α(0)
     1   6 C        0.985    -0.041    37.193    10.246
     2   6 C        1.961    -0.012    31.402     9.049
     3   6 C        2.789     0.302    21.871     7.661
     4   8 O        0.860    -0.389    21.455     6.210
     5   7 N        1.833    -0.165    25.374     7.465
     6   6 C        2.935     0.098    25.830     8.335
     7   6 C        1.990    -0.080    33.221     9.308
     8   6 C        2.964     0.004    27.932     8.669
     9   6 C        2.834     0.202    23.705     7.979
    10   7 N        1.848    -0.154    25.132     7.430
    11   6 C        2.911     0.137    25.015     8.201
    12   6 C        1.993     0.026    30.388     8.902
    13   6 C        1.985    -0.008    31.265     9.030
    14   6 C        1.990     0.038    30.067     8.855
    15   6 C        2.959     0.111    25.560     8.292
    16   6 C        0.983    -0.066    37.989    10.353
    17   6 C        1.995    -0.059    32.631     9.225
    18   7 N        1.849    -0.152    25.075     7.422
    19   6 C        1.889     0.181    26.800     8.361
    20   7 N        1.832    -0.147    24.958     7.403
    21   6 C        2.952     0.113    25.515     8.285
    22   6 C        1.990    -0.083    33.316     9.321
    23   6 C        2.864     0.161    24.521     8.117
    24   8 O        1.701    -0.140    16.413     5.470
    25   6 C        1.849     0.067    29.444     8.765
    26   6 C        1.950    -0.021    31.640     9.084
    27   6 C        1.899     0.009    30.874     8.974
    28   7 N        2.719     0.083    19.802     6.609
    29   6 C        1.904    -0.034    32.031     9.140
    30   6 C        1.905    -0.030    31.897     9.121
    31   7 N        2.721     0.134    18.968     6.468
    32   6 C        0.932    -0.048    37.063    10.200
    33   6 C        1.905    -0.016    31.535     9.069
    34   6 C        1.908    -0.022    31.684     9.091

 Mol. C6AA /au·bohr⁶  :      32184.645764
 Mol. C8AA /au·bohr⁸  :     879108.874862
 Mol. α(0) /au        :        286.111506


Wiberg/Mayer (AO) data.
largest (>0.10) Wiberg bond orders for each atom

 ---------------------------------------------------------------------------
     #   Z sym  total        # sym  WBO       # sym  WBO       # sym  WBO
 ---------------------------------------------------------------------------
     1   6 C    2.932 --     2 C    2.553     5 N    0.177
     2   6 C    3.576 --     1 C    2.553     3 C    0.933
     3   6 C    3.923 --     5 N    1.467     4 O    1.414     2 C    0.933
     4   8 O    1.752 --     3 C    1.414     5 N    0.152
     5   7 N    3.170 --     3 C    1.467     6 C    1.161     1 C    0.177
                             4 O    0.152
     6   6 C    3.953 --     7 C    1.395     5 N    1.161    23 C    1.136
     7   6 C    3.755 --     8 C    1.481     6 C    1.395    22 C    0.446
     8   6 C    3.936 --     7 C    1.481    21 C    1.165     9 C    0.986
     9   6 C    3.936 --    10 N    1.568    18 N    1.197     8 C    0.986
    10   7 N    3.258 --     9 C    1.568    11 C    1.123    18 N    0.118
    11   6 C    3.955 --    17 C    1.338    12 C    1.312    10 N    1.123
    12   6 C    3.703 --    13 C    1.592    11 C    1.312    14 C    0.347
                            17 C    0.167    16 C    0.134
    13   6 C    3.811 --    14 C    1.677    12 C    1.592    17 C    0.381
    14   6 C    3.629 --    13 C    1.677    15 C    1.216    12 C    0.347
                            17 C    0.168
    15   6 C    3.964 --    16 C    1.379    17 C    1.259    14 C    1.216
    16   6 C    1.868 --    15 C    1.379    17 C    0.142    12 C    0.134
    17   6 C    3.542 --    11 C    1.338    15 C    1.259    13 C    0.381
                            14 C    0.168    12 C    0.167    16 C    0.142
    18   7 N    3.263 --    19 C    1.686     9 C    1.197    10 N    0.118
    19   6 C    3.744 --    20 N    1.707    18 N    1.686
    20   7 N    3.122 --    19 C    1.707    21 C    1.074
    21   6 C    3.891 --    22 C    1.394     8 C    1.165    20 N    1.074
    22   6 C    3.705 --    23 C    1.471    21 C    1.394     7 C    0.446
    23   6 C    3.892 --    22 C    1.471     6 C    1.136    24 O    1.028
    24   8 O    2.445 --    25 C    1.168    23 C    1.028
    25   6 C    2.981 --    26 C    1.295    24 O    1.168    27 C    0.210
    26   6 C    3.450 --    27 C    1.890    25 C    1.295
    27   6 C    3.606 --    26 C    1.890    28 N    1.133    25 C    0.210
    28   7 N    3.466 --    27 C    1.133    34 C    1.063    29 C    1.023
    29   6 C    3.299 --    30 C    1.489    28 N    1.023    32 C    0.283
                            34 C    0.165    33 C    0.151
    30   6 C    3.354 --    29 C    1.489    31 N    1.049    33 C    0.243
                            32 C    0.224    34 C    0.138
Note: The following floating-point exceptions are signalling: IEEE_UNDERFLOW_FLAG IEEE_DENORMAL
normal termination of xtb
    31   7 N    3.647 --    32 C    1.461    30 C    1.049    33 C    1.044
    32   6 C    2.532 --    31 N    1.461    29 C    0.283    34 C    0.278
                            33 C    0.228    30 C    0.224
    33   6 C    3.344 --    34 C    1.538    31 N    1.044    30 C    0.243
                            32 C    0.228    29 C    0.151
    34   6 C    3.320 --    33 C    1.538    28 N    1.063    32 C    0.278
                            29 C    0.165    30 C    0.138
 ---------------------------------------------------------------------------

Topologies differ in total number of bonds
Writing topology from bond orders to xtbtopo.mol

molecular dipole:
                 x           y           z       tot (Debye)
 q only:        1.218       1.137       1.643
   full:        1.439       0.679       1.963       6.422
molecular quadrupole (traceless):
                xx          xy          yy          xz          yz          zz
 q only:        6.892     -16.038     -11.032      -2.120     -15.798       4.140
  q+dip:       -2.719     -17.915      -7.303      -0.353     -20.476      10.021
   full:       -1.289     -16.244      -6.364       1.624     -21.648       7.653


           -------------------------------------------------
          | TOTAL ENERGY              -79.309285275533 Eh   |
          | GRADIENT NORM               0.569564076592 Eh/α |
          | HOMO-LUMO GAP               0.023369243886 eV   |
           -------------------------------------------------

------------------------------------------------------------------------
 * finished run on 2026/07/23 at 16:38:13.382     
------------------------------------------------------------------------
 total:
 * wall-time:     0 d,  0 h,  0 min,  0.708 sec
 *  cpu-time:     0 d,  0 h,  0 min,  0.678 sec
 * ratio c/w:     0.958 speedup
 SCF:
 * wall-time:     0 d,  0 h,  0 min,  0.687 sec
 *  cpu-time:     0 d,  0 h,  0 min,  0.652 sec
 * ratio c/w:     0.949 speedup

