      -----------------------------------------------------------      
     |                   =====================                   |     
     |                           x T B                           |     
     |                   =====================                   |     
     |                         S. Grimme                         |     
     |          Mulliken Center for Theoretical Chemistry        |     
     |                    University of Bonn                     |     
      -----------------------------------------------------------      

   * xtb version 6.6.1 (unknown) compiled by 'builduser@buildhost' on 2023-08-07

   xtb is free software: you can redistribute it and/or modify it under
   the terms of the GNU Lesser General Public License as published by
   the Free Software Foundation, either version 3 of the License, or
   (at your option) any later version.
   
   xtb is distributed in the hope that it will be useful,
   but WITHOUT ANY WARRANTY; without even the implied warranty of
   MERCHANTABILITY or FITNESS FOR A PARTICULAR PURPOSE.  See the
   GNU Lesser General Public License for more details.
   
   Cite this work as:
   * C. Bannwarth, E. Caldeweyher, S. Ehlert, A. Hansen, P. Pracht,
     J. Seibert, S. Spicher, S. Grimme, WIREs Comput. Mol. Sci., 2020, 11,
     e01493. DOI: 10.1002/wcms.1493
   
   for GFN2-xTB:
   * C. Bannwarth, S. Ehlert and S. Grimme., J. Chem. Theory Comput., 2019,
     15, 1652-1671. DOI: 10.1021/acs.jctc.8b01176
   for GFN1-xTB:
   * S. Grimme, C. Bannwarth, P. Shushkov, J. Chem. Theory Comput., 2017,
     13, 1989-2009. DOI: 10.1021/acs.jctc.7b00118
   for GFN0-xTB:
   * P. Pracht, E. Caldeweyher, S. Ehlert, S. Grimme, ChemRxiv, 2019, preprint.
     DOI: 10.26434/chemrxiv.8326202.v1
   for GFN-FF:
   * S. Spicher and S. Grimme, Angew. Chem. Int. Ed., 2020, 59, 15665-15673.
     DOI: 10.1002/anie.202004239
   
   for ALPB and GBSA implicit solvation:
   * S. Ehlert, M. Stahn, S. Spicher, S. Grimme, J. Chem. Theory Comput.,
     2021, 17, 4250-4261. DOI: 10.1021/acs.jctc.1c00471
   
   for DFT-D4:
   * E. Caldeweyher, C. Bannwarth and S. Grimme, J. Chem. Phys., 2017,
     147, 034112. DOI: 10.1063/1.4993215
   * E. Caldeweyher, S. Ehlert, A. Hansen, H. Neugebauer, S. Spicher,
     C. Bannwarth and S. Grimme, J. Chem. Phys., 2019, 150, 154122.
     DOI: 10.1063/1.5090222
   * E. Caldeweyher, J.-M. Mewes, S. Ehlert and S. Grimme, Phys. Chem. Chem. Phys.
     2020, 22, 8499-8512. DOI: 10.1039/D0CP00502A
   
   for sTDA-xTB:
   * S. Grimme and C. Bannwarth, J. Chem. Phys., 2016, 145, 054103.
     DOI: 10.1063/1.4959605
   
   in the mass-spec context:
   * V. Asgeirsson, C. Bauer and S. Grimme, Chem. Sci., 2017, 8, 4879.
     DOI: 10.1039/c7sc00601b
   * J. Koopman and S. Grimme, ACS Omega 2019, 4, 12, 15120-15133.
     DOI: 10.1021/acsomega.9b02011
   
   for metadynamics refer to:
   * S. Grimme, J. Chem. Theory Comput., 2019, 155, 2847-2862
     DOI: 10.1021/acs.jctc.9b00143
   
   for SPH calculations refer to:
   * S. Spicher and S. Grimme, J. Chem. Theory Comput., 2021, 17, 1701-1714
     DOI: 10.1021/acs.jctc.0c01306
   
   with help from (in alphabetical order)
   P. Atkinson, C. Bannwarth, F. Bohle, G. Brandenburg, E. Caldeweyher
   M. Checinski, S. Dohm, S. Ehlert, S. Ehrlich, I. Gerasimov, C. Hölzer
   A. Katbashev, J. Koopman, C. Lavigne, S. Lehtola, F. März, M. Müller,
   F. Musil, H. Neugebauer, J. Pisarek, C. Plett, P. Pracht, F. Pultar,
   J. Seibert, P. Shushkov, S. Spicher, M. Stahn, M. Steiner, T. Strunk,
   J. Stückrath, T. Rose, and J. Unsleber
   
 * started run on 2026/07/23 at 16:42:39.210     

           -------------------------------------------------
          |                Calculation Setup                |
           -------------------------------------------------

          program call               : xtb /home/selva/covalent_quantum_benchmark/data/quantum/erbB_xyz/ERBB2__CHEMBL369299__state01.xyz --gfn2 --chrg 0 --uhf 0 --iterations 300
          coordinate file            : /home/selva/covalent_quantum_benchmark/data/quantum/erbB_xyz/ERBB2__CHEMBL369299__state01.xyz
          omp threads                :                    24

   ID    Z sym.   atoms
    1    6 C      1, 2, 4-6, 8-10, 12, 14-17, 19-30, 32, 34-36, 38, 39
    2    8 O      3, 18, 33
    3    7 N      7, 11, 13, 31, 37

           -------------------------------------------------
          |                 G F N 2 - x T B                 |
           -------------------------------------------------

        Reference                      10.1021/acs.jctc.8b01176
      * Hamiltonian:
        H0-scaling (s, p, d)           1.850000    2.230000    2.230000
        zeta-weighting                 0.500000
      * Dispersion:
        s8                             2.700000
        a1                             0.520000
        a2                             5.000000
        s9                             5.000000
      * Repulsion:
        kExp                           1.500000    1.000000
        rExp                           1.000000
      * Coulomb:
        alpha                          2.000000
        third order                    shell-resolved
        anisotropic                    true
        a3                             3.000000
        a5                             4.000000
        cn-shift                       1.200000
        cn-exp                         4.000000
        max-rad                        5.000000


          ...................................................
          :                      SETUP                      :
          :.................................................:
          :  # basis functions                 156          :
          :  # atomic orbitals                 156          :
          :  # shells                           78          :
          :  # electrons                       167          :
          :  max. iterations                   300          :
          :  Hamiltonian                  GFN2-xTB          :
          :  restarted?                      false          :
          :  GBSA solvation                  false          :
          :  PC potential                    false          :
          :  electronic temp.          300.0000000     K    :
          :  accuracy                    1.0000000          :
          :  -> integral cutoff          0.2500000E+02      :
          :  -> integral neglect         0.1000000E-07      :
          :  -> SCF convergence          0.1000000E-05 Eh   :
          :  -> wf. convergence          0.1000000E-03 e    :
          :  Broyden damping             0.4000000          :
          ...................................................

 iter      E             dE          RMSdq      gap      omega  full diag
   1    -90.7611386 -0.907611E+02  0.904E+00    0.31       0.0  T
   2    -72.7505786  0.180106E+02  0.132E+01    0.10       1.0  T
   3    -74.3933785 -0.164280E+01  0.111E+01    0.17       1.0  T
   4    -81.3308404 -0.693746E+01  0.921E+00    0.09       1.0  T
   5    -83.3845821 -0.205374E+01  0.826E+00    0.18       1.0  T
   6    -83.0264130  0.358169E+00  0.812E+00    0.07       1.0  T
   7    -90.5262301 -0.749982E+01  0.491E+00    0.08       1.0  T
   8    -88.5664816  0.195975E+01  0.509E+00    0.06       1.0  T
   9    -91.0927862 -0.252630E+01  0.400E+00    0.17       1.0  T
  10    -90.8267052  0.266081E+00  0.394E+00    0.14       1.0  T
  11    -91.2744698 -0.447765E+00  0.347E+00    0.17       1.0  T
  12    -91.3281699 -0.537001E-01  0.309E+00    0.11       1.0  T
  13    -91.7543216 -0.426152E+00  0.242E+00    0.03       1.0  T
  14    -91.6720494  0.822721E-01  0.266E+00    0.07       1.0  T
  15    -91.6942800 -0.222305E-01  0.274E+00    0.03       1.0  T
  16    -91.7071219 -0.128419E-01  0.274E+00    0.04       1.0  T
  17    -91.5853110  0.121811E+00  0.284E+00    0.05       1.0  T
  18    -91.6059122 -0.206011E-01  0.252E+00    0.05       1.0  T
  19    -91.2308022  0.375110E+00  0.337E+00    0.03       1.0  T
  20    -91.5126472 -0.281845E+00  0.283E+00    0.01       1.0  T
  21    -91.5504176 -0.377704E-01  0.283E+00    0.01       1.0  T
  22    -91.5188801  0.315376E-01  0.290E+00    0.01       1.0  T
  23    -91.5855136 -0.666336E-01  0.286E+00    0.01       1.0  T
  24    -91.4509043  0.134609E+00  0.311E+00    0.01       1.0  T
  25    -91.8787691 -0.427865E+00  0.174E+00    0.05       1.0  T
  26    -91.8451027  0.336664E-01  0.184E+00    0.03       1.0  T
  27    -91.6831542  0.161949E+00  0.245E+00    0.02       1.0  T
  28    -91.8074726 -0.124318E+00  0.190E+00    0.04       1.0  T
  29    -92.1132468 -0.305774E+00  0.117E+00    0.01       1.0  T
  30    -92.0844873  0.287595E-01  0.110E+00    0.03       1.0  T
  31    -92.0955058 -0.110186E-01  0.103E+00    0.03       1.0  T
  32    -92.0483341  0.471717E-01  0.998E-01    0.02       1.0  T
  33    -92.0770597 -0.287256E-01  0.854E-01    0.02       1.0  T
  34    -92.0802042 -0.314443E-02  0.820E-01    0.02       1.0  T
  35    -92.1154306 -0.352265E-01  0.625E-01    0.02       1.0  T
  36    -92.1193215 -0.389086E-02  0.504E-01    0.01       1.0  T
  37    -92.1366249 -0.173034E-01  0.358E-01    0.01       1.0  T
  38    -92.1379077 -0.128277E-02  0.326E-01    0.01       1.0  T
  39    -92.1433238 -0.541610E-02  0.137E-01    0.01       1.0  T
  40    -92.1410670  0.225676E-02  0.186E-01    0.01       1.0  T
  41    -92.1434916 -0.242460E-02  0.149E-01    0.01       1.0  T
  42    -92.1412459  0.224573E-02  0.242E-01    0.01       1.0  T
  43    -92.1439435 -0.269762E-02  0.137E-01    0.01       1.0  T
  44    -92.1444170 -0.473551E-03  0.112E-01    0.01       1.0  T
  45    -92.1438523  0.564690E-03  0.132E-01    0.01       1.0  T
  46    -92.1446427 -0.790336E-03  0.733E-02    0.01       1.0  T
  47    -92.1446928 -0.501333E-04  0.762E-02    0.01       1.0  T
  48    -92.1447490 -0.561405E-04  0.657E-02    0.01       1.0  T
  49    -92.1449978 -0.248864E-03  0.300E-02    0.01       1.0  T
  50    -92.1450371 -0.393151E-04  0.143E-02    0.01       1.1  T
  51    -92.1450417 -0.453893E-05  0.855E-03    0.01       1.9  T
  52    -92.1450425 -0.835137E-06  0.703E-03    0.01       2.3  T
  53    -92.1450444 -0.193884E-05  0.445E-03    0.01       3.6  T
  54    -92.1450457 -0.123653E-05  0.193E-03    0.01       8.3  T
  55    -92.1450457 -0.218588E-07  0.148E-03    0.01      10.8  T
  56    -92.1450455  0.250980E-06  0.225E-03    0.01       7.1  T
  57    -92.1450455 -0.620692E-07  0.211E-03    0.01       7.6  T
  58    -92.1450459 -0.343948E-06  0.365E-04    0.01      43.8  T
  59    -92.1450459 -0.555507E-08  0.158E-04    0.01     101.1  T

   *** convergence criteria satisfied after 59 iterations ***

         #    Occupation            Energy/Eh            Energy/eV
      -------------------------------------------------------------
         1        2.0000           -0.7922281             -21.5576
       ...           ...                  ...                  ...
        78        1.9997           -0.4327563             -11.7759
        79        1.9984           -0.4311953             -11.7334
        80        1.8822           -0.4270540             -11.6207
        81        1.8731           -0.4269775             -11.6186
        82        1.7681           -0.4263408             -11.6013
        83        1.1903           -0.4247226             -11.5573
        84        0.9901           -0.4243181             -11.5463 (HOMO)
        85        0.8131           -0.4239603             -11.5365 (LUMO)
        86        0.4526           -0.4231173             -11.5136
        87        0.0320           -0.4203356             -11.4379
        88        0.0004           -0.4162446             -11.3266
        89                         -0.3997463             -10.8776
       ...                                ...                  ...
       156                          1.0411981              28.3324
      -------------------------------------------------------------
                  HL-Gap            0.0003578 Eh            0.0097 eV
             Fermi-level           -0.4243380 Eh          -11.5468 eV

 SCC (total)                   0 d,  0 h,  0 min,  1.104 sec
 SCC setup                      ...        0 min,  0.000 sec (  0.040%)
 Dispersion                     ...        0 min,  0.002 sec (  0.159%)
 classical contributions        ...        0 min,  0.001 sec (  0.056%)
 integral evaluation            ...        0 min,  0.013 sec (  1.133%)
 iterations                     ...        0 min,  1.038 sec ( 94.079%)
 molecular gradient             ...        0 min,  0.038 sec (  3.430%)
 printout                       ...        0 min,  0.012 sec (  1.100%)

         :::::::::::::::::::::::::::::::::::::::::::::::::::::
         ::                     SUMMARY                     ::
         :::::::::::::::::::::::::::::::::::::::::::::::::::::
         :: total energy             -91.050665207348 Eh    ::
         :: gradient norm              0.539044267768 Eh/a0 ::
         :: HOMO-LUMO gap              0.009736045360 eV    ::
         ::.................................................::
         :: SCC energy               -92.145045863138 Eh    ::
         :: -> isotropic ES            0.012516483710 Eh    ::
         :: -> anisotropic ES          0.006936915210 Eh    ::
         :: -> anisotropic XC          0.060591151716 Eh    ::
         :: -> dispersion             -0.059881133136 Eh    ::
         :: repulsion energy           1.092789254058 Eh    ::
         :: add. restraining           0.000000000000 Eh    ::
         :: total charge              -0.000000000286 e     ::
         :::::::::::::::::::::::::::::::::::::::::::::::::::::

           -------------------------------------------------
          |                Property Printout                |
           -------------------------------------------------

    * Orbital Energies and Occupations

         #    Occupation            Energy/Eh            Energy/eV
      -------------------------------------------------------------
         1        2.0000           -0.7922281             -21.5576
       ...           ...                  ...                  ...
        72        2.0000           -0.4564514             -12.4207
        73        2.0000           -0.4482373             -12.1972
        74        2.0000           -0.4472820             -12.1712
        75        2.0000           -0.4410218             -12.0008
        76        2.0000           -0.4388498             -11.9417
        77        2.0000           -0.4368465             -11.8872
        78        1.9997           -0.4327563             -11.7759
        79        1.9984           -0.4311953             -11.7334
        80        1.8822           -0.4270540             -11.6207
        81        1.8731           -0.4269775             -11.6186
        82        1.7681           -0.4263408             -11.6013
        83        1.1903           -0.4247226             -11.5573
        84        0.9901           -0.4243181             -11.5463 (HOMO)
        85        0.8131           -0.4239603             -11.5365 (LUMO)
        86        0.4526           -0.4231173             -11.5136
        87        0.0320           -0.4203356             -11.4379
        88        0.0004           -0.4162446             -11.3266
        89                         -0.3997463             -10.8776
        90                         -0.3994917             -10.8707
        91                         -0.3926707             -10.6851
        92                         -0.3893380             -10.5944
        93                         -0.3743698             -10.1871
        94                         -0.3716905             -10.1142
        95                         -0.3663733              -9.9695
       ...                                ...                  ...
       156                          1.0411981              28.3324
      -------------------------------------------------------------
                  HL-Gap            0.0003578 Eh            0.0097 eV
             Fermi-level           -0.4243380 Eh          -11.5468 eV

     #   Z          covCN         q      C6AA      α(0)
     1   6 C        0.976    -0.090    38.715    10.449
     2   6 C        1.854     0.096    28.750     8.661
     3   8 O        1.703    -0.132    16.294     5.450
     4   6 C        2.870     0.155    24.632     8.136
     5   6 C        1.989    -0.069    32.925     9.267
     6   6 C        2.915     0.114    25.484     8.278
     7   7 N        1.832    -0.125    24.480     7.332
     8   6 C        1.933     0.092    28.799     8.666
     9   6 C        2.953     0.025    27.434     8.591
    10   6 C        1.908     0.125    28.035     8.551
    11   7 N        0.911    -0.173    24.751     7.195
    12   6 C        2.895     0.134    25.066     8.209
    13   7 N        1.838    -0.110    24.164     7.285
    14   6 C        2.910     0.135    25.058     8.208
    15   6 C        1.993    -0.038    32.065     9.145
    16   6 C        1.990    -0.039    32.091     9.148
    17   6 C        2.856     0.192    23.908     8.014
    18   8 O        1.703    -0.110    15.974     5.396
    19   6 C        1.846     0.065    29.502     8.774
    20   6 C        2.958     0.079    26.241     8.402
    21   6 C        1.991    -0.010    31.325     9.039
    22   6 C        1.985    -0.000    31.064     9.001
    23   6 C        1.987     0.044    29.920     8.834
    24   6 C        1.986     0.010    30.796     8.962
    25   6 C        1.989    -0.024    31.683     9.090
    26   6 C        1.986    -0.076    33.110     9.293
    27   6 C        1.992    -0.055    32.542     9.213
    28   6 C        2.960     0.009    27.806     8.649
    29   6 C        1.993    -0.073    33.028     9.281
    30   6 C        2.938     0.101    25.773     8.326
    31   7 N        1.832    -0.159    25.238     7.444
    32   6 C        2.794     0.293    22.044     7.691
    33   8 O        0.860    -0.386    21.404     6.203
    34   6 C        1.963    -0.020    31.596     9.077
    35   6 C        1.963     0.051    29.770     8.811
    36   6 C        1.913    -0.029    31.888     9.120
    37   7 N        2.720     0.169    18.412     6.373
    38   6 C        0.937    -0.105    38.955    10.460
    39   6 C        0.939    -0.067    37.697    10.291

 Mol. C6AA /au·bohr⁶  :      42320.276936
 Mol. C8AA /au·bohr⁸  :    1163953.770353
 Mol. α(0) /au        :        328.314263


Wiberg/Mayer (AO) data.
largest (>0.10) Wiberg bond orders for each atom

 ---------------------------------------------------------------------------
     #   Z sym  total        # sym  WBO       # sym  WBO       # sym  WBO
 ---------------------------------------------------------------------------
     1   6 C    2.270 --     2 C    2.072
     2   6 C    3.328 --     1 C    2.072     3 O    1.123
     3   8 O    2.380 --     2 C    1.123     4 C    1.048
     4   6 C    3.897 --     5 C    1.477    30 C    1.135     3 O    1.048
     5   6 C    3.600 --     4 C    1.477     6 C    1.378    29 C    0.425
     6   6 C    3.886 --     5 C    1.378     7 N    1.169    28 C    1.120
     7   7 N    3.177 --     8 C    1.676     6 C    1.169
     8   6 C    3.663 --     7 N    1.676     9 C    1.565    13 N    0.111
     9   6 C    3.869 --     8 C    1.565    10 C    1.098    12 C    1.000
    10   6 C    3.946 --    11 N    2.796     9 C    1.098
    11   7 N    2.981 --    10 C    2.796
    12   6 C    3.938 --    13 N    1.630    28 C    1.044     9 C    1.000
    13   7 N    3.266 --    12 C    1.630    14 C    1.146     8 C    0.111
    14   6 C    3.876 --    15 C    1.266    27 C    1.246    13 N    1.146
    15   6 C    3.485 --    16 C    1.562    14 C    1.266    27 C    0.330
                            26 C    0.119
    16   6 C    3.380 --    15 C    1.562    17 C    1.248    26 C    0.279
                            27 C    0.113
    17   6 C    3.844 --    26 C    1.261    16 C    1.248    18 O    1.076
    18   8 O    2.430 --    19 C    1.140    17 C    1.076
    19   6 C    2.995 --    20 C    1.232    18 O    1.140
    20   6 C    3.895 --    25 C    1.238    21 C    1.234    19 C    1.232
    21   6 C    3.500 --    22 C    1.640    20 C    1.234    24 C    0.224
                            23 C    0.205
    22   6 C    3.646 --    21 C    1.640    23 C    1.592    25 C    0.268
    23   6 C    3.748 --    22 C    1.592    24 C    1.576    21 C    0.205
Note: The following floating-point exceptions are signalling: IEEE_UNDERFLOW_FLAG IEEE_DENORMAL
normal termination of xtb
                            25 C    0.197
    24   6 C    3.656 --    25 C    1.627    23 C    1.576    21 C    0.224
    25   6 C    3.520 --    24 C    1.627    20 C    1.238    22 C    0.268
                            23 C    0.197
    26   6 C    3.413 --    27 C    1.553    17 C    1.261    16 C    0.279
                            15 C    0.119
    27   6 C    3.438 --    26 C    1.553    14 C    1.246    15 C    0.330
                            16 C    0.113
    28   6 C    3.925 --    29 C    1.495     6 C    1.120    12 C    1.044
    29   6 C    3.726 --    28 C    1.495    30 C    1.376     5 C    0.425
    30   6 C    3.923 --    29 C    1.376    31 N    1.176     4 C    1.135
    31   7 N    3.192 --    32 C    1.474    30 C    1.176    33 O    0.199
    32   6 C    3.940 --    31 N    1.474    33 O    1.401    34 C    0.974
    33   8 O    1.880 --    32 C    1.401    31 N    0.199
    34   6 C    3.686 --    35 C    2.329    32 C    0.974    36 C    0.106
    35   6 C    3.833 --    34 C    2.329    36 C    1.258
    36   6 C    3.042 --    35 C    1.258    37 N    1.036    38 C    0.476
                            34 C    0.106
    37   7 N    3.668 --    38 C    1.299    39 C    1.288    36 C    1.036
    38   6 C    2.368 --    37 N    1.299    36 C    0.476    39 C    0.448
    39   6 C    1.877 --    37 N    1.288    38 C    0.448
 ---------------------------------------------------------------------------

Topologies differ in total number of bonds
Writing topology from bond orders to xtbtopo.mol

molecular dipole:
                 x           y           z       tot (Debye)
 q only:        1.195      -0.001       1.121
   full:        0.752      -0.098       0.949       3.088
molecular quadrupole (traceless):
                xx          xy          yy          xz          yz          zz
 q only:       -8.946      -2.999       4.469     -18.142       5.814       4.477
  q+dip:       -6.222      -7.385       7.279     -23.079       4.098      -1.056
   full:       -9.020     -11.327       7.537     -23.032       3.982       1.484


           -------------------------------------------------
          | TOTAL ENERGY              -91.050665207348 Eh   |
          | GRADIENT NORM               0.539044267768 Eh/α |
          | HOMO-LUMO GAP               0.009736045360 eV   |
           -------------------------------------------------

------------------------------------------------------------------------
 * finished run on 2026/07/23 at 16:42:40.333     
------------------------------------------------------------------------
 total:
 * wall-time:     0 d,  0 h,  0 min,  1.123 sec
 *  cpu-time:     0 d,  0 h,  0 min,  1.143 sec
 * ratio c/w:     1.018 speedup
 SCF:
 * wall-time:     0 d,  0 h,  0 min,  1.104 sec
 *  cpu-time:     0 d,  0 h,  0 min,  1.118 sec
 * ratio c/w:     1.013 speedup

