      -----------------------------------------------------------      
     |                   =====================                   |     
     |                           x T B                           |     
     |                   =====================                   |     
     |                         S. Grimme                         |     
     |          Mulliken Center for Theoretical Chemistry        |     
     |                    University of Bonn                     |     
      -----------------------------------------------------------      

   * xtb version 6.6.1 (unknown) compiled by 'builduser@buildhost' on 2023-08-07

   xtb is free software: you can redistribute it and/or modify it under
   the terms of the GNU Lesser General Public License as published by
   the Free Software Foundation, either version 3 of the License, or
   (at your option) any later version.
   
   xtb is distributed in the hope that it will be useful,
   but WITHOUT ANY WARRANTY; without even the implied warranty of
   MERCHANTABILITY or FITNESS FOR A PARTICULAR PURPOSE.  See the
   GNU Lesser General Public License for more details.
   
   Cite this work as:
   * C. Bannwarth, E. Caldeweyher, S. Ehlert, A. Hansen, P. Pracht,
     J. Seibert, S. Spicher, S. Grimme, WIREs Comput. Mol. Sci., 2020, 11,
     e01493. DOI: 10.1002/wcms.1493
   
   for GFN2-xTB:
   * C. Bannwarth, S. Ehlert and S. Grimme., J. Chem. Theory Comput., 2019,
     15, 1652-1671. DOI: 10.1021/acs.jctc.8b01176
   for GFN1-xTB:
   * S. Grimme, C. Bannwarth, P. Shushkov, J. Chem. Theory Comput., 2017,
     13, 1989-2009. DOI: 10.1021/acs.jctc.7b00118
   for GFN0-xTB:
   * P. Pracht, E. Caldeweyher, S. Ehlert, S. Grimme, ChemRxiv, 2019, preprint.
     DOI: 10.26434/chemrxiv.8326202.v1
   for GFN-FF:
   * S. Spicher and S. Grimme, Angew. Chem. Int. Ed., 2020, 59, 15665-15673.
     DOI: 10.1002/anie.202004239
   
   for ALPB and GBSA implicit solvation:
   * S. Ehlert, M. Stahn, S. Spicher, S. Grimme, J. Chem. Theory Comput.,
     2021, 17, 4250-4261. DOI: 10.1021/acs.jctc.1c00471
   
   for DFT-D4:
   * E. Caldeweyher, C. Bannwarth and S. Grimme, J. Chem. Phys., 2017,
     147, 034112. DOI: 10.1063/1.4993215
   * E. Caldeweyher, S. Ehlert, A. Hansen, H. Neugebauer, S. Spicher,
     C. Bannwarth and S. Grimme, J. Chem. Phys., 2019, 150, 154122.
     DOI: 10.1063/1.5090222
   * E. Caldeweyher, J.-M. Mewes, S. Ehlert and S. Grimme, Phys. Chem. Chem. Phys.
     2020, 22, 8499-8512. DOI: 10.1039/D0CP00502A
   
   for sTDA-xTB:
   * S. Grimme and C. Bannwarth, J. Chem. Phys., 2016, 145, 054103.
     DOI: 10.1063/1.4959605
   
   in the mass-spec context:
   * V. Asgeirsson, C. Bauer and S. Grimme, Chem. Sci., 2017, 8, 4879.
     DOI: 10.1039/c7sc00601b
   * J. Koopman and S. Grimme, ACS Omega 2019, 4, 12, 15120-15133.
     DOI: 10.1021/acsomega.9b02011
   
   for metadynamics refer to:
   * S. Grimme, J. Chem. Theory Comput., 2019, 155, 2847-2862
     DOI: 10.1021/acs.jctc.9b00143
   
   for SPH calculations refer to:
   * S. Spicher and S. Grimme, J. Chem. Theory Comput., 2021, 17, 1701-1714
     DOI: 10.1021/acs.jctc.0c01306
   
   with help from (in alphabetical order)
   P. Atkinson, C. Bannwarth, F. Bohle, G. Brandenburg, E. Caldeweyher
   M. Checinski, S. Dohm, S. Ehlert, S. Ehrlich, I. Gerasimov, C. Hölzer
   A. Katbashev, J. Koopman, C. Lavigne, S. Lehtola, F. März, M. Müller,
   F. Musil, H. Neugebauer, J. Pisarek, C. Plett, P. Pracht, F. Pultar,
   J. Seibert, P. Shushkov, S. Spicher, M. Stahn, M. Steiner, T. Strunk,
   J. Stückrath, T. Rose, and J. Unsleber
   
 * started run on 2026/07/23 at 16:41:32.984     

           -------------------------------------------------
          |                Calculation Setup                |
           -------------------------------------------------

          program call               : xtb /home/selva/covalent_quantum_benchmark/data/quantum/erbB_xyz/ERBB2__CHEMBL203661__state02.xyz --gfn2 --chrg 0 --uhf 0 --iterations 300
          coordinate file            : /home/selva/covalent_quantum_benchmark/data/quantum/erbB_xyz/ERBB2__CHEMBL203661__state02.xyz
          omp threads                :                    24

   ID    Z sym.   atoms
    1    8 O      1, 10
    2    6 C      2-6, 8, 9, 11, 12, 14-17, 19-22, 24, 26, 28, 30, 31
    3    7 N      7, 13, 18, 27, 29, 32
    4    9 F      23
    5   17 Cl     25

           -------------------------------------------------
          |                 G F N 2 - x T B                 |
           -------------------------------------------------

        Reference                      10.1021/acs.jctc.8b01176
      * Hamiltonian:
        H0-scaling (s, p, d)           1.850000    2.230000    2.230000
        zeta-weighting                 0.500000
      * Dispersion:
        s8                             2.700000
        a1                             0.520000
        a2                             5.000000
        s9                             5.000000
      * Repulsion:
        kExp                           1.500000    1.000000
        rExp                           1.000000
      * Coulomb:
        alpha                          2.000000
        third order                    shell-resolved
        anisotropic                    true
        a3                             3.000000
        a5                             4.000000
        cn-shift                       1.200000
        cn-exp                         4.000000
        max-rad                        5.000000


          ...................................................
          :                      SETUP                      :
          :.................................................:
          :  # basis functions                 134          :
          :  # atomic orbitals                 133          :
          :  # shells                           65          :
          :  # electrons                       144          :
          :  max. iterations                   300          :
          :  Hamiltonian                  GFN2-xTB          :
          :  restarted?                      false          :
          :  GBSA solvation                  false          :
          :  PC potential                    false          :
          :  electronic temp.          300.0000000     K    :
          :  accuracy                    1.0000000          :
          :  -> integral cutoff          0.2500000E+02      :
          :  -> integral neglect         0.1000000E-07      :
          :  -> SCF convergence          0.1000000E-05 Eh   :
          :  -> wf. convergence          0.1000000E-03 e    :
          :  Broyden damping             0.4000000          :
          ...................................................

 iter      E             dE          RMSdq      gap      omega  full diag
   1    -81.1910172 -0.811910E+02  0.714E+00    0.42       0.0  T
   2    -76.4276634  0.476335E+01  0.832E+00    0.24       1.0  T
   3    -67.4714070  0.895626E+01  0.971E+00    0.15       1.0  T
   4    -56.5177440  0.109537E+02  0.115E+01    0.10       1.0  T
   5    -71.9025474 -0.153848E+02  0.798E+00    0.01       1.0  T
   6    -81.0008932 -0.909835E+01  0.337E+00    0.08       1.0  T
   7    -81.0992020 -0.983087E-01  0.330E+00    0.19       1.0  T
   8    -81.3911310 -0.291929E+00  0.214E+00    0.03       1.0  T
   9    -81.2223641  0.168767E+00  0.274E+00    0.14       1.0  T
  10    -81.4275195 -0.205155E+00  0.201E+00    0.14       1.0  T
  11    -81.1501184  0.277401E+00  0.223E+00    0.10       1.0  T
  12    -81.4543439 -0.304225E+00  0.170E+00    0.13       1.0  T
  13    -81.2954872  0.158857E+00  0.183E+00    0.04       1.0  T
  14    -81.5087629 -0.213276E+00  0.125E+00    0.05       1.0  T
  15    -81.5437193 -0.349564E-01  0.128E+00    0.07       1.0  T
  16    -81.6030872 -0.593679E-01  0.885E-01    0.05       1.0  T
  17    -81.6095703 -0.648303E-02  0.808E-01    0.05       1.0  T
  18    -81.6209624 -0.113921E-01  0.684E-01    0.05       1.0  T
  19    -81.6134297  0.753263E-02  0.702E-01    0.05       1.0  T
  20    -81.6377891 -0.243594E-01  0.282E-01    0.05       1.0  T
  21    -81.6360509  0.173818E-02  0.313E-01    0.06       1.0  T
  22    -81.6377335 -0.168264E-02  0.268E-01    0.05       1.0  T
  23    -81.6390585 -0.132492E-02  0.218E-01    0.05       1.0  T
  24    -81.6391958 -0.137353E-03  0.198E-01    0.05       1.0  T
  25    -81.6395382 -0.342398E-03  0.174E-01    0.05       1.0  T
  26    -81.6400826 -0.544396E-03  0.149E-01    0.05       1.0  T
  27    -81.6402282 -0.145627E-03  0.147E-01    0.05       1.0  T
  28    -81.6403617 -0.133488E-03  0.143E-01    0.05       1.0  T
  29    -81.6416875 -0.132581E-02  0.933E-02    0.05       1.0  T
  30    -81.6426626 -0.975055E-03  0.413E-02    0.05       1.0  T
  31    -81.6427291 -0.664941E-04  0.268E-02    0.05       1.0  T
  32    -81.6427623 -0.331737E-04  0.188E-02    0.05       1.0  T
  33    -81.6427124  0.498337E-04  0.325E-02    0.05       1.0  T
  34    -81.6427774 -0.649973E-04  0.128E-02    0.05       1.4  T
  35    -81.6427661  0.113502E-04  0.158E-02    0.05       1.1  T
  36    -81.6427656  0.523572E-06  0.160E-02    0.05       1.1  T
  37    -81.6427555  0.100896E-04  0.168E-02    0.05       1.1  T
  38    -81.6427844 -0.289504E-04  0.628E-03    0.05       2.8  T
  39    -81.6427876 -0.314044E-05  0.173E-03    0.05      10.2  T
  40    -81.6427875  0.343786E-07  0.149E-03    0.05      11.9  T
  41    -81.6427878 -0.233171E-06  0.423E-04    0.05      41.8  T
  42    -81.6427877  0.167411E-07  0.547E-04    0.05      32.3  T

   *** convergence criteria satisfied after 42 iterations ***

         #    Occupation            Energy/Eh            Energy/eV
      -------------------------------------------------------------
         1        2.0000           -1.0832832             -29.4776
       ...           ...                  ...                  ...
        66        2.0000           -0.4352102             -11.8427
        67        1.9999           -0.4277777             -11.6404
        68        1.9999           -0.4277165             -11.6388
        69        1.9958           -0.4245063             -11.5514
        70        1.9789           -0.4229722             -11.5097
        71        1.9110           -0.4215706             -11.4715
        72        1.5059           -0.4197154             -11.4210 (HOMO)
        73        0.6086           -0.4178710             -11.3708 (LUMO)
        74        0.0000           -0.4060526             -11.0493
        75                         -0.4006268             -10.9016
        76                         -0.3870517             -10.5322
        77                         -0.3679082             -10.0113
       ...                                ...                  ...
       133                          1.3152558              35.7899
      -------------------------------------------------------------
                  HL-Gap            0.0018444 Eh            0.0502 eV
             Fermi-level           -0.4186566 Eh          -11.3922 eV

 SCC (total)                   0 d,  0 h,  0 min,  0.425 sec
 SCC setup                      ...        0 min,  0.000 sec (  0.066%)
 Dispersion                     ...        0 min,  0.001 sec (  0.284%)
 classical contributions        ...        0 min,  0.000 sec (  0.096%)
 integral evaluation            ...        0 min,  0.004 sec (  0.955%)
 iterations                     ...        0 min,  0.395 sec ( 92.873%)
 molecular gradient             ...        0 min,  0.023 sec (  5.358%)
 printout                       ...        0 min,  0.002 sec (  0.363%)

         :::::::::::::::::::::::::::::::::::::::::::::::::::::
         ::                     SUMMARY                     ::
         :::::::::::::::::::::::::::::::::::::::::::::::::::::
         :: total energy             -80.785941011611 Eh    ::
         :: gradient norm              0.487670158168 Eh/a0 ::
         :: HOMO-LUMO gap              0.050187734191 eV    ::
         ::.................................................::
         :: SCC energy               -81.642787737267 Eh    ::
         :: -> isotropic ES            0.055156159551 Eh    ::
         :: -> anisotropic ES          0.009554138659 Eh    ::
         :: -> anisotropic XC          0.038290878467 Eh    ::
         :: -> dispersion             -0.041852109535 Eh    ::
         :: repulsion energy           0.857352313143 Eh    ::
         :: add. restraining           0.000000000000 Eh    ::
         :: total charge               0.000000000001 e     ::
         :::::::::::::::::::::::::::::::::::::::::::::::::::::

           -------------------------------------------------
          |                Property Printout                |
           -------------------------------------------------

    * Orbital Energies and Occupations

         #    Occupation            Energy/Eh            Energy/eV
      -------------------------------------------------------------
         1        2.0000           -1.0832832             -29.4776
       ...           ...                  ...                  ...
        60        2.0000           -0.4595024             -12.5037
        61        2.0000           -0.4541134             -12.3571
        62        2.0000           -0.4503562             -12.2548
        63        2.0000           -0.4496943             -12.2368
        64        2.0000           -0.4415086             -12.0141
        65        2.0000           -0.4385021             -11.9322
        66        2.0000           -0.4352102             -11.8427
        67        1.9999           -0.4277777             -11.6404
        68        1.9999           -0.4277165             -11.6388
        69        1.9958           -0.4245063             -11.5514
        70        1.9789           -0.4229722             -11.5097
        71        1.9110           -0.4215706             -11.4715
        72        1.5059           -0.4197154             -11.4210 (HOMO)
        73        0.6086           -0.4178710             -11.3708 (LUMO)
        74        0.0000           -0.4060526             -11.0493
        75                         -0.4006268             -10.9016
        76                         -0.3870517             -10.5322
        77                         -0.3679082             -10.0113
        78                         -0.3665954              -9.9756
        79                         -0.3566699              -9.7055
        80                         -0.3491196              -9.5000
        81                         -0.3346726              -9.1069
        82                         -0.3332881              -9.0692
        83                         -0.3187059              -8.6724
       ...                                ...                  ...
       133                          1.3152558              35.7899
      -------------------------------------------------------------
                  HL-Gap            0.0018444 Eh            0.0502 eV
             Fermi-level           -0.4186566 Eh          -11.3922 eV

     #   Z          covCN         q      C6AA      α(0)
     1   8 O        0.860    -0.334    20.405     6.056
     2   6 C        2.795     0.327    21.446     7.586
     3   6 C        1.970     0.007    30.896     8.976
     4   6 C        1.965     0.043    29.961     8.839
     5   6 C        1.953     0.008    30.860     8.971
     6   6 C        1.901    -0.004    31.222     9.024
     7   7 N        2.719     0.088    19.718     6.595
     8   6 C        1.903    -0.029    31.893     9.121
     9   6 C        1.850     0.036    30.236     8.883
    10   8 O        1.695    -0.105    15.907     5.385
    11   6 C        1.850     0.036    30.232     8.882
    12   6 C        1.907    -0.024    31.749     9.100
    13   7 N        1.839    -0.201    26.188     7.584
    14   6 C        2.870     0.207    23.623     7.967
    15   6 C        1.983    -0.070    32.943     9.269
    16   6 C        2.972     0.013    27.729     8.638
    17   6 C        2.899     0.197    23.821     8.003
    18   7 N        1.837    -0.113    24.231     7.295
    19   6 C        2.934     0.128    25.189     8.231
    20   6 C        1.993    -0.046    32.277     9.175
    21   6 C        1.987    -0.022    31.626     9.082
    22   6 C        2.806     0.180    24.141     8.050
    23   9 F        0.787    -0.169    10.925     3.904
    24   6 C        2.878     0.088    26.029     8.364
    25  17 Cl       0.962    -0.075   101.483    15.412
    26   6 C        2.029    -0.072    32.974     9.274
    27   7 N        1.832    -0.165    25.366     7.463
    28   6 C        1.896     0.166    27.125     8.411
    29   7 N        1.834    -0.146    24.954     7.403
    30   6 C        2.907     0.135    25.058     8.208
    31   6 C        1.923     0.020    30.582     8.931
    32   7 N        1.833    -0.103    24.011     7.261

 Mol. C6AA /au·bohr⁶  :      28437.587536
 Mol. C8AA /au·bohr⁸  :     785660.888618
 Mol. α(0) /au        :        265.342975


Wiberg/Mayer (AO) data.
largest (>0.10) Wiberg bond orders for each atom

 ---------------------------------------------------------------------------
     #   Z sym  total        # sym  WBO       # sym  WBO       # sym  WBO
 ---------------------------------------------------------------------------
     1   8 O    1.988 --     2 C    1.687
     2   6 C    3.931 --     1 O    1.687    13 N    1.129     3 C    1.032
     3   6 C    3.870 --     4 C    2.559     2 C    1.032     6 C    0.154
     4   6 C    3.954 --     3 C    2.559     5 C    1.234
     5   6 C    3.698 --     6 C    2.050     4 C    1.234
     6   6 C    3.586 --     5 C    2.050     7 N    1.134     3 C    0.154
     7   7 N    3.589 --     6 C    1.134    12 C    1.091     8 C    1.061
     8   6 C    3.328 --     9 C    1.488     7 N    1.061    11 C    0.333
                            12 C    0.198
     9   6 C    3.307 --     8 C    1.488    10 O    1.118    12 C    0.323
                            11 C    0.182
    10   8 O    2.523 --     9 C    1.118    11 C    1.103
    11   6 C    3.316 --    12 C    1.532    10 O    1.103     8 C    0.333
                             9 C    0.182
    12   6 C    3.348 --    11 C    1.532     7 N    1.091     9 C    0.323
                             8 C    0.198
    13   7 N    2.961 --    14 C    1.505     2 C    1.129
    14   6 C    3.916 --    13 N    1.505    32 N    1.170    15 C    1.085
    15   6 C    3.572 --    16 C    1.678    14 C    1.085    31 C    0.357
                            32 N    0.105
    16   6 C    3.964 --    15 C    1.678    17 C    1.016    30 C    1.014
    17   6 C    3.943 --    18 N    1.643    27 N    1.081    16 C    1.016
    18   7 N    3.327 --    17 C    1.643    19 C    1.089    28 C    0.198
    19   6 C    3.936 --    26 C    1.341    20 C    1.297    18 N    1.089
    20   6 C    3.686 --    21 C    1.685    19 C    1.297    26 C    0.365
                            24 C    0.112
    21   6 C    3.380 --    20 C    1.685    22 C    1.377    26 C    0.138
    22   6 C    3.838 --    21 C    1.377    24 C    1.275    23 F    0.990
    23   9 F    1.147 --    22 C    0.990
    24   6 C    3.895 --    26 C    1.430    22 C    1.275    25 Cl   1.001
                            20 C    0.112
    25  17 Cl   1.182 --    24 C    1.001
    26   6 C    3.463 --    24 C    1.430    19 C    1.341    20 C    0.365
                            21 C    0.138
    27   7 N    3.171 --    28 C    1.751    17 C    1.081
    28   6 C    3.789 --    27 N    1.751    29 N    1.524    18 N    0.198
    29   7 N    3.137 --    28 C    1.524    30 C    1.253
    30   6 C    3.829 --    31 C    1.361    29 N    1.253    16 C    1.014
    31   6 C    3.654 --    32 N    1.695    30 C    1.361    15 C    0.357
    32   7 N    3.297 --    31 C    1.695    14 C    1.170    15 C    0.105
 ---------------------------------------------------------------------------

Topologies differ in total number of bonds
Writing topology from bond orders to xtbtopo.mol

molecular dipole:
                 x           y           z       tot (Debye)
 q only:        0.043      -0.275       0.443
   full:        0.340      -0.524      -0.446       1.950
molecular quadrupole (traceless):
                xx          xy          yy          xz          yz          zz
 q only:       -4.919     -10.848      -1.705      11.882       9.332       6.624
  q+dip:      -12.811     -13.835      -1.930       5.654       7.486      14.741
Note: The following floating-point exceptions are signalling: IEEE_UNDERFLOW_FLAG IEEE_DENORMAL
normal termination of xtb
   full:      -11.755     -16.037      -3.176      10.259       6.438      14.931


           -------------------------------------------------
          | TOTAL ENERGY              -80.785941011611 Eh   |
          | GRADIENT NORM               0.487670158168 Eh/α |
          | HOMO-LUMO GAP               0.050187734191 eV   |
           -------------------------------------------------

------------------------------------------------------------------------
 * finished run on 2026/07/23 at 16:41:33.423     
------------------------------------------------------------------------
 total:
 * wall-time:     0 d,  0 h,  0 min,  0.439 sec
 *  cpu-time:     0 d,  0 h,  0 min,  0.449 sec
 * ratio c/w:     1.023 speedup
 SCF:
 * wall-time:     0 d,  0 h,  0 min,  0.426 sec
 *  cpu-time:     0 d,  0 h,  0 min,  0.432 sec
 * ratio c/w:     1.015 speedup

