      -----------------------------------------------------------      
     |                   =====================                   |     
     |                           x T B                           |     
     |                   =====================                   |     
     |                         S. Grimme                         |     
     |          Mulliken Center for Theoretical Chemistry        |     
     |                    University of Bonn                     |     
      -----------------------------------------------------------      

   * xtb version 6.6.1 (unknown) compiled by 'builduser@buildhost' on 2023-08-07

   xtb is free software: you can redistribute it and/or modify it under
   the terms of the GNU Lesser General Public License as published by
   the Free Software Foundation, either version 3 of the License, or
   (at your option) any later version.
   
   xtb is distributed in the hope that it will be useful,
   but WITHOUT ANY WARRANTY; without even the implied warranty of
   MERCHANTABILITY or FITNESS FOR A PARTICULAR PURPOSE.  See the
   GNU Lesser General Public License for more details.
   
   Cite this work as:
   * C. Bannwarth, E. Caldeweyher, S. Ehlert, A. Hansen, P. Pracht,
     J. Seibert, S. Spicher, S. Grimme, WIREs Comput. Mol. Sci., 2020, 11,
     e01493. DOI: 10.1002/wcms.1493
   
   for GFN2-xTB:
   * C. Bannwarth, S. Ehlert and S. Grimme., J. Chem. Theory Comput., 2019,
     15, 1652-1671. DOI: 10.1021/acs.jctc.8b01176
   for GFN1-xTB:
   * S. Grimme, C. Bannwarth, P. Shushkov, J. Chem. Theory Comput., 2017,
     13, 1989-2009. DOI: 10.1021/acs.jctc.7b00118
   for GFN0-xTB:
   * P. Pracht, E. Caldeweyher, S. Ehlert, S. Grimme, ChemRxiv, 2019, preprint.
     DOI: 10.26434/chemrxiv.8326202.v1
   for GFN-FF:
   * S. Spicher and S. Grimme, Angew. Chem. Int. Ed., 2020, 59, 15665-15673.
     DOI: 10.1002/anie.202004239
   
   for ALPB and GBSA implicit solvation:
   * S. Ehlert, M. Stahn, S. Spicher, S. Grimme, J. Chem. Theory Comput.,
     2021, 17, 4250-4261. DOI: 10.1021/acs.jctc.1c00471
   
   for DFT-D4:
   * E. Caldeweyher, C. Bannwarth and S. Grimme, J. Chem. Phys., 2017,
     147, 034112. DOI: 10.1063/1.4993215
   * E. Caldeweyher, S. Ehlert, A. Hansen, H. Neugebauer, S. Spicher,
     C. Bannwarth and S. Grimme, J. Chem. Phys., 2019, 150, 154122.
     DOI: 10.1063/1.5090222
   * E. Caldeweyher, J.-M. Mewes, S. Ehlert and S. Grimme, Phys. Chem. Chem. Phys.
     2020, 22, 8499-8512. DOI: 10.1039/D0CP00502A
   
   for sTDA-xTB:
   * S. Grimme and C. Bannwarth, J. Chem. Phys., 2016, 145, 054103.
     DOI: 10.1063/1.4959605
   
   in the mass-spec context:
   * V. Asgeirsson, C. Bauer and S. Grimme, Chem. Sci., 2017, 8, 4879.
     DOI: 10.1039/c7sc00601b
   * J. Koopman and S. Grimme, ACS Omega 2019, 4, 12, 15120-15133.
     DOI: 10.1021/acsomega.9b02011
   
   for metadynamics refer to:
   * S. Grimme, J. Chem. Theory Comput., 2019, 155, 2847-2862
     DOI: 10.1021/acs.jctc.9b00143
   
   for SPH calculations refer to:
   * S. Spicher and S. Grimme, J. Chem. Theory Comput., 2021, 17, 1701-1714
     DOI: 10.1021/acs.jctc.0c01306
   
   with help from (in alphabetical order)
   P. Atkinson, C. Bannwarth, F. Bohle, G. Brandenburg, E. Caldeweyher
   M. Checinski, S. Dohm, S. Ehlert, S. Ehrlich, I. Gerasimov, C. Hölzer
   A. Katbashev, J. Koopman, C. Lavigne, S. Lehtola, F. März, M. Müller,
   F. Musil, H. Neugebauer, J. Pisarek, C. Plett, P. Pracht, F. Pultar,
   J. Seibert, P. Shushkov, S. Spicher, M. Stahn, M. Steiner, T. Strunk,
   J. Stückrath, T. Rose, and J. Unsleber
   
 * started run on 2026/07/23 at 16:42:43.395     

           -------------------------------------------------
          |                Calculation Setup                |
           -------------------------------------------------

          program call               : xtb /home/selva/covalent_quantum_benchmark/data/quantum/erbB_xyz/ERBB2__CHEMBL382073__state02.xyz --gfn2 --chrg 0 --uhf 0 --iterations 300
          coordinate file            : /home/selva/covalent_quantum_benchmark/data/quantum/erbB_xyz/ERBB2__CHEMBL382073__state02.xyz
          omp threads                :                    24

   ID    Z sym.   atoms
    1    6 C      1, 2, 4-10, 13-16, 18, 20, 22-25, 27, 29-31
    2    7 N      3, 12, 17, 19, 21
    3    8 O      11
    4    9 F      26
    5   17 Cl     28

           -------------------------------------------------
          |                 G F N 2 - x T B                 |
           -------------------------------------------------

        Reference                      10.1021/acs.jctc.8b01176
      * Hamiltonian:
        H0-scaling (s, p, d)           1.850000    2.230000    2.230000
        zeta-weighting                 0.500000
      * Dispersion:
        s8                             2.700000
        a1                             0.520000
        a2                             5.000000
        s9                             5.000000
      * Repulsion:
        kExp                           1.500000    1.000000
        rExp                           1.000000
      * Coulomb:
        alpha                          2.000000
        third order                    shell-resolved
        anisotropic                    true
        a3                             3.000000
        a5                             4.000000
        cn-shift                       1.200000
        cn-exp                         4.000000
        max-rad                        5.000000


          ...................................................
          :                      SETUP                      :
          :.................................................:
          :  # basis functions                 130          :
          :  # atomic orbitals                 129          :
          :  # shells                           63          :
          :  # electrons                       137          :
          :  max. iterations                   300          :
          :  Hamiltonian                  GFN2-xTB          :
          :  restarted?                      false          :
          :  GBSA solvation                  false          :
          :  PC potential                    false          :
          :  electronic temp.          300.0000000     K    :
          :  accuracy                    1.0000000          :
          :  -> integral cutoff          0.2500000E+02      :
          :  -> integral neglect         0.1000000E-07      :
          :  -> SCF convergence          0.1000000E-05 Eh   :
          :  -> wf. convergence          0.1000000E-03 e    :
          :  Broyden damping             0.4000000          :
          ...................................................

 iter      E             dE          RMSdq      gap      omega  full diag
   1    -75.8815962 -0.758816E+02  0.887E+00    0.34       0.0  T
   2    -68.5573746  0.732422E+01  0.105E+01    0.06       1.0  T
   3    -51.4708584  0.170865E+02  0.124E+01    0.13       1.0  T
   4    -41.2538056  0.102171E+02  0.141E+01    0.12       1.0  T
   5    -72.6342108 -0.313804E+02  0.749E+00    0.29       1.0  T
   6    -71.0259138  0.160830E+01  0.695E+00    0.37       1.0  T
   7    -72.7099101 -0.168400E+01  0.584E+00    0.19       1.0  T
   8    -73.7830420 -0.107313E+01  0.565E+00    0.25       1.0  T
   9    -75.4666606 -0.168362E+01  0.439E+00    0.01       1.0  T
  10    -75.6609076 -0.194247E+00  0.358E+00    0.13       1.0  T
  11    -75.3159929  0.344915E+00  0.360E+00    0.18       1.0  T
  12    -75.8265526 -0.510560E+00  0.309E+00    0.12       1.0  T
  13    -75.5773125  0.249240E+00  0.329E+00    0.36       1.0  T
  14    -75.7071093 -0.129797E+00  0.347E+00    0.15       1.0  T
  15    -76.0630627 -0.355953E+00  0.287E+00    0.02       1.0  T
  16    -76.3728463 -0.309784E+00  0.204E+00    0.05       1.0  T
  17    -76.4600287 -0.871824E-01  0.159E+00    0.05       1.0  T
  18    -76.4860409 -0.260121E-01  0.157E+00    0.04       1.0  T
  19    -76.4502432  0.357977E-01  0.158E+00    0.06       1.0  T
  20    -76.4962471 -0.460039E-01  0.135E+00    0.03       1.0  T
  21    -76.5016799 -0.543276E-02  0.128E+00    0.04       1.0  T
  22    -76.3296505  0.172029E+00  0.164E+00    0.04       1.0  T
  23    -76.4368938 -0.107243E+00  0.136E+00    0.03       1.0  T
  24    -76.5430029 -0.106109E+00  0.737E-01    0.03       1.0  T
  25    -76.5533280 -0.103251E-01  0.524E-01    0.03       1.0  T
  26    -76.5535745 -0.246533E-03  0.403E-01    0.04       1.0  T
  27    -76.5534936  0.808877E-04  0.363E-01    0.04       1.0  T
  28    -76.5589199 -0.542628E-02  0.324E-01    0.03       1.0  T
  29    -76.5583233  0.596605E-03  0.235E-01    0.03       1.0  T
  30    -76.5608327 -0.250939E-02  0.167E-01    0.03       1.0  T
  31    -76.5608031  0.296414E-04  0.169E-01    0.03       1.0  T
  32    -76.5628256 -0.202249E-02  0.682E-02    0.03       1.0  T
  33    -76.5629578 -0.132288E-03  0.455E-02    0.03       1.0  T
  34    -76.5628735  0.843816E-04  0.436E-02    0.03       1.0  T
  35    -76.5629694 -0.958975E-04  0.301E-02    0.03       1.0  T
  36    -76.5629745 -0.510969E-05  0.280E-02    0.03       1.0  T
  37    -76.5630244 -0.498795E-04  0.137E-02    0.03       1.3  T
  38    -76.5629991  0.252272E-04  0.208E-02    0.03       1.0  T
  39    -76.5630060 -0.688346E-05  0.181E-02    0.03       1.0  T
  40    -76.5630063 -0.246601E-06  0.179E-02    0.03       1.0  T
  41    -76.5630297 -0.234510E-04  0.593E-03    0.03       3.0  T
  42    -76.5630233  0.636604E-05  0.100E-02    0.03       1.8  T
  43    -76.5630306 -0.727465E-05  0.481E-03    0.03       3.7  T
  44    -76.5630304  0.220059E-06  0.485E-03    0.03       3.7  T
  45    -76.5630313 -0.926687E-06  0.361E-03    0.03       5.0  T
  46    -76.5630323 -0.101555E-05  0.977E-04    0.03      18.4  T
  47    -76.5630324 -0.323668E-07  0.554E-04    0.03      32.4  T
  48    -76.5630324 -0.879285E-08  0.380E-04    0.03      47.3  T

   *** convergence criteria satisfied after 48 iterations ***

         #    Occupation            Energy/Eh            Energy/eV
      -------------------------------------------------------------
         1        2.0000           -1.0870644             -29.5805
       ...           ...                  ...                  ...
        63        2.0000           -0.4350102             -11.8372
        64        1.9999           -0.4321302             -11.7589
        65        1.9997           -0.4313292             -11.7371
        66        1.8901           -0.4255366             -11.5794
        67        1.8033           -0.4249214             -11.5627
        68        1.6625           -0.4243009             -11.5458
        69        1.0722           -0.4227754             -11.5043 (HOMO)
        70        0.5713           -0.4216355             -11.4733 (LUMO)
        71        0.0011           -0.4152894             -11.3006
        72                         -0.4006241             -10.9015
        73                         -0.3975598             -10.8182
        74                         -0.3775005             -10.2723
       ...                                ...                  ...
       129                          1.3052789              35.5184
      -------------------------------------------------------------
                  HL-Gap            0.0011399 Eh            0.0310 eV
             Fermi-level           -0.4226186 Eh          -11.5000 eV

 SCC (total)                   0 d,  0 h,  0 min,  0.530 sec
 SCC setup                      ...        0 min,  0.000 sec (  0.080%)
 Dispersion                     ...        0 min,  0.001 sec (  0.228%)
 classical contributions        ...        0 min,  0.001 sec (  0.140%)
 integral evaluation            ...        0 min,  0.009 sec (  1.617%)
 iterations                     ...        0 min,  0.497 sec ( 93.929%)
 molecular gradient             ...        0 min,  0.017 sec (  3.142%)
 printout                       ...        0 min,  0.005 sec (  0.859%)

         :::::::::::::::::::::::::::::::::::::::::::::::::::::
         ::                     SUMMARY                     ::
         :::::::::::::::::::::::::::::::::::::::::::::::::::::
         :: total energy             -75.713626109397 Eh    ::
         :: gradient norm              0.506764731744 Eh/a0 ::
         :: HOMO-LUMO gap              0.031019228934 eV    ::
         ::.................................................::
         :: SCC energy               -76.563032377311 Eh    ::
         :: -> isotropic ES            0.023552559903 Eh    ::
         :: -> anisotropic ES          0.006160603201 Eh    ::
         :: -> anisotropic XC          0.047048155879 Eh    ::
         :: -> dispersion             -0.041926230191 Eh    ::
         :: repulsion energy           0.849804378847 Eh    ::
         :: add. restraining           0.000000000000 Eh    ::
         :: total charge               0.000000000023 e     ::
         :::::::::::::::::::::::::::::::::::::::::::::::::::::

           -------------------------------------------------
          |                Property Printout                |
           -------------------------------------------------

    * Orbital Energies and Occupations

         #    Occupation            Energy/Eh            Energy/eV
      -------------------------------------------------------------
         1        2.0000           -1.0870644             -29.5805
       ...           ...                  ...                  ...
        57        2.0000           -0.4504879             -12.2584
        58        2.0000           -0.4481466             -12.1947
        59        2.0000           -0.4461754             -12.1410
        60        2.0000           -0.4444317             -12.0936
        61        2.0000           -0.4406387             -11.9904
        62        2.0000           -0.4401730             -11.9777
        63        2.0000           -0.4350102             -11.8372
        64        1.9999           -0.4321302             -11.7589
        65        1.9997           -0.4313292             -11.7371
        66        1.8901           -0.4255366             -11.5794
        67        1.8033           -0.4249214             -11.5627
        68        1.6625           -0.4243009             -11.5458
        69        1.0722           -0.4227754             -11.5043 (HOMO)
        70        0.5713           -0.4216355             -11.4733 (LUMO)
        71        0.0011           -0.4152894             -11.3006
        72                         -0.4006241             -10.9015
        73                         -0.3975598             -10.8182
        74                         -0.3775005             -10.2723
        75                         -0.3610892              -9.8257
        76                         -0.3603986              -9.8069
        77                         -0.3569611              -9.7134
        78                         -0.3544411              -9.6448
        79                         -0.3206897              -8.7264
        80                         -0.3141845              -8.5494
       ...                                ...                  ...
       129                          1.3052789              35.5184
      -------------------------------------------------------------
                  HL-Gap            0.0011399 Eh            0.0310 eV
             Fermi-level           -0.4226186 Eh          -11.5000 eV

     #   Z          covCN         q      C6AA      α(0)
     1   6 C        0.976    -0.108    39.325    10.530
     2   6 C        1.901     0.003    31.044     8.999
     3   7 N        2.720     0.131    19.016     6.477
     4   6 C        1.901     0.005    30.976     8.989
     5   6 C        0.976    -0.111    39.417    10.543
     6   6 C        1.893     0.022    30.545     8.926
     7   6 C        1.952     0.012    30.760     8.956
     8   6 C        1.963     0.049    29.830     8.820
     9   6 C        1.975     0.023    30.467     8.914
    10   6 C        2.748     0.325    21.472     7.588
    11   8 O        0.860    -0.344    20.591     6.084
    12   7 N        1.838    -0.188    25.899     7.542
    13   6 C        2.896     0.152    24.711     8.150
    14   6 C        1.987    -0.015    31.446     9.056
    15   6 C        1.992    -0.005    31.179     9.017
    16   6 C        2.950     0.125    25.251     8.242
    17   7 N        1.830    -0.150    25.030     7.414
    18   6 C        1.889     0.166    27.111     8.410
    19   7 N        1.832    -0.193    26.014     7.558
    20   6 C        2.855     0.202    23.722     7.983
    21   7 N        1.836    -0.122    24.429     7.324
    22   6 C        2.932     0.131    25.131     8.221
    23   6 C        1.993    -0.036    32.006     9.136
    24   6 C        1.987    -0.020    31.579     9.075
    25   6 C        2.806     0.181    24.123     8.047
    26   9 F        0.787    -0.165    10.879     3.896
    27   6 C        2.879     0.089    26.013     8.361
    28  17 Cl       0.962    -0.064   101.161    15.387
    29   6 C        2.030    -0.068    32.857     9.258
    30   6 C        2.978     0.008    27.836     8.654
    31   6 C        1.993    -0.035    31.977     9.132

 Mol. C6AA /au·bohr⁶  :      27792.890692
 Mol. C8AA /au·bohr⁸  :     779456.354616
 Mol. α(0) /au        :        264.689298


Wiberg/Mayer (AO) data.
largest (>0.10) Wiberg bond orders for each atom

 ---------------------------------------------------------------------------
     #   Z sym  total        # sym  WBO       # sym  WBO       # sym  WBO
 ---------------------------------------------------------------------------
     1   6 C    2.532 --     2 C    2.012     5 C    0.121     4 C    0.116
                             7 C    0.100
     2   6 C    3.572 --     1 C    2.012     3 N    1.182     6 C    0.119
                             5 C    0.110
     3   7 N    3.681 --     4 C    1.191     2 C    1.182     6 C    1.074
     4   6 C    3.548 --     5 C    2.031     3 N    1.191     1 C    0.116
     5   6 C    2.488 --     4 C    2.031     1 C    0.121     2 C    0.110
     6   6 C    3.455 --     7 C    1.833     3 N    1.074     9 C    0.121
                             2 C    0.119
     7   6 C    3.521 --     6 C    1.833     8 C    1.238     1 C    0.100
     8   6 C    3.959 --     9 C    2.536     7 C    1.238
     9   6 C    3.910 --     8 C    2.536    10 C    1.015     6 C    0.121
    10   6 C    3.932 --    11 O    1.666    12 N    1.186     9 C    1.015
    11   8 O    1.936 --    10 C    1.666    12 N    0.102
    12   7 N    2.873 --    13 C    1.268    10 C    1.186    15 C    0.143
                            11 O    0.102
    13   6 C    3.891 --    12 N    1.268    31 C    1.257    14 C    1.211
    14   6 C    3.629 --    15 C    1.707    13 C    1.211    31 C    0.264
    15   6 C    3.513 --    14 C    1.707    16 C    1.308    31 C    0.144
                            12 N    0.143
    16   6 C    3.857 --    15 C    1.308    30 C    1.188    17 N    1.104
    17   7 N    3.090 --    18 C    1.678    16 C    1.104
    18   6 C    3.826 --    17 N    1.678    19 N    1.628    21 N    0.129
    19   7 N    3.196 --    18 C    1.628    20 C    1.156    21 N    0.106
    20   6 C    3.953 --    21 N    1.583    19 N    1.156    30 C    1.024
    21   7 N    3.248 --    20 C    1.583    22 C    1.096    18 C    0.129
                            19 N    0.106
    22   6 C    3.927 --    29 C    1.344    23 C    1.291    21 N    1.096
    23   6 C    3.611 --    24 C    1.655    22 C    1.291    29 C    0.349
                            27 C    0.107
    24   6 C    3.408 --    23 C    1.655    25 C    1.379    29 C    0.156
    25   6 C    3.832 --    24 C    1.379    27 C    1.269    26 F    0.992
    26   9 F    1.147 --    25 C    0.992
    27   6 C    3.891 --    29 C    1.432    25 C    1.269    28 Cl   1.005
                            23 C    0.107
    28  17 Cl   1.190 --    27 C    1.005
    29   6 C    3.464 --    27 C    1.432    22 C    1.344    23 C    0.349
                            24 C    0.156
    30   6 C    3.937 --    31 C    1.457    16 C    1.188    20 C    1.024
    31   6 C    3.432 --    30 C    1.457    13 C    1.257    14 C    0.264
                            15 C    0.144
 ---------------------------------------------------------------------------

Topologies differ in total number of bonds
Writing topology from bond orders to xtbtopo.mol

molecular dipole:
                 x           y           z       tot (Debye)
Note: The following floating-point exceptions are signalling: IEEE_UNDERFLOW_FLAG IEEE_DENORMAL
normal termination of xtb
 q only:       -0.275      -0.077      -0.230
   full:       -0.905      -0.107      -0.822       3.118
molecular quadrupole (traceless):
                xx          xy          yy          xz          yz          zz
 q only:       -5.759      14.717      -7.895      -4.875      -1.613      13.654
  q+dip:        3.127      10.150     -14.569      -0.617      -2.185      11.442
   full:        5.132      13.963     -14.551      -5.245      -3.149       9.419


           -------------------------------------------------
          | TOTAL ENERGY              -75.713626109397 Eh   |
          | GRADIENT NORM               0.506764731744 Eh/α |
          | HOMO-LUMO GAP               0.031019228934 eV   |
           -------------------------------------------------

------------------------------------------------------------------------
 * finished run on 2026/07/23 at 16:42:43.945     
------------------------------------------------------------------------
 total:
 * wall-time:     0 d,  0 h,  0 min,  0.549 sec
 *  cpu-time:     0 d,  0 h,  0 min,  0.565 sec
 * ratio c/w:     1.029 speedup
 SCF:
 * wall-time:     0 d,  0 h,  0 min,  0.530 sec
 *  cpu-time:     0 d,  0 h,  0 min,  0.547 sec
 * ratio c/w:     1.031 speedup

