      -----------------------------------------------------------      
     |                   =====================                   |     
     |                           x T B                           |     
     |                   =====================                   |     
     |                         S. Grimme                         |     
     |          Mulliken Center for Theoretical Chemistry        |     
     |                    University of Bonn                     |     
      -----------------------------------------------------------      

   * xtb version 6.6.1 (unknown) compiled by 'builduser@buildhost' on 2023-08-07

   xtb is free software: you can redistribute it and/or modify it under
   the terms of the GNU Lesser General Public License as published by
   the Free Software Foundation, either version 3 of the License, or
   (at your option) any later version.
   
   xtb is distributed in the hope that it will be useful,
   but WITHOUT ANY WARRANTY; without even the implied warranty of
   MERCHANTABILITY or FITNESS FOR A PARTICULAR PURPOSE.  See the
   GNU Lesser General Public License for more details.
   
   Cite this work as:
   * C. Bannwarth, E. Caldeweyher, S. Ehlert, A. Hansen, P. Pracht,
     J. Seibert, S. Spicher, S. Grimme, WIREs Comput. Mol. Sci., 2020, 11,
     e01493. DOI: 10.1002/wcms.1493
   
   for GFN2-xTB:
   * C. Bannwarth, S. Ehlert and S. Grimme., J. Chem. Theory Comput., 2019,
     15, 1652-1671. DOI: 10.1021/acs.jctc.8b01176
   for GFN1-xTB:
   * S. Grimme, C. Bannwarth, P. Shushkov, J. Chem. Theory Comput., 2017,
     13, 1989-2009. DOI: 10.1021/acs.jctc.7b00118
   for GFN0-xTB:
   * P. Pracht, E. Caldeweyher, S. Ehlert, S. Grimme, ChemRxiv, 2019, preprint.
     DOI: 10.26434/chemrxiv.8326202.v1
   for GFN-FF:
   * S. Spicher and S. Grimme, Angew. Chem. Int. Ed., 2020, 59, 15665-15673.
     DOI: 10.1002/anie.202004239
   
   for ALPB and GBSA implicit solvation:
   * S. Ehlert, M. Stahn, S. Spicher, S. Grimme, J. Chem. Theory Comput.,
     2021, 17, 4250-4261. DOI: 10.1021/acs.jctc.1c00471
   
   for DFT-D4:
   * E. Caldeweyher, C. Bannwarth and S. Grimme, J. Chem. Phys., 2017,
     147, 034112. DOI: 10.1063/1.4993215
   * E. Caldeweyher, S. Ehlert, A. Hansen, H. Neugebauer, S. Spicher,
     C. Bannwarth and S. Grimme, J. Chem. Phys., 2019, 150, 154122.
     DOI: 10.1063/1.5090222
   * E. Caldeweyher, J.-M. Mewes, S. Ehlert and S. Grimme, Phys. Chem. Chem. Phys.
     2020, 22, 8499-8512. DOI: 10.1039/D0CP00502A
   
   for sTDA-xTB:
   * S. Grimme and C. Bannwarth, J. Chem. Phys., 2016, 145, 054103.
     DOI: 10.1063/1.4959605
   
   in the mass-spec context:
   * V. Asgeirsson, C. Bauer and S. Grimme, Chem. Sci., 2017, 8, 4879.
     DOI: 10.1039/c7sc00601b
   * J. Koopman and S. Grimme, ACS Omega 2019, 4, 12, 15120-15133.
     DOI: 10.1021/acsomega.9b02011
   
   for metadynamics refer to:
   * S. Grimme, J. Chem. Theory Comput., 2019, 155, 2847-2862
     DOI: 10.1021/acs.jctc.9b00143
   
   for SPH calculations refer to:
   * S. Spicher and S. Grimme, J. Chem. Theory Comput., 2021, 17, 1701-1714
     DOI: 10.1021/acs.jctc.0c01306
   
   with help from (in alphabetical order)
   P. Atkinson, C. Bannwarth, F. Bohle, G. Brandenburg, E. Caldeweyher
   M. Checinski, S. Dohm, S. Ehlert, S. Ehrlich, I. Gerasimov, C. Hölzer
   A. Katbashev, J. Koopman, C. Lavigne, S. Lehtola, F. März, M. Müller,
   F. Musil, H. Neugebauer, J. Pisarek, C. Plett, P. Pracht, F. Pultar,
   J. Seibert, P. Shushkov, S. Spicher, M. Stahn, M. Steiner, T. Strunk,
   J. Stückrath, T. Rose, and J. Unsleber
   
 * started run on 2026/07/23 at 16:43:06.094     

           -------------------------------------------------
          |                Calculation Setup                |
           -------------------------------------------------

          program call               : xtb /home/selva/covalent_quantum_benchmark/data/quantum/erbB_xyz/ERBB2__CHEMBL54091__state03.xyz --gfn2 --chrg 0 --uhf 0 --iterations 300
          coordinate file            : /home/selva/covalent_quantum_benchmark/data/quantum/erbB_xyz/ERBB2__CHEMBL54091__state03.xyz
          omp threads                :                    24

   ID    Z sym.   atoms
    1    6 C      1-3, 6-9, 11-14, 16, 18, 20, 22, 23
    2    8 O      4
    3    7 N      5, 10, 19, 21, 24
    4    9 F      15
    5   35 Br     17

           -------------------------------------------------
          |                 G F N 2 - x T B                 |
           -------------------------------------------------

        Reference                      10.1021/acs.jctc.8b01176
      * Hamiltonian:
        H0-scaling (s, p, d)           1.850000    2.230000    2.230000
        zeta-weighting                 0.500000
      * Dispersion:
        s8                             2.700000
        a1                             0.520000
        a2                             5.000000
        s9                             5.000000
      * Repulsion:
        kExp                           1.500000    1.000000
        rExp                           1.000000
      * Coulomb:
        alpha                          2.000000
        third order                    shell-resolved
        anisotropic                    true
        a3                             3.000000
        a5                             4.000000
        cn-shift                       1.200000
        cn-exp                         4.000000
        max-rad                        5.000000


          ...................................................
          :                      SETUP                      :
          :.................................................:
          :  # basis functions                 102          :
          :  # atomic orbitals                 101          :
          :  # shells                           49          :
          :  # electrons                       109          :
          :  max. iterations                   300          :
          :  Hamiltonian                  GFN2-xTB          :
          :  restarted?                      false          :
          :  GBSA solvation                  false          :
          :  PC potential                    false          :
          :  electronic temp.          300.0000000     K    :
          :  accuracy                    1.0000000          :
          :  -> integral cutoff          0.2500000E+02      :
          :  -> integral neglect         0.1000000E-07      :
          :  -> SCF convergence          0.1000000E-05 Eh   :
          :  -> wf. convergence          0.1000000E-03 e    :
          :  Broyden damping             0.4000000          :
          ...................................................

 iter      E             dE          RMSdq      gap      omega  full diag
   1    -61.1761652 -0.611762E+02  0.749E+00    0.57       0.0  T
   2    -54.7848476  0.639132E+01  0.998E+00    0.14       1.0  T
   3    -54.1091643  0.675683E+00  0.988E+00    0.12       1.0  T
   4    -58.0476070 -0.393844E+01  0.696E+00    0.07       1.0  T
   5    -56.9692835  0.107832E+01  0.726E+00    0.19       1.0  T
   6    -59.6585841 -0.268930E+01  0.529E+00    0.07       1.0  T
   7    -61.2013680 -0.154278E+01  0.336E+00    0.22       1.0  T
   8    -61.3672540 -0.165886E+00  0.254E+00    0.30       1.0  T
   9    -61.5700115 -0.202757E+00  0.167E+00    0.15       1.0  T
  10    -61.6340346 -0.640231E-01  0.108E+00    0.16       1.0  T
  11    -61.6320655  0.196902E-02  0.960E-01    0.19       1.0  T
  12    -61.6158990  0.161665E-01  0.115E+00    0.09       1.0  T
  13    -61.6162014 -0.302379E-03  0.921E-01    0.15       1.0  T
  14    -61.6159631  0.238312E-03  0.100E+00    0.08       1.0  T
  15    -61.6305215 -0.145584E-01  0.799E-01    0.14       1.0  T
  16    -61.5959776  0.345439E-01  0.112E+00    0.06       1.0  T
  17    -61.6361401 -0.401626E-01  0.671E-01    0.10       1.0  T
  18    -61.6387195 -0.257939E-02  0.556E-01    0.11       1.0  T
  19    -61.6517285 -0.130090E-01  0.150E-01    0.14       1.0  T
  20    -61.6502841  0.144444E-02  0.196E-01    0.14       1.0  T
  21    -61.6510952 -0.811168E-03  0.145E-01    0.14       1.0  T
  22    -61.6517417 -0.646523E-03  0.733E-02    0.14       1.0  T
  23    -61.6517639 -0.221478E-04  0.613E-02    0.14       1.0  T
  24    -61.6518329 -0.689975E-04  0.429E-02    0.14       1.0  T
  25    -61.6519188 -0.859617E-04  0.143E-02    0.14       1.4  T
  26    -61.6518794  0.394698E-04  0.340E-02    0.14       1.0  T
  27    -61.6519132 -0.338322E-04  0.208E-02    0.14       1.0  T
  28    -61.6519253 -0.121063E-04  0.886E-03    0.14       2.3  T
  29    -61.6519245  0.788983E-06  0.841E-03    0.14       2.4  T
  30    -61.6519270 -0.250919E-05  0.208E-03    0.14       9.8  T
  31    -61.6519271 -0.770100E-07  0.129E-03    0.14      15.8  T
  32    -61.6519272 -0.479278E-07  0.809E-04    0.14      25.2  T
  33    -61.6519272 -0.305704E-07  0.134E-04    0.14     152.0  T

   *** convergence criteria satisfied after 33 iterations ***

         #    Occupation            Energy/Eh            Energy/eV
      -------------------------------------------------------------
         1        2.0000           -0.8701771             -23.6787
       ...           ...                  ...                  ...
        49        2.0000           -0.4426790             -12.0459
        50        2.0000           -0.4407580             -11.9936
        51        2.0000           -0.4350717             -11.8389
        52        1.9992           -0.4318671             -11.7517
        53        1.9956           -0.4302467             -11.7076
        54        1.6655           -0.4257817             -11.5861
        55        1.2682           -0.4243732             -11.5478 (HOMO)
        56        0.0715           -0.4192232             -11.4076 (LUMO)
        57        0.0000           -0.4112567             -11.1909
        58                         -0.3726914             -10.1414
        59                         -0.3597630              -9.7896
        60                         -0.3465131              -9.4291
       ...                                ...                  ...
       101                          0.6346995              17.2711
      -------------------------------------------------------------
                  HL-Gap            0.0051500 Eh            0.1401 eV
             Fermi-level           -0.4233802 Eh          -11.5208 eV

 SCC (total)                   0 d,  0 h,  0 min,  0.250 sec
 SCC setup                      ...        0 min,  0.000 sec (  0.141%)
 Dispersion                     ...        0 min,  0.001 sec (  0.322%)
 classical contributions        ...        0 min,  0.001 sec (  0.272%)
 integral evaluation            ...        0 min,  0.003 sec (  1.161%)
 iterations                     ...        0 min,  0.227 sec ( 90.791%)
 molecular gradient             ...        0 min,  0.016 sec (  6.219%)
 printout                       ...        0 min,  0.003 sec (  1.081%)

         :::::::::::::::::::::::::::::::::::::::::::::::::::::
         ::                     SUMMARY                     ::
         :::::::::::::::::::::::::::::::::::::::::::::::::::::
         :: total energy             -60.962712893694 Eh    ::
         :: gradient norm              0.385723798348 Eh/a0 ::
         :: HOMO-LUMO gap              0.140138176041 eV    ::
         ::.................................................::
         :: SCC energy               -61.651927193975 Eh    ::
         :: -> isotropic ES            0.055274411107 Eh    ::
         :: -> anisotropic ES          0.009654944174 Eh    ::
         :: -> anisotropic XC          0.028402573061 Eh    ::
         :: -> dispersion             -0.032403325075 Eh    ::
         :: repulsion energy           0.689477044486 Eh    ::
         :: add. restraining           0.000000000000 Eh    ::
         :: total charge               0.000000000631 e     ::
         :::::::::::::::::::::::::::::::::::::::::::::::::::::

           -------------------------------------------------
          |                Property Printout                |
           -------------------------------------------------

    * Orbital Energies and Occupations

         #    Occupation            Energy/Eh            Energy/eV
      -------------------------------------------------------------
         1        2.0000           -0.8701771             -23.6787
       ...           ...                  ...                  ...
        43        2.0000           -0.4717913             -12.8381
        44        2.0000           -0.4639694             -12.6253
        45        2.0000           -0.4626413             -12.5891
        46        2.0000           -0.4585431             -12.4776
        47        2.0000           -0.4525149             -12.3136
        48        2.0000           -0.4479228             -12.1886
        49        2.0000           -0.4426790             -12.0459
        50        2.0000           -0.4407580             -11.9936
        51        2.0000           -0.4350717             -11.8389
        52        1.9992           -0.4318671             -11.7517
        53        1.9956           -0.4302467             -11.7076
        54        1.6655           -0.4257817             -11.5861
        55        1.2682           -0.4243732             -11.5478 (HOMO)
        56        0.0715           -0.4192232             -11.4076 (LUMO)
        57        0.0000           -0.4112567             -11.1909
        58                         -0.3726914             -10.1414
        59                         -0.3597630              -9.7896
        60                         -0.3465131              -9.4291
        61                         -0.3301608              -8.9841
        62                         -0.3092282              -8.4145
        63                         -0.2990363              -8.1372
        64                         -0.2893962              -7.8749
        65                         -0.2816017              -7.6628
        66                         -0.2600680              -7.0768
       ...                                ...                  ...
       101                          0.6346995              17.2711
      -------------------------------------------------------------
                  HL-Gap            0.0051500 Eh            0.1401 eV
             Fermi-level           -0.4233802 Eh          -11.5208 eV

     #   Z          covCN         q      C6AA      α(0)
     1   6 C        0.987    -0.041    37.209    10.249
     2   6 C        1.974     0.005    30.933     8.982
     3   6 C        2.786     0.334    21.321     7.563
     4   8 O        0.857    -0.331    20.342     6.047
     5   7 N        1.852    -0.169    25.466     7.479
     6   6 C        2.854     0.201    23.731     7.984
     7   6 C        1.972    -0.060    32.683     9.232
     8   6 C        2.968     0.019    27.591     8.616
     9   6 C        2.853     0.197    23.803     7.996
    10   7 N        1.831    -0.141    24.825     7.383
    11   6 C        2.890     0.134    25.067     8.208
    12   6 C        1.996    -0.027    31.775     9.103
    13   6 C        1.986    -0.030    31.853     9.114
    14   6 C        2.843     0.190    23.954     8.021
    15   9 F        0.787    -0.162    10.852     3.891
    16   6 C        2.905     0.073    26.368     8.420
    17  35 Br       1.063    -0.054   186.485    22.018
    18   6 C        2.064    -0.072    32.911     9.267
    19   7 N        1.834    -0.145    24.930     7.399
    20   6 C        1.934     0.161    27.199     8.422
    21   7 N        1.838    -0.114    24.252     7.298
    22   6 C        2.955     0.127    25.225     8.238
    23   6 C        1.930     0.010    30.828     8.967
    24   7 N        1.846    -0.105    24.069     7.271

 Mol. C6AA /au·bohr⁶  :      17131.723579
 Mol. C8AA /au·bohr⁸  :     510114.485492
 Mol. α(0) /au        :        207.170989


Wiberg/Mayer (AO) data.
largest (>0.10) Wiberg bond orders for each atom

 ---------------------------------------------------------------------------
     #   Z sym  total        # sym  WBO       # sym  WBO       # sym  WBO
 ---------------------------------------------------------------------------
     1   6 C    3.036 --     2 C    2.599     4 O    0.162     5 N    0.143
     2   6 C    3.657 --     1 C    2.599     3 C    0.901
     3   6 C    3.930 --     4 O    1.727     5 N    1.171     2 C    0.901
Note: The following floating-point exceptions are signalling: IEEE_UNDERFLOW_FLAG IEEE_DENORMAL
normal termination of xtb
     4   8 O    2.141 --     3 C    1.727     1 C    0.162     5 N    0.104
     5   7 N    3.116 --     6 C    1.457     3 C    1.171     1 C    0.143
                             4 O    0.104
     6   6 C    3.940 --     5 N    1.457    24 N    1.197     7 C    1.094
     7   6 C    3.684 --     8 C    1.673     6 C    1.094    23 C    0.394
                            24 N    0.110
     8   6 C    3.965 --     7 C    1.673    22 C    1.034     9 C    1.002
     9   6 C    3.948 --    10 N    1.409    19 N    1.310     8 C    1.002
    10   7 N    3.198 --     9 C    1.409    11 C    1.190    20 C    0.226
                            19 N    0.101
    11   6 C    3.916 --    18 C    1.296    12 C    1.254    10 N    1.190
    12   6 C    3.658 --    13 C    1.782    11 C    1.254    18 C    0.327
                            16 C    0.102
    13   6 C    3.501 --    12 C    1.782    14 C    1.370    18 C    0.192
    14   6 C    3.804 --    13 C    1.370    16 C    1.269    15 F    0.997
    15   9 F    1.151 --    14 C    0.997
    16   6 C    3.909 --    18 C    1.449    14 C    1.269    17 Br   1.004
                            12 C    0.102
    17  35 Br   1.199 --    16 C    1.004
    18   6 C    3.465 --    16 C    1.449    11 C    1.296    12 C    0.327
                            13 C    0.192
    19   7 N    3.195 --    20 C    1.528     9 C    1.310    10 N    0.101
    20   6 C    3.791 --    21 N    1.712    19 N    1.528    10 N    0.226
    21   7 N    3.217 --    20 C    1.712    22 C    1.183
    22   6 C    3.850 --    23 C    1.382    21 N    1.183     8 C    1.034
    23   6 C    3.677 --    24 N    1.658    22 C    1.382     7 C    0.394
    24   7 N    3.304 --    23 C    1.658     6 C    1.197     7 C    0.110
 ---------------------------------------------------------------------------

Topologies differ in total number of bonds
Writing topology from bond orders to xtbtopo.mol

molecular dipole:
                 x           y           z       tot (Debye)
 q only:       -0.143      -1.036       0.944
   full:        0.396      -1.153       1.013       4.028
molecular quadrupole (traceless):
                xx          xy          yy          xz          yz          zz
 q only:      -12.091       6.379       7.865       3.839      -3.809       4.227
  q+dip:      -15.348       9.593       8.133       5.892      -5.910       7.215
   full:      -17.664      10.094       6.064       9.825      -2.480      11.600


           -------------------------------------------------
          | TOTAL ENERGY              -60.962712893694 Eh   |
          | GRADIENT NORM               0.385723798348 Eh/α |
          | HOMO-LUMO GAP               0.140138176041 eV   |
           -------------------------------------------------

------------------------------------------------------------------------
 * finished run on 2026/07/23 at 16:43:06.372     
------------------------------------------------------------------------
 total:
 * wall-time:     0 d,  0 h,  0 min,  0.278 sec
 *  cpu-time:     0 d,  0 h,  0 min,  0.267 sec
 * ratio c/w:     0.962 speedup
 SCF:
 * wall-time:     0 d,  0 h,  0 min,  0.250 sec
 *  cpu-time:     0 d,  0 h,  0 min,  0.245 sec
 * ratio c/w:     0.981 speedup

