      -----------------------------------------------------------      
     |                   =====================                   |     
     |                           x T B                           |     
     |                   =====================                   |     
     |                         S. Grimme                         |     
     |          Mulliken Center for Theoretical Chemistry        |     
     |                    University of Bonn                     |     
      -----------------------------------------------------------      

   * xtb version 6.6.1 (unknown) compiled by 'builduser@buildhost' on 2023-08-07

   xtb is free software: you can redistribute it and/or modify it under
   the terms of the GNU Lesser General Public License as published by
   the Free Software Foundation, either version 3 of the License, or
   (at your option) any later version.
   
   xtb is distributed in the hope that it will be useful,
   but WITHOUT ANY WARRANTY; without even the implied warranty of
   MERCHANTABILITY or FITNESS FOR A PARTICULAR PURPOSE.  See the
   GNU Lesser General Public License for more details.
   
   Cite this work as:
   * C. Bannwarth, E. Caldeweyher, S. Ehlert, A. Hansen, P. Pracht,
     J. Seibert, S. Spicher, S. Grimme, WIREs Comput. Mol. Sci., 2020, 11,
     e01493. DOI: 10.1002/wcms.1493
   
   for GFN2-xTB:
   * C. Bannwarth, S. Ehlert and S. Grimme., J. Chem. Theory Comput., 2019,
     15, 1652-1671. DOI: 10.1021/acs.jctc.8b01176
   for GFN1-xTB:
   * S. Grimme, C. Bannwarth, P. Shushkov, J. Chem. Theory Comput., 2017,
     13, 1989-2009. DOI: 10.1021/acs.jctc.7b00118
   for GFN0-xTB:
   * P. Pracht, E. Caldeweyher, S. Ehlert, S. Grimme, ChemRxiv, 2019, preprint.
     DOI: 10.26434/chemrxiv.8326202.v1
   for GFN-FF:
   * S. Spicher and S. Grimme, Angew. Chem. Int. Ed., 2020, 59, 15665-15673.
     DOI: 10.1002/anie.202004239
   
   for ALPB and GBSA implicit solvation:
   * S. Ehlert, M. Stahn, S. Spicher, S. Grimme, J. Chem. Theory Comput.,
     2021, 17, 4250-4261. DOI: 10.1021/acs.jctc.1c00471
   
   for DFT-D4:
   * E. Caldeweyher, C. Bannwarth and S. Grimme, J. Chem. Phys., 2017,
     147, 034112. DOI: 10.1063/1.4993215
   * E. Caldeweyher, S. Ehlert, A. Hansen, H. Neugebauer, S. Spicher,
     C. Bannwarth and S. Grimme, J. Chem. Phys., 2019, 150, 154122.
     DOI: 10.1063/1.5090222
   * E. Caldeweyher, J.-M. Mewes, S. Ehlert and S. Grimme, Phys. Chem. Chem. Phys.
     2020, 22, 8499-8512. DOI: 10.1039/D0CP00502A
   
   for sTDA-xTB:
   * S. Grimme and C. Bannwarth, J. Chem. Phys., 2016, 145, 054103.
     DOI: 10.1063/1.4959605
   
   in the mass-spec context:
   * V. Asgeirsson, C. Bauer and S. Grimme, Chem. Sci., 2017, 8, 4879.
     DOI: 10.1039/c7sc00601b
   * J. Koopman and S. Grimme, ACS Omega 2019, 4, 12, 15120-15133.
     DOI: 10.1021/acsomega.9b02011
   
   for metadynamics refer to:
   * S. Grimme, J. Chem. Theory Comput., 2019, 155, 2847-2862
     DOI: 10.1021/acs.jctc.9b00143
   
   for SPH calculations refer to:
   * S. Spicher and S. Grimme, J. Chem. Theory Comput., 2021, 17, 1701-1714
     DOI: 10.1021/acs.jctc.0c01306
   
   with help from (in alphabetical order)
   P. Atkinson, C. Bannwarth, F. Bohle, G. Brandenburg, E. Caldeweyher
   M. Checinski, S. Dohm, S. Ehlert, S. Ehrlich, I. Gerasimov, C. Hölzer
   A. Katbashev, J. Koopman, C. Lavigne, S. Lehtola, F. März, M. Müller,
   F. Musil, H. Neugebauer, J. Pisarek, C. Plett, P. Pracht, F. Pultar,
   J. Seibert, P. Shushkov, S. Spicher, M. Stahn, M. Steiner, T. Strunk,
   J. Stückrath, T. Rose, and J. Unsleber
   
 * started run on 2026/07/23 at 16:39:36.610     

           -------------------------------------------------
          |                Calculation Setup                |
           -------------------------------------------------

          program call               : xtb /home/selva/covalent_quantum_benchmark/data/quantum/erbB_xyz/ERBB2__CHEMBL109480__state00.xyz --gfn2 --chrg 0 --uhf 0 --iterations 300
          coordinate file            : /home/selva/covalent_quantum_benchmark/data/quantum/erbB_xyz/ERBB2__CHEMBL109480__state00.xyz
          omp threads                :                    24

   ID    Z sym.   atoms
    1    6 C      1-3, 5-11, 13, 14, 16-21, 23, 26, 28-34, 37-39, 41
    2    7 N      4, 24, 36
    3    8 O      12, 15, 22, 25, 27, 35, 40, 42

           -------------------------------------------------
          |                 G F N 2 - x T B                 |
           -------------------------------------------------

        Reference                      10.1021/acs.jctc.8b01176
      * Hamiltonian:
        H0-scaling (s, p, d)           1.850000    2.230000    2.230000
        zeta-weighting                 0.500000
      * Dispersion:
        s8                             2.700000
        a1                             0.520000
        a2                             5.000000
        s9                             5.000000
      * Repulsion:
        kExp                           1.500000    1.000000
        rExp                           1.000000
      * Coulomb:
        alpha                          2.000000
        third order                    shell-resolved
        anisotropic                    true
        a3                             3.000000
        a5                             4.000000
        cn-shift                       1.200000
        cn-exp                         4.000000
        max-rad                        5.000000


          ...................................................
          :                      SETUP                      :
          :.................................................:
          :  # basis functions                 168          :
          :  # atomic orbitals                 168          :
          :  # shells                           84          :
          :  # electrons                       187          :
          :  max. iterations                   300          :
          :  Hamiltonian                  GFN2-xTB          :
          :  restarted?                      false          :
          :  GBSA solvation                  false          :
          :  PC potential                    false          :
          :  electronic temp.          300.0000000     K    :
          :  accuracy                    1.0000000          :
          :  -> integral cutoff          0.2500000E+02      :
          :  -> integral neglect         0.1000000E-07      :
          :  -> SCF convergence          0.1000000E-05 Eh   :
          :  -> wf. convergence          0.1000000E-03 e    :
          :  Broyden damping             0.4000000          :
          ...................................................

 iter      E             dE          RMSdq      gap      omega  full diag
   1   -104.0758556 -0.104076E+03  0.106E+01    0.08       0.0  T
   2    -70.7501056  0.333257E+02  0.157E+01    0.14       1.0  T
   3    -35.9184733  0.348316E+02  0.163E+01    0.16       1.0  T
   4    -51.7975184 -0.158790E+02  0.142E+01    0.14       1.0  T
   5    -90.5343260 -0.387368E+02  0.113E+01    0.08       1.0  T
   6   -103.4320419 -0.128977E+02  0.733E+00    0.10       1.0  T
   7   -104.1603537 -0.728312E+00  0.654E+00    0.09       1.0  T
   8   -102.8352674  0.132509E+01  0.679E+00    0.04       1.0  T
   9   -103.9595809 -0.112431E+01  0.573E+00    0.08       1.0  T
  10   -103.9009878  0.585931E-01  0.557E+00    0.10       1.0  T
  11   -103.9097692 -0.878142E-02  0.490E+00    0.01       1.0  T
  12   -104.9165797 -0.100681E+01  0.432E+00    0.06       1.0  T
  13   -104.2506442  0.665936E+00  0.451E+00    0.02       1.0  T
  14   -104.2627154 -0.120712E-01  0.450E+00    0.02       1.0  T
  15   -104.2627474 -0.320213E-04  0.450E+00    0.02       1.0  T
  16   -104.2585549  0.419251E-02  0.452E+00    0.02       1.0  T
  17   -104.9384000 -0.679845E+00  0.402E+00    0.04       1.0  T
  18   -103.9442151  0.994185E+00  0.521E+00    0.13       1.0  T
  19   -104.0595466 -0.115332E+00  0.504E+00    0.11       1.0  T
  20   -104.1776792 -0.118133E+00  0.481E+00    0.07       1.0  T
  21   -104.5869419 -0.409263E+00  0.411E+00    0.04       1.0  T
  22   -104.4719764  0.114965E+00  0.421E+00    0.03       1.0  T
  23   -104.5784033 -0.106427E+00  0.406E+00    0.03       1.0  T
  24   -104.7425064 -0.164103E+00  0.379E+00    0.03       1.0  T
  25   -105.4158167 -0.673310E+00  0.263E+00    0.03       1.0  T
  26   -105.5352890 -0.119472E+00  0.240E+00    0.03       1.0  T
  27   -105.4907729  0.445161E-01  0.224E+00    0.07       1.0  T
  28   -105.7485846 -0.257812E+00  0.158E+00    0.02       1.0  T
  29   -105.7736730 -0.250884E-01  0.130E+00    0.06       1.0  T
  30   -105.7987451 -0.250721E-01  0.119E+00    0.06       1.0  T
  31   -105.8226409 -0.238958E-01  0.119E+00    0.03       1.0  T
  32   -105.8021733  0.204676E-01  0.103E+00    0.06       1.0  T
  33   -105.7602374  0.419358E-01  0.129E+00    0.05       1.0  T
  34   -105.8395343 -0.792968E-01  0.858E-01    0.05       1.0  T
  35   -105.8366748  0.285943E-02  0.831E-01    0.05       1.0  T
  36   -105.8101226  0.265522E-01  0.856E-01    0.05       1.0  T
  37   -105.8553893 -0.452667E-01  0.566E-01    0.04       1.0  T
  38   -105.8479117  0.747762E-02  0.516E-01    0.04       1.0  T
  39   -105.8531844 -0.527268E-02  0.443E-01    0.04       1.0  T
  40   -105.8566907 -0.350637E-02  0.348E-01    0.04       1.0  T
  41   -105.8599693 -0.327853E-02  0.295E-01    0.04       1.0  T
  42   -105.8608366 -0.867380E-03  0.280E-01    0.04       1.0  T
  43   -105.8639369 -0.310030E-02  0.220E-01    0.04       1.0  T
  44   -105.8632443  0.692656E-03  0.199E-01    0.04       1.0  T
  45   -105.8646083 -0.136403E-02  0.148E-01    0.04       1.0  T
  46   -105.8651952 -0.586860E-03  0.115E-01    0.04       1.0  T
  47   -105.8653137 -0.118498E-03  0.997E-02    0.04       1.0  T
  48   -105.8655190 -0.205368E-03  0.808E-02    0.04       1.0  T
  49   -105.8656234 -0.104339E-03  0.485E-02    0.04       1.0  T
  50   -105.8656421 -0.187619E-04  0.447E-02    0.04       1.0  T
  51   -105.8656737 -0.315740E-04  0.385E-02    0.04       1.0  T
  52   -105.8656898 -0.161293E-04  0.246E-02    0.04       1.0  T
  53   -105.8657016 -0.117447E-04  0.200E-02    0.04       1.0  T
  54   -105.8656939  0.773447E-05  0.214E-02    0.04       1.0  T
  55   -105.8656940 -0.108648E-06  0.199E-02    0.04       1.0  T
  56   -105.8657136 -0.196174E-04  0.115E-02    0.04       1.3  T
  57   -105.8657130  0.548076E-06  0.110E-02    0.04       1.4  T
  58   -105.8657096  0.341314E-05  0.118E-02    0.04       1.3  T
  59   -105.8657153 -0.566837E-05  0.756E-03    0.04       2.0  T
  60   -105.8657173 -0.198266E-05  0.543E-03    0.04       2.8  T
  61   -105.8657177 -0.461358E-06  0.500E-03    0.04       3.1  T
  62   -105.8657195 -0.173827E-05  0.142E-03    0.04      10.8  T
  63   -105.8657195 -0.237147E-07  0.126E-03    0.04      12.2  T
  64   -105.8657195  0.291452E-07  0.127E-03    0.04      12.2  T
  65   -105.8657195 -0.731971E-07  0.673E-04    0.04      22.9  T
  66   -105.8657195 -0.817623E-08  0.604E-04    0.04      25.6  T

   *** convergence criteria satisfied after 66 iterations ***

         #    Occupation            Energy/Eh            Energy/eV
      -------------------------------------------------------------
         1        2.0000           -0.8236002             -22.4113
       ...           ...                  ...                  ...
        88        2.0000           -0.4555314             -12.3956
        89        2.0000           -0.4527448             -12.3198
        90        1.9954           -0.4450257             -12.1098
        91        1.9863           -0.4439903             -12.0816
        92        1.8972           -0.4420143             -12.0278
        93        1.5864           -0.4404531             -11.9853
        94        0.9377           -0.4388847             -11.9427 (HOMO)
        95        0.3431           -0.4373527             -11.9010 (LUMO)
        96        0.1786           -0.4366060             -11.8807
        97        0.0674           -0.4356017             -11.8533
        98        0.0075           -0.4334708             -11.7953
        99        0.0004           -0.4306081             -11.7174
       ...           ...                  ...                  ...
       168                          0.6240598              16.9815
      -------------------------------------------------------------
                  HL-Gap            0.0015320 Eh            0.0417 eV
             Fermi-level           -0.4390206 Eh          -11.9464 eV

 SCC (total)                   0 d,  0 h,  0 min,  1.223 sec
 SCC setup                      ...        0 min,  0.000 sec (  0.034%)
 Dispersion                     ...        0 min,  0.002 sec (  0.138%)
 classical contributions        ...        0 min,  0.003 sec (  0.225%)
 integral evaluation            ...        0 min,  0.011 sec (  0.926%)
 iterations                     ...        0 min,  1.172 sec ( 95.824%)
 molecular gradient             ...        0 min,  0.024 sec (  1.946%)
 printout                       ...        0 min,  0.011 sec (  0.904%)

         :::::::::::::::::::::::::::::::::::::::::::::::::::::
         ::                     SUMMARY                     ::
         :::::::::::::::::::::::::::::::::::::::::::::::::::::
         :: total energy            -105.016504826432 Eh    ::
         :: gradient norm              0.694608082815 Eh/a0 ::
         :: HOMO-LUMO gap              0.041688585202 eV    ::
         ::.................................................::
         :: SCC energy              -105.865719541598 Eh    ::
         :: -> isotropic ES            0.070786220251 Eh    ::
         :: -> anisotropic ES         -0.002618187331 Eh    ::
         :: -> anisotropic XC          0.053722160868 Eh    ::
         :: -> dispersion             -0.064789806278 Eh    ::
         :: repulsion energy           0.848234743039 Eh    ::
         :: add. restraining           0.000000000000 Eh    ::
         :: total charge              -0.000000000254 e     ::
         :::::::::::::::::::::::::::::::::::::::::::::::::::::

           -------------------------------------------------
          |                Property Printout                |
           -------------------------------------------------

    * Orbital Energies and Occupations

         #    Occupation            Energy/Eh            Energy/eV
      -------------------------------------------------------------
         1        2.0000           -0.8236002             -22.4113
       ...           ...                  ...                  ...
        82        2.0000           -0.4796935             -13.0531
        83        2.0000           -0.4789891             -13.0340
        84        2.0000           -0.4754394             -12.9374
        85        2.0000           -0.4725363             -12.8584
        86        2.0000           -0.4637568             -12.6195
        87        2.0000           -0.4627006             -12.5907
        88        2.0000           -0.4555314             -12.3956
        89        2.0000           -0.4527448             -12.3198
        90        1.9954           -0.4450257             -12.1098
        91        1.9863           -0.4439903             -12.0816
        92        1.8972           -0.4420143             -12.0278
        93        1.5864           -0.4404531             -11.9853
        94        0.9377           -0.4388847             -11.9427 (HOMO)
        95        0.3431           -0.4373527             -11.9010 (LUMO)
        96        0.1786           -0.4366060             -11.8807
        97        0.0674           -0.4356017             -11.8533
        98        0.0075           -0.4334708             -11.7953
        99        0.0004           -0.4306081             -11.7174
       100        0.0001           -0.4294607             -11.6862
       101        0.0000           -0.4244292             -11.5493
       102                         -0.4226997             -11.5022
       103                         -0.4213355             -11.4651
       104                         -0.4172570             -11.3541
       105                         -0.4159854             -11.3195
       ...                                ...                  ...
       168                          0.6240598              16.9815
      -------------------------------------------------------------
                  HL-Gap            0.0015320 Eh            0.0417 eV
             Fermi-level           -0.4390206 Eh          -11.9464 eV

     #   Z          covCN         q      C6AA      α(0)
     1   6 C        0.982    -0.049    37.449    10.279
     2   6 C        1.961     0.065    29.421     8.759
     3   6 C        1.890     0.065    29.474     8.768
     4   7 N        1.826    -0.068    23.284     7.150
     5   6 C        2.883     0.104    25.703     8.311
     6   6 C        2.948     0.025    27.453     8.594
     7   6 C        1.956    -0.034    31.992     9.134
     8   6 C        2.921     0.116    25.437     8.271
     9   6 C        0.979    -0.060    37.784    10.324
    10   6 C        1.949    -0.020    31.614     9.080
    11   6 C        2.811     0.114    25.469     8.268
    12   8 O        1.696    -0.034    14.925     5.216
    13   6 C        0.868     0.016    34.686     9.834
    14   6 C        2.792     0.199    23.771     7.987
    15   8 O        0.848    -0.352    20.757     6.108
    16   6 C        2.920     0.078    26.260     8.403
    17   6 C        0.982    -0.094    38.897    10.476
    18   6 C        1.970     0.042    29.983     8.843
    19   6 C        2.933     0.099    25.811     8.332
    20   6 C        0.981    -0.071    38.129    10.372
    21   6 C        2.815     0.154    24.657     8.136
    22   8 O        1.706    -0.226    17.749     5.688
    23   6 C        2.641     0.426    19.844     7.287
    24   7 N        0.918    -0.193    25.148     7.249
    25   8 O        0.858    -0.362    20.945     6.136
    26   6 C        2.810     0.110    25.564     8.284
    27   8 O        1.696    -0.021    14.754     5.186
    28   6 C        0.868     0.019    34.577     9.818
    29   6 C        1.964     0.005    30.944     8.983
    30   6 C        1.965     0.030    30.303     8.890
    31   6 C        1.992     0.039    30.046     8.852
    32   6 C        2.947     0.093    25.926     8.351
    33   6 C        0.981    -0.066    37.985    10.352
    34   6 C        2.786     0.334    21.325     7.564
    35   8 O        0.857    -0.323    20.204     6.026
    36   7 N        1.836    -0.224    26.725     7.661
    37   6 C        2.895     0.119    25.385     8.261
    38   6 C        1.980    -0.024    31.687     9.091
    39   6 C        2.829     0.237    23.059     7.869
    40   8 O        0.858    -0.275    19.329     5.895
    41   6 C        2.833     0.266    22.521     7.777
    42   8 O        0.857    -0.259    19.056     5.853

 Mol. C6AA /au·bohr⁶  :      46411.186404
 Mol. C8AA /au·bohr⁸  :    1250668.299152
 Mol. α(0) /au        :        341.717486


Wiberg/Mayer (AO) data.
largest (>0.10) Wiberg bond orders for each atom

 ---------------------------------------------------------------------------
     #   Z sym  total        # sym  WBO       # sym  WBO       # sym  WBO
 ---------------------------------------------------------------------------
     1   6 C    3.090 --     2 C    2.391     3 C    0.405     4 N    0.217
     2   6 C    3.785 --     1 C    2.391     3 C    1.284
     3   6 C    3.516 --     4 N    1.676     2 C    1.284     1 C    0.405
     4   7 N    3.365 --     3 C    1.676     5 C    1.230     1 C    0.217
     5   6 C    3.943 --     6 C    1.505     4 N    1.230    39 C    0.892
     6   6 C    3.964 --     5 C    1.505     7 C    1.143    41 C    1.003
     7   6 C    3.176 --     8 C    1.165     6 C    1.143     9 C    0.390
     8   6 C    3.883 --     9 C    1.485     7 C    1.165    10 C    1.123
     9   6 C    2.190 --     8 C    1.485     7 C    0.390    10 C    0.132
    10   6 C    3.224 --    11 C    1.412     8 C    1.123    13 C    0.294
                             9 C    0.132
    11   6 C    3.695 --    10 C    1.412    14 C    1.068    12 O    0.935
                            13 C    0.100
    12   8 O    2.656 --    13 C    1.629    11 C    0.935
    13   6 C    2.214 --    12 O    1.629    10 C    0.294    11 C    0.100
    14   6 C    3.848 --    15 O    1.603    11 C    1.068    16 C    0.931
Note: The following floating-point exceptions are signalling: IEEE_UNDERFLOW_FLAG IEEE_DENORMAL
normal termination of xtb
    15   8 O    2.063 --    14 C    1.603    17 C    0.156
    16   6 C    3.873 --    17 C    1.523    18 C    1.268    14 C    0.931
    17   6 C    2.464 --    16 C    1.523    18 C    0.293    20 C    0.243
                            15 O    0.156
    18   6 C    3.618 --    19 C    1.502    16 C    1.268    20 C    0.363
                            17 C    0.293
    19   6 C    3.964 --    18 C    1.502    20 C    1.385    21 C    0.965
    20   6 C    2.335 --    19 C    1.385    18 C    0.363    17 C    0.243
    21   6 C    3.782 --    26 C    1.288    22 O    1.030    19 C    0.965
                            24 N    0.102
    22   8 O    2.329 --    21 C    1.030    23 C    0.990    25 O    0.130
    23   6 C    3.899 --    25 O    1.566    24 N    1.314    22 O    0.990
    24   7 N    1.789 --    23 C    1.314    25 O    0.188    21 C    0.102
    25   8 O    1.932 --    23 C    1.566    24 N    0.188    22 O    0.130
    26   6 C    3.732 --    21 C    1.288    29 C    1.244    27 O    0.908
    27   8 O    2.660 --    28 C    1.652    26 C    0.908
    28   6 C    2.277 --    27 O    1.652    29 C    0.195    31 C    0.128
    29   6 C    3.762 --    30 C    1.893    26 C    1.244    28 C    0.195
                            31 C    0.164    33 C    0.101
    30   6 C    3.862 --    29 C    1.893    31 C    1.596    33 C    0.205
    31   6 C    3.687 --    30 C    1.596    32 C    1.396    33 C    0.205
                            29 C    0.164    28 C    0.128
    32   6 C    3.963 --    33 C    1.639    31 C    1.396    34 C    0.813
    33   6 C    2.550 --    32 C    1.639    30 C    0.205    31 C    0.205
                            35 O    0.195    29 C    0.101
    34   6 C    3.927 --    35 O    1.701    36 N    1.257    32 C    0.813
    35   8 O    2.192 --    34 C    1.701    33 C    0.195    36 N    0.147
    36   7 N    3.153 --    37 C    1.262    34 C    1.257    38 C    0.192
                            35 O    0.147
    37   6 C    3.963 --    38 C    1.663    36 N    1.262    41 C    0.855
    38   6 C    3.616 --    37 C    1.663    39 C    1.140    36 N    0.192
                            42 O    0.126    40 O    0.119
    39   6 C    3.943 --    40 O    1.765    38 C    1.140     5 C    0.892
    40   8 O    2.141 --    39 C    1.765    38 C    0.119
    41   6 C    3.901 --    42 O    1.829     6 C    1.003    37 C    0.855
    42   8 O    2.211 --    41 C    1.829    38 C    0.126
 ---------------------------------------------------------------------------

Topologies differ in total number of bonds
Writing topology from bond orders to xtbtopo.mol

molecular dipole:
                 x           y           z       tot (Debye)
 q only:        0.250       3.147      -0.087
   full:        0.897       2.696      -0.038       7.223
molecular quadrupole (traceless):
                xx          xy          yy          xz          yz          zz
 q only:        9.104      15.795     -29.674      13.174     -23.119      20.570
  q+dip:       13.445      17.454     -31.533      14.862     -13.683      18.089
   full:       12.688      19.134     -31.007      15.319     -13.058      18.319


           -------------------------------------------------
          | TOTAL ENERGY             -105.016504826432 Eh   |
          | GRADIENT NORM               0.694608082815 Eh/α |
          | HOMO-LUMO GAP               0.041688585202 eV   |
           -------------------------------------------------

------------------------------------------------------------------------
 * finished run on 2026/07/23 at 16:39:37.857     
------------------------------------------------------------------------
 total:
 * wall-time:     0 d,  0 h,  0 min,  1.246 sec
 *  cpu-time:     0 d,  0 h,  0 min,  1.215 sec
 * ratio c/w:     0.975 speedup
 SCF:
 * wall-time:     0 d,  0 h,  0 min,  1.224 sec
 *  cpu-time:     0 d,  0 h,  0 min,  1.187 sec
 * ratio c/w:     0.969 speedup

