      -----------------------------------------------------------      
     |                   =====================                   |     
     |                           x T B                           |     
     |                   =====================                   |     
     |                         S. Grimme                         |     
     |          Mulliken Center for Theoretical Chemistry        |     
     |                    University of Bonn                     |     
      -----------------------------------------------------------      

   * xtb version 6.6.1 (unknown) compiled by 'builduser@buildhost' on 2023-08-07

   xtb is free software: you can redistribute it and/or modify it under
   the terms of the GNU Lesser General Public License as published by
   the Free Software Foundation, either version 3 of the License, or
   (at your option) any later version.
   
   xtb is distributed in the hope that it will be useful,
   but WITHOUT ANY WARRANTY; without even the implied warranty of
   MERCHANTABILITY or FITNESS FOR A PARTICULAR PURPOSE.  See the
   GNU Lesser General Public License for more details.
   
   Cite this work as:
   * C. Bannwarth, E. Caldeweyher, S. Ehlert, A. Hansen, P. Pracht,
     J. Seibert, S. Spicher, S. Grimme, WIREs Comput. Mol. Sci., 2020, 11,
     e01493. DOI: 10.1002/wcms.1493
   
   for GFN2-xTB:
   * C. Bannwarth, S. Ehlert and S. Grimme., J. Chem. Theory Comput., 2019,
     15, 1652-1671. DOI: 10.1021/acs.jctc.8b01176
   for GFN1-xTB:
   * S. Grimme, C. Bannwarth, P. Shushkov, J. Chem. Theory Comput., 2017,
     13, 1989-2009. DOI: 10.1021/acs.jctc.7b00118
   for GFN0-xTB:
   * P. Pracht, E. Caldeweyher, S. Ehlert, S. Grimme, ChemRxiv, 2019, preprint.
     DOI: 10.26434/chemrxiv.8326202.v1
   for GFN-FF:
   * S. Spicher and S. Grimme, Angew. Chem. Int. Ed., 2020, 59, 15665-15673.
     DOI: 10.1002/anie.202004239
   
   for ALPB and GBSA implicit solvation:
   * S. Ehlert, M. Stahn, S. Spicher, S. Grimme, J. Chem. Theory Comput.,
     2021, 17, 4250-4261. DOI: 10.1021/acs.jctc.1c00471
   
   for DFT-D4:
   * E. Caldeweyher, C. Bannwarth and S. Grimme, J. Chem. Phys., 2017,
     147, 034112. DOI: 10.1063/1.4993215
   * E. Caldeweyher, S. Ehlert, A. Hansen, H. Neugebauer, S. Spicher,
     C. Bannwarth and S. Grimme, J. Chem. Phys., 2019, 150, 154122.
     DOI: 10.1063/1.5090222
   * E. Caldeweyher, J.-M. Mewes, S. Ehlert and S. Grimme, Phys. Chem. Chem. Phys.
     2020, 22, 8499-8512. DOI: 10.1039/D0CP00502A
   
   for sTDA-xTB:
   * S. Grimme and C. Bannwarth, J. Chem. Phys., 2016, 145, 054103.
     DOI: 10.1063/1.4959605
   
   in the mass-spec context:
   * V. Asgeirsson, C. Bauer and S. Grimme, Chem. Sci., 2017, 8, 4879.
     DOI: 10.1039/c7sc00601b
   * J. Koopman and S. Grimme, ACS Omega 2019, 4, 12, 15120-15133.
     DOI: 10.1021/acsomega.9b02011
   
   for metadynamics refer to:
   * S. Grimme, J. Chem. Theory Comput., 2019, 155, 2847-2862
     DOI: 10.1021/acs.jctc.9b00143
   
   for SPH calculations refer to:
   * S. Spicher and S. Grimme, J. Chem. Theory Comput., 2021, 17, 1701-1714
     DOI: 10.1021/acs.jctc.0c01306
   
   with help from (in alphabetical order)
   P. Atkinson, C. Bannwarth, F. Bohle, G. Brandenburg, E. Caldeweyher
   M. Checinski, S. Dohm, S. Ehlert, S. Ehrlich, I. Gerasimov, C. Hölzer
   A. Katbashev, J. Koopman, C. Lavigne, S. Lehtola, F. März, M. Müller,
   F. Musil, H. Neugebauer, J. Pisarek, C. Plett, P. Pracht, F. Pultar,
   J. Seibert, P. Shushkov, S. Spicher, M. Stahn, M. Steiner, T. Strunk,
   J. Stückrath, T. Rose, and J. Unsleber
   
 * started run on 2026/07/23 at 16:40:15.532     

           -------------------------------------------------
          |                Calculation Setup                |
           -------------------------------------------------

          program call               : xtb /home/selva/covalent_quantum_benchmark/data/quantum/erbB_xyz/ERBB2__CHEMBL1683969__state02.xyz --gfn2 --chrg 0 --uhf 0 --iterations 300
          coordinate file            : /home/selva/covalent_quantum_benchmark/data/quantum/erbB_xyz/ERBB2__CHEMBL1683969__state02.xyz
          omp threads                :                    24

   ID    Z sym.   atoms
    1    6 C      1, 2, 4, 6, 8-11, 13-18, 20, 21, 23-26, 28, 31, 32, 34-37
    2    7 N      3, 5, 7, 30, 33
    3    8 O      12, 29
    4    9 F      19, 27
    5   17 Cl     22

           -------------------------------------------------
          |                 G F N 2 - x T B                 |
           -------------------------------------------------

        Reference                      10.1021/acs.jctc.8b01176
      * Hamiltonian:
        H0-scaling (s, p, d)           1.850000    2.230000    2.230000
        zeta-weighting                 0.500000
      * Dispersion:
        s8                             2.700000
        a1                             0.520000
        a2                             5.000000
        s9                             5.000000
      * Repulsion:
        kExp                           1.500000    1.000000
        rExp                           1.000000
      * Coulomb:
        alpha                          2.000000
        third order                    shell-resolved
        anisotropic                    true
        a3                             3.000000
        a5                             4.000000
        cn-shift                       1.200000
        cn-exp                         4.000000
        max-rad                        5.000000


          ...................................................
          :                      SETUP                      :
          :.................................................:
          :  # basis functions                 154          :
          :  # atomic orbitals                 153          :
          :  # shells                           75          :
          :  # electrons                       166          :
          :  max. iterations                   300          :
          :  Hamiltonian                  GFN2-xTB          :
          :  restarted?                      false          :
          :  GBSA solvation                  false          :
          :  PC potential                    false          :
          :  electronic temp.          300.0000000     K    :
          :  accuracy                    1.0000000          :
          :  -> integral cutoff          0.2500000E+02      :
          :  -> integral neglect         0.1000000E-07      :
          :  -> SCF convergence          0.1000000E-05 Eh   :
          :  -> wf. convergence          0.1000000E-03 e    :
          :  Broyden damping             0.4000000          :
          ...................................................

 iter      E             dE          RMSdq      gap      omega  full diag
   1    -92.7364654 -0.927365E+02  0.833E+00    0.31       0.0  T
   2    -77.3043127  0.154322E+02  0.111E+01    0.04       1.0  T
   3    -65.9019110  0.114024E+02  0.126E+01    0.09       1.0  T
   4    -76.3894309 -0.104875E+02  0.983E+00    0.12       1.0  T
   5    -73.2728379  0.311659E+01  0.989E+00    0.21       1.0  T
   6    -86.7485774 -0.134757E+02  0.725E+00    0.03       1.0  T
   7    -90.5524461 -0.380387E+01  0.543E+00    0.11       1.0  T
   8    -91.3883211 -0.835875E+00  0.510E+00    0.08       1.0  T
   9    -91.8688544 -0.480533E+00  0.422E+00    0.05       1.0  T
  10    -92.9386931 -0.106984E+01  0.346E+00    0.16       1.0  T
  11    -92.9223498  0.163433E-01  0.345E+00    0.16       1.0  T
  12    -93.1675825 -0.245233E+00  0.285E+00    0.08       1.0  T
  13    -93.3748392 -0.207257E+00  0.238E+00    0.04       1.0  T
  14    -93.2893701  0.854691E-01  0.250E+00    0.07       1.0  T
  15    -93.2762440  0.131261E-01  0.221E+00    0.06       1.0  T
  16    -93.3862950 -0.110051E+00  0.193E+00    0.05       1.0  T
  17    -93.1479893  0.238306E+00  0.263E+00    0.17       1.0  T
  18    -93.3849598 -0.236970E+00  0.174E+00    0.07       1.0  T
  19    -93.4586836 -0.737238E-01  0.122E+00    0.01       1.0  T
  20    -93.5272993 -0.686157E-01  0.117E+00    0.01       1.0  T
  21    -93.5360203 -0.872101E-02  0.103E+00    0.04       1.0  T
  22    -93.5453727 -0.935238E-02  0.994E-01    0.04       1.0  T
  23    -93.4453055  0.100067E+00  0.132E+00    0.09       1.0  T
  24    -93.5672024 -0.121897E+00  0.696E-01    0.02       1.0  T
  25    -93.5461670  0.210353E-01  0.678E-01    0.04       1.0  T
  26    -93.4813686  0.647984E-01  0.124E+00    0.06       1.0  T
  27    -93.5374887 -0.561201E-01  0.954E-01    0.04       1.0  T
  28    -93.5609740 -0.234853E-01  0.777E-01    0.03       1.0  T
  29    -93.5721125 -0.111385E-01  0.682E-01    0.02       1.0  T
  30    -93.5690283  0.308422E-02  0.701E-01    0.03       1.0  T
  31    -93.5847591 -0.157308E-01  0.536E-01    0.02       1.0  T
  32    -93.5916139 -0.685477E-02  0.450E-01    0.02       1.0  T
  33    -93.5912636  0.350242E-03  0.449E-01    0.02       1.0  T
  34    -93.5964063 -0.514264E-02  0.379E-01    0.01       1.0  T
  35    -93.5892218  0.718453E-02  0.464E-01    0.02       1.0  T
  36    -93.6044536 -0.152318E-01  0.142E-01    0.00       1.0  T
  37    -93.6031874  0.126621E-02  0.130E-01    0.00       1.0  T
  38    -93.6043726 -0.118523E-02  0.106E-01    0.00       1.0  T
  39    -93.6042158  0.156849E-03  0.961E-02    0.00       1.0  T
  40    -93.6049482 -0.732474E-03  0.517E-02    0.00       1.0  T
  41    -93.6044804  0.467865E-03  0.970E-02    0.00       1.0  T
  42    -93.6048375 -0.357146E-03  0.538E-02    0.00       1.0  T
  43    -93.6050067 -0.169151E-03  0.329E-02    0.00       1.0  T
  44    -93.6050305 -0.238269E-04  0.253E-02    0.00       1.0  T
  45    -93.6050586 -0.281429E-04  0.138E-02    0.00       1.2  T
  46    -93.6050747 -0.160183E-04  0.600E-03    0.00       2.7  T
  47    -93.6050759 -0.128162E-05  0.317E-03    0.00       5.2  T
  48    -93.6050738  0.209552E-05  0.472E-03    0.00       3.5  T
  49    -93.6050728  0.105181E-05  0.549E-03    0.00       3.0  T
  50    -93.6050753 -0.254329E-05  0.297E-03    0.00       5.5  T
  51    -93.6050762 -0.895909E-06  0.814E-04    0.00      20.2  T
  52    -93.6050762  0.139462E-07  0.989E-04    0.00      16.6  T

   *** convergence criteria satisfied after 52 iterations ***

         #    Occupation            Energy/Eh            Energy/eV
      -------------------------------------------------------------
         1        2.0000           -1.0959030             -29.8210
       ...           ...                  ...                  ...
        77        1.9999           -0.4368208             -11.8865
        78        1.9990           -0.4341770             -11.8146
        79        1.9968           -0.4330861             -11.7849
        80        1.9897           -0.4319629             -11.7543
        81        1.8332           -0.4292360             -11.6801
        82        1.7353           -0.4287448             -11.6667
        83        1.2397           -0.4274230             -11.6308 (HOMO)
        84        1.2064           -0.4273565             -11.6290 (LUMO)
        85        0.0000           -0.4115882             -11.1999
        86                         -0.4083681             -11.1123
        87                         -0.4017825             -10.9331
        88                         -0.3955634             -10.7638
       ...                                ...                  ...
       153                          0.5675534              15.4439
      -------------------------------------------------------------
                  HL-Gap            0.0000665 Eh            0.0018 eV
             Fermi-level           -0.4269586 Eh          -11.6181 eV

 SCC (total)                   0 d,  0 h,  0 min,  0.891 sec
 SCC setup                      ...        0 min,  0.000 sec (  0.045%)
 Dispersion                     ...        0 min,  0.005 sec (  0.559%)
 classical contributions        ...        0 min,  0.004 sec (  0.446%)
 integral evaluation            ...        0 min,  0.012 sec (  1.361%)
 iterations                     ...        0 min,  0.841 sec ( 94.351%)
 molecular gradient             ...        0 min,  0.026 sec (  2.935%)
 printout                       ...        0 min,  0.003 sec (  0.299%)

         :::::::::::::::::::::::::::::::::::::::::::::::::::::
         ::                     SUMMARY                     ::
         :::::::::::::::::::::::::::::::::::::::::::::::::::::
         :: total energy             -92.736181804902 Eh    ::
         :: gradient norm              0.510547716113 Eh/a0 ::
         :: HOMO-LUMO gap              0.001810251468 eV    ::
         ::.................................................::
         :: SCC energy               -93.605076218854 Eh    ::
         :: -> isotropic ES            0.033082617362 Eh    ::
         :: -> anisotropic ES          0.009130672638 Eh    ::
         :: -> anisotropic XC          0.036513564008 Eh    ::
         :: -> dispersion             -0.053055023385 Eh    ::
         :: repulsion energy           0.869059672264 Eh    ::
         :: add. restraining           0.000000000000 Eh    ::
         :: total charge               0.000000000005 e     ::
         :::::::::::::::::::::::::::::::::::::::::::::::::::::

           -------------------------------------------------
          |                Property Printout                |
           -------------------------------------------------

    * Orbital Energies and Occupations

         #    Occupation            Energy/Eh            Energy/eV
      -------------------------------------------------------------
         1        2.0000           -1.0959030             -29.8210
       ...           ...                  ...                  ...
        71        2.0000           -0.4623023             -12.5799
        72        2.0000           -0.4612482             -12.5512
        73        2.0000           -0.4469413             -12.1619
        74        2.0000           -0.4438907             -12.0789
        75        2.0000           -0.4394976             -11.9593
        76        2.0000           -0.4373422             -11.9007
        77        1.9999           -0.4368208             -11.8865
        78        1.9990           -0.4341770             -11.8146
        79        1.9968           -0.4330861             -11.7849
        80        1.9897           -0.4319629             -11.7543
        81        1.8332           -0.4292360             -11.6801
        82        1.7353           -0.4287448             -11.6667
        83        1.2397           -0.4274230             -11.6308 (HOMO)
        84        1.2064           -0.4273565             -11.6290 (LUMO)
        85        0.0000           -0.4115882             -11.1999
        86                         -0.4083681             -11.1123
        87                         -0.4017825             -10.9331
        88                         -0.3955634             -10.7638
        89                         -0.3949771             -10.7479
        90                         -0.3807344             -10.3603
        91                         -0.3752003             -10.2097
        92                         -0.3644579              -9.9174
        93                         -0.3605902              -9.8122
        94                         -0.3604719              -9.8089
       ...                                ...                  ...
       153                          0.5675534              15.4439
      -------------------------------------------------------------
                  HL-Gap            0.0000665 Eh            0.0018 eV
             Fermi-level           -0.4269586 Eh          -11.6181 eV

     #   Z          covCN         q      C6AA      α(0)
     1   6 C        0.991    -0.085    38.668    10.450
     2   6 C        2.883     0.153    24.675     8.144
     3   7 N        1.833    -0.178    25.656     7.506
     4   6 C        1.903     0.183    26.731     8.350
     5   7 N        1.831    -0.181    25.726     7.516
     6   6 C        2.901     0.200    23.749     7.991
     7   7 N        1.837    -0.130    24.598     7.350
     8   6 C        2.930     0.133    25.092     8.215
     9   6 C        1.991    -0.035    31.971     9.131
    10   6 C        1.984    -0.027    31.759     9.101
    11   6 C        2.903     0.157    24.595     8.132
    12   8 O        1.702    -0.173    16.913     5.552
    13   6 C        1.868     0.051    29.841     8.824
    14   6 C        2.960     0.071    26.407     8.429
    15   6 C        1.988     0.017    30.615     8.936
    16   6 C        1.986    -0.011    31.342     9.041
    17   6 C        1.987    -0.005    31.193     9.019
    18   6 C        2.772     0.207    23.600     7.956
    19   9 F        0.787    -0.156    10.788     3.880
    20   6 C        1.989    -0.065    32.821     9.252
    21   6 C        2.875     0.088    26.028     8.363
    22  17 Cl       0.956    -0.082   101.708    15.429
    23   6 C        2.030    -0.070    32.917     9.266
    24   6 C        2.933     0.030    27.322     8.572
    25   6 C        1.971    -0.017    31.504     9.064
    26   6 C        2.748     0.157    24.593     8.120
    27   9 F        0.786    -0.176    10.988     3.916
    28   6 C        2.760     0.283    22.214     7.718
    29   8 O        0.858    -0.328    20.295     6.040
    30   7 N        2.729     0.044    20.477     6.721
    31   6 C        1.901    -0.014    31.476     9.061
    32   6 C        1.904    -0.020    31.633     9.083
    33   7 N        2.719     0.096    19.586     6.573
    34   6 C        1.902     0.032    30.297     8.889
    35   6 C        0.976    -0.101    39.083    10.498
    36   6 C        1.898    -0.024    31.742     9.099
    37   6 C        1.894    -0.028    31.866     9.117

 Mol. C6AA /au·bohr⁶  :      37993.448298
 Mol. C8AA /au·bohr⁸  :    1055442.904261
 Mol. α(0) /au        :        308.304508


Wiberg/Mayer (AO) data.
largest (>0.10) Wiberg bond orders for each atom

 ---------------------------------------------------------------------------
     #   Z sym  total        # sym  WBO       # sym  WBO       # sym  WBO
 ---------------------------------------------------------------------------
     1   6 C    2.357 --     2 C    1.736    25 C    0.153    24 C    0.122
                             4 C    0.104
     2   6 C    3.942 --     1 C    1.736     3 N    1.101    24 C    0.986
     3   7 N    3.152 --     4 C    1.657     2 C    1.101     5 N    0.117
     4   6 C    3.859 --     5 N    1.707     3 N    1.657     7 N    0.178
                             1 C    0.104
     5   7 N    3.206 --     4 C    1.707     6 C    1.112     7 N    0.123
                             3 N    0.117
     6   6 C    3.943 --     7 N    1.641     5 N    1.112    24 C    0.973
     7   7 N    3.347 --     6 C    1.641     8 C    1.085     4 C    0.178
                             5 N    0.123
     8   6 C    3.930 --    23 C    1.338     9 C    1.306     7 N    1.085
     9   6 C    3.704 --    10 C    1.689     8 C    1.306    23 C    0.287
                            21 C    0.107
    10   6 C    3.370 --     9 C    1.689    11 C    1.363    23 C    0.140
    11   6 C    3.863 --    10 C    1.363    21 C    1.261    12 O    0.962
    12   8 O    2.345 --    13 C    1.135    11 C    0.962
    13   6 C    2.749 --    12 O    1.135    14 C    1.018    17 C    0.106
    14   6 C    3.952 --    20 C    1.386    15 C    1.354    13 C    1.018
                            17 C    0.126
    15   6 C    3.785 --    16 C    1.652    14 C    1.354    17 C    0.336
                            20 C    0.168    18 C    0.101
    16   6 C    3.731 --    15 C    1.652    17 C    1.597    20 C    0.363
    17   6 C    3.758 --    16 C    1.597    18 C    1.352    15 C    0.336
                            20 C    0.151    14 C    0.126    13 C    0.106
    18   6 C    3.882 --    20 C    1.379    17 C    1.352    19 F    0.999
                            15 C    0.101
    19   9 F    1.171 --    18 C    0.999
    20   6 C    3.602 --    14 C    1.386    18 C    1.379    16 C    0.363
                            15 C    0.168    17 C    0.151
    21   6 C    3.893 --    23 C    1.433    11 C    1.261    22 Cl   0.998
                             9 C    0.107
    22  17 Cl   1.179 --    21 C    0.998
    23   6 C    3.452 --    21 C    1.433     8 C    1.338     9 C    0.287
                            10 C    0.140
Note: The following floating-point exceptions are signalling: IEEE_UNDERFLOW_FLAG IEEE_DENORMAL
normal termination of xtb
    24   6 C    3.873 --    25 C    1.597     2 C    0.986     6 C    0.973
                             1 C    0.122
    25   6 C    3.830 --    26 C    1.742    24 C    1.597     1 C    0.153
    26   6 C    3.885 --    25 C    1.742    28 C    1.010    27 F    0.966
    27   9 F    1.142 --    26 C    0.966
    28   6 C    3.929 --    29 O    1.744    30 N    1.060    26 C    1.010
    29   8 O    2.063 --    28 C    1.744
    30   7 N    3.626 --    37 C    1.109    31 C    1.104    28 C    1.060
    31   6 C    3.190 --    32 C    1.481    30 N    1.104    37 C    0.237
                            36 C    0.121
    32   6 C    3.213 --    31 C    1.481    33 N    1.133    36 C    0.170
                            37 C    0.148    35 C    0.134
    33   7 N    3.606 --    34 C    1.144    36 C    1.139    32 C    1.133
    34   6 C    3.495 --    35 C    2.030    33 N    1.144
    35   6 C    2.515 --    34 C    2.030    32 C    0.134
    36   6 C    3.111 --    37 C    1.424    33 N    1.139    32 C    0.170
                            31 C    0.121
    37   6 C    3.176 --    36 C    1.424    30 N    1.109    31 C    0.237
                            32 C    0.148
 ---------------------------------------------------------------------------

Topologies differ in total number of bonds
Writing topology from bond orders to xtbtopo.mol

molecular dipole:
                 x           y           z       tot (Debye)
 q only:        0.084       0.504      -1.043
   full:        0.987       0.823      -1.091       4.285
molecular quadrupole (traceless):
                xx          xy          yy          xz          yz          zz
 q only:      -11.510     -17.730       8.757       7.962       1.767       2.752
  q+dip:       -1.032     -20.852       1.961      11.225      13.146      -0.930
   full:        0.185     -24.842       1.551      13.813      13.464      -1.737


           -------------------------------------------------
          | TOTAL ENERGY              -92.736181804902 Eh   |
          | GRADIENT NORM               0.510547716113 Eh/α |
          | HOMO-LUMO GAP               0.001810251468 eV   |
           -------------------------------------------------

------------------------------------------------------------------------
 * finished run on 2026/07/23 at 16:40:16.443     
------------------------------------------------------------------------
 total:
 * wall-time:     0 d,  0 h,  0 min,  0.911 sec
 *  cpu-time:     0 d,  0 h,  0 min,  0.936 sec
 * ratio c/w:     1.028 speedup
 SCF:
 * wall-time:     0 d,  0 h,  0 min,  0.891 sec
 *  cpu-time:     0 d,  0 h,  0 min,  0.910 sec
 * ratio c/w:     1.020 speedup

