      -----------------------------------------------------------      
     |                   =====================                   |     
     |                           x T B                           |     
     |                   =====================                   |     
     |                         S. Grimme                         |     
     |          Mulliken Center for Theoretical Chemistry        |     
     |                    University of Bonn                     |     
      -----------------------------------------------------------      

   * xtb version 6.6.1 (unknown) compiled by 'builduser@buildhost' on 2023-08-07

   xtb is free software: you can redistribute it and/or modify it under
   the terms of the GNU Lesser General Public License as published by
   the Free Software Foundation, either version 3 of the License, or
   (at your option) any later version.
   
   xtb is distributed in the hope that it will be useful,
   but WITHOUT ANY WARRANTY; without even the implied warranty of
   MERCHANTABILITY or FITNESS FOR A PARTICULAR PURPOSE.  See the
   GNU Lesser General Public License for more details.
   
   Cite this work as:
   * C. Bannwarth, E. Caldeweyher, S. Ehlert, A. Hansen, P. Pracht,
     J. Seibert, S. Spicher, S. Grimme, WIREs Comput. Mol. Sci., 2020, 11,
     e01493. DOI: 10.1002/wcms.1493
   
   for GFN2-xTB:
   * C. Bannwarth, S. Ehlert and S. Grimme., J. Chem. Theory Comput., 2019,
     15, 1652-1671. DOI: 10.1021/acs.jctc.8b01176
   for GFN1-xTB:
   * S. Grimme, C. Bannwarth, P. Shushkov, J. Chem. Theory Comput., 2017,
     13, 1989-2009. DOI: 10.1021/acs.jctc.7b00118
   for GFN0-xTB:
   * P. Pracht, E. Caldeweyher, S. Ehlert, S. Grimme, ChemRxiv, 2019, preprint.
     DOI: 10.26434/chemrxiv.8326202.v1
   for GFN-FF:
   * S. Spicher and S. Grimme, Angew. Chem. Int. Ed., 2020, 59, 15665-15673.
     DOI: 10.1002/anie.202004239
   
   for ALPB and GBSA implicit solvation:
   * S. Ehlert, M. Stahn, S. Spicher, S. Grimme, J. Chem. Theory Comput.,
     2021, 17, 4250-4261. DOI: 10.1021/acs.jctc.1c00471
   
   for DFT-D4:
   * E. Caldeweyher, C. Bannwarth and S. Grimme, J. Chem. Phys., 2017,
     147, 034112. DOI: 10.1063/1.4993215
   * E. Caldeweyher, S. Ehlert, A. Hansen, H. Neugebauer, S. Spicher,
     C. Bannwarth and S. Grimme, J. Chem. Phys., 2019, 150, 154122.
     DOI: 10.1063/1.5090222
   * E. Caldeweyher, J.-M. Mewes, S. Ehlert and S. Grimme, Phys. Chem. Chem. Phys.
     2020, 22, 8499-8512. DOI: 10.1039/D0CP00502A
   
   for sTDA-xTB:
   * S. Grimme and C. Bannwarth, J. Chem. Phys., 2016, 145, 054103.
     DOI: 10.1063/1.4959605
   
   in the mass-spec context:
   * V. Asgeirsson, C. Bauer and S. Grimme, Chem. Sci., 2017, 8, 4879.
     DOI: 10.1039/c7sc00601b
   * J. Koopman and S. Grimme, ACS Omega 2019, 4, 12, 15120-15133.
     DOI: 10.1021/acsomega.9b02011
   
   for metadynamics refer to:
   * S. Grimme, J. Chem. Theory Comput., 2019, 155, 2847-2862
     DOI: 10.1021/acs.jctc.9b00143
   
   for SPH calculations refer to:
   * S. Spicher and S. Grimme, J. Chem. Theory Comput., 2021, 17, 1701-1714
     DOI: 10.1021/acs.jctc.0c01306
   
   with help from (in alphabetical order)
   P. Atkinson, C. Bannwarth, F. Bohle, G. Brandenburg, E. Caldeweyher
   M. Checinski, S. Dohm, S. Ehlert, S. Ehrlich, I. Gerasimov, C. Hölzer
   A. Katbashev, J. Koopman, C. Lavigne, S. Lehtola, F. März, M. Müller,
   F. Musil, H. Neugebauer, J. Pisarek, C. Plett, P. Pracht, F. Pultar,
   J. Seibert, P. Shushkov, S. Spicher, M. Stahn, M. Steiner, T. Strunk,
   J. Stückrath, T. Rose, and J. Unsleber
   
 * started run on 2026/07/23 at 16:41:20.976     

           -------------------------------------------------
          |                Calculation Setup                |
           -------------------------------------------------

          program call               : xtb /home/selva/covalent_quantum_benchmark/data/quantum/erbB_xyz/ERBB2__CHEMBL180415__state03.xyz --gfn2 --chrg 0 --uhf 0 --iterations 300
          coordinate file            : /home/selva/covalent_quantum_benchmark/data/quantum/erbB_xyz/ERBB2__CHEMBL180415__state03.xyz
          omp threads                :                    24

   ID    Z sym.   atoms
    1    6 C      1, 2, 4-6, 8-10, 12, 14-17, 19-23, 25-27, 29-32, 34, 36-38,
                  40, 41
    2    8 O      3, 18, 35
    3    7 N      7, 11, 13, 33, 39
    4   17 Cl     24, 28

           -------------------------------------------------
          |                 G F N 2 - x T B                 |
           -------------------------------------------------

        Reference                      10.1021/acs.jctc.8b01176
      * Hamiltonian:
        H0-scaling (s, p, d)           1.850000    2.230000    2.230000
        zeta-weighting                 0.500000
      * Dispersion:
        s8                             2.700000
        a1                             0.520000
        a2                             5.000000
        s9                             5.000000
      * Repulsion:
        kExp                           1.500000    1.000000
        rExp                           1.000000
      * Coulomb:
        alpha                          2.000000
        third order                    shell-resolved
        anisotropic                    true
        a3                             3.000000
        a5                             4.000000
        cn-shift                       1.200000
        cn-exp                         4.000000
        max-rad                        5.000000


          ...................................................
          :                      SETUP                      :
          :.................................................:
          :  # basis functions                 176          :
          :  # atomic orbitals                 174          :
          :  # shells                           84          :
          :  # electrons                       181          :
          :  max. iterations                   300          :
          :  Hamiltonian                  GFN2-xTB          :
          :  restarted?                      false          :
          :  GBSA solvation                  false          :
          :  PC potential                    false          :
          :  electronic temp.          300.0000000     K    :
          :  accuracy                    1.0000000          :
          :  -> integral cutoff          0.2500000E+02      :
          :  -> integral neglect         0.1000000E-07      :
          :  -> SCF convergence          0.1000000E-05 Eh   :
          :  -> wf. convergence          0.1000000E-03 e    :
          :  Broyden damping             0.4000000          :
          ...................................................

 iter      E             dE          RMSdq      gap      omega  full diag
   1    -99.9838279 -0.999838E+02  0.873E+00    0.24       0.0  T
   2    -78.8732138  0.211106E+02  0.129E+01    0.08       1.0  T
   3    -68.9026237  0.997059E+01  0.121E+01    0.04       1.0  T
   4    -62.9027212  0.599990E+01  0.126E+01    0.14       1.0  T
   5    -89.0122800 -0.261096E+02  0.914E+00    0.16       1.0  T
   6    -98.7403039 -0.972802E+01  0.564E+00    0.05       1.0  T
   7    -99.7228152 -0.982511E+00  0.506E+00    0.03       1.0  T
   8   -100.2160643 -0.493249E+00  0.409E+00    0.09       1.0  T
   9   -100.0340597  0.182005E+00  0.402E+00    0.03       1.0  T
  10   -100.5025317 -0.468472E+00  0.348E+00    0.12       1.0  T
  11   -100.4964421  0.608954E-02  0.333E+00    0.00       1.0  T
  12   -100.4145228  0.819193E-01  0.345E+00    0.11       1.0  T
  13   -100.7731005 -0.358578E+00  0.278E+00    0.05       1.0  T
  14   -100.8861240 -0.113024E+00  0.269E+00    0.05       1.0  T
  15   -100.9192424 -0.331184E-01  0.240E+00    0.03       1.0  T
  16    -99.5465868  0.137266E+01  0.349E+00    0.07       1.0  T
  17   -100.8041230 -0.125754E+01  0.209E+00    0.03       1.0  T
  18   -100.6792742  0.124849E+00  0.240E+00    0.03       1.0  T
  19   -100.4024146  0.276860E+00  0.274E+00    0.01       1.0  T
  20    -99.5315084  0.870906E+00  0.347E+00    0.03       1.0  T
  21   -101.1950449 -0.166354E+01  0.177E+00    0.01       1.0  T
  22   -100.2108518  0.984193E+00  0.298E+00    0.01       1.0  T
  23   -101.1577183 -0.946867E+00  0.161E+00    0.05       1.0  T
  24   -101.1025202  0.551981E-01  0.164E+00    0.08       1.0  T
  25   -101.1794934 -0.769732E-01  0.153E+00    0.01       1.0  T
  26   -100.6443692  0.535124E+00  0.270E+00    0.01       1.0  T
  27   -101.1156586 -0.471289E+00  0.163E+00    0.01       1.0  T
  28   -101.2642630 -0.148604E+00  0.119E+00    0.05       1.0  T
  29   -101.1804746  0.837884E-01  0.137E+00    0.07       1.0  T
  30   -101.3041136 -0.123639E+00  0.108E+00    0.08       1.0  T
  31   -101.3128131 -0.869952E-02  0.103E+00    0.08       1.0  T
  32   -101.3392936 -0.264805E-01  0.921E-01    0.07       1.0  T
  33   -101.3632659 -0.239723E-01  0.764E-01    0.05       1.0  T
  34   -101.2279804  0.135285E+00  0.110E+00    0.01       1.0  T
  35   -101.0095633  0.218417E+00  0.162E+00    0.02       1.0  T
  36   -101.3055863 -0.296023E+00  0.853E-01    0.02       1.0  T
  37   -101.3351600 -0.295737E-01  0.807E-01    0.08       1.0  T
  38   -101.3830877 -0.479276E-01  0.295E-01    0.04       1.0  T
  39   -101.3750380  0.804966E-02  0.489E-01    0.06       1.0  T
  40   -101.3802896 -0.525153E-02  0.424E-01    0.06       1.0  T
  41   -101.3846287 -0.433917E-02  0.252E-01    0.04       1.0  T
  42   -101.3786088  0.601989E-02  0.307E-01    0.03       1.0  T
  43   -101.3898209 -0.112120E-01  0.157E-01    0.04       1.0  T
  44   -101.3744392  0.153817E-01  0.394E-01    0.03       1.0  T
  45   -101.3907649 -0.163256E-01  0.184E-01    0.04       1.0  T
  46   -101.3931871 -0.242225E-02  0.918E-02    0.04       1.0  T
  47   -101.3907940  0.239306E-02  0.161E-01    0.04       1.0  T
  48   -101.3923510 -0.155693E-02  0.109E-01    0.04       1.0  T
  49   -101.3934919 -0.114095E-02  0.570E-02    0.04       1.0  T
  50   -101.3927560  0.735918E-03  0.905E-02    0.04       1.0  T
  51   -101.3929895 -0.233531E-03  0.793E-02    0.04       1.0  T
  52   -101.3934601 -0.470576E-03  0.526E-02    0.04       1.0  T
  53   -101.3935949 -0.134766E-03  0.401E-02    0.04       1.0  T
  54   -101.3936734 -0.785205E-04  0.311E-02    0.04       1.0  T
  55   -101.3936855 -0.120786E-04  0.291E-02    0.04       1.0  T
  56   -101.3937684 -0.829450E-04  0.124E-02    0.04       1.3  T
  57   -101.3937693 -0.854421E-06  0.111E-02    0.04       1.4  T
  58   -101.3937702 -0.972856E-06  0.101E-02    0.04       1.5  T
  59   -101.3937790 -0.875270E-05  0.445E-03    0.04       3.5  T
  60   -101.3937804 -0.137147E-05  0.269E-03    0.04       5.8  T
  61   -101.3937810 -0.593955E-06  0.174E-03    0.04       9.0  T
  62   -101.3937810 -0.547525E-07  0.128E-03    0.04      12.2  T
  63   -101.3937811 -0.653345E-07  0.106E-03    0.04      14.8  T
  64   -101.3937812 -0.786606E-07  0.771E-04    0.04      20.3  T
  65   -101.3937812 -0.589084E-07  0.418E-04    0.04      37.4  T

   *** convergence criteria satisfied after 65 iterations ***

         #    Occupation            Energy/Eh            Energy/eV
      -------------------------------------------------------------
         1        2.0000           -1.0981503             -29.8822
       ...           ...                  ...                  ...
        85        1.9996           -0.4298135             -11.6958
        86        1.9994           -0.4295414             -11.6884
        87        1.8964           -0.4245108             -11.5515
        88        1.8542           -0.4241600             -11.5420
        89        1.6332           -0.4231366             -11.5141
        90        1.4028           -0.4225001             -11.4968
        91        1.3925           -0.4224754             -11.4961 (HOMO)
        92        0.6188           -0.4208221             -11.4512 (LUMO)
        93        0.1747           -0.4193006             -11.4098
        94        0.0283           -0.4174832             -11.3603
        95        0.0000           -0.4056043             -11.0371
        96                         -0.3986988             -10.8491
       ...                                ...                  ...
       174                          1.0464386              28.4750
      -------------------------------------------------------------
                  HL-Gap            0.0016534 Eh            0.0450 eV
             Fermi-level           -0.4216353 Eh          -11.4733 eV

 SCC (total)                   0 d,  0 h,  0 min,  1.617 sec
 SCC setup                      ...        0 min,  0.004 sec (  0.222%)
 Dispersion                     ...        0 min,  0.002 sec (  0.098%)
 classical contributions        ...        0 min,  0.004 sec (  0.263%)
 integral evaluation            ...        0 min,  0.011 sec (  0.683%)
 iterations                     ...        0 min,  1.556 sec ( 96.248%)
 molecular gradient             ...        0 min,  0.025 sec (  1.521%)
 printout                       ...        0 min,  0.016 sec (  0.962%)

         :::::::::::::::::::::::::::::::::::::::::::::::::::::
         ::                     SUMMARY                     ::
         :::::::::::::::::::::::::::::::::::::::::::::::::::::
         :: total energy            -100.285875735487 Eh    ::
         :: gradient norm              0.541465077596 Eh/a0 ::
         :: HOMO-LUMO gap              0.044990814995 eV    ::
         ::.................................................::
         :: SCC energy              -101.393781219336 Eh    ::
         :: -> isotropic ES            0.019346998124 Eh    ::
         :: -> anisotropic ES          0.005348923448 Eh    ::
         :: -> anisotropic XC          0.055981642978 Eh    ::
         :: -> dispersion             -0.060094631406 Eh    ::
         :: repulsion energy           1.107097394116 Eh    ::
         :: add. restraining           0.000000000000 Eh    ::
         :: total charge               0.000000000950 e     ::
         :::::::::::::::::::::::::::::::::::::::::::::::::::::

           -------------------------------------------------
          |                Property Printout                |
           -------------------------------------------------

    * Orbital Energies and Occupations

         #    Occupation            Energy/Eh            Energy/eV
      -------------------------------------------------------------
         1        2.0000           -1.0981503             -29.8822
       ...           ...                  ...                  ...
        79        2.0000           -0.4455768             -12.1248
        80        2.0000           -0.4444449             -12.0940
        81        2.0000           -0.4418357             -12.0230
        82        2.0000           -0.4387180             -11.9381
        83        2.0000           -0.4339207             -11.8076
        84        2.0000           -0.4320913             -11.7578
        85        1.9996           -0.4298135             -11.6958
        86        1.9994           -0.4295414             -11.6884
        87        1.8964           -0.4245108             -11.5515
        88        1.8542           -0.4241600             -11.5420
        89        1.6332           -0.4231366             -11.5141
        90        1.4028           -0.4225001             -11.4968
        91        1.3925           -0.4224754             -11.4961 (HOMO)
        92        0.6188           -0.4208221             -11.4512 (LUMO)
        93        0.1747           -0.4193006             -11.4098
        94        0.0283           -0.4174832             -11.3603
        95        0.0000           -0.4056043             -11.0371
        96                         -0.3986988             -10.8491
        97                         -0.3966761             -10.7941
        98                         -0.3905478             -10.6273
        99                         -0.3883238             -10.5668
       100                         -0.3640883              -9.9073
       101                         -0.3635383              -9.8924
       102                         -0.3629162              -9.8755
       ...                                ...                  ...
       174                          1.0464386              28.4750
      -------------------------------------------------------------
                  HL-Gap            0.0016534 Eh            0.0450 eV
             Fermi-level           -0.4216353 Eh          -11.4733 eV

     #   Z          covCN         q      C6AA      α(0)
     1   6 C        0.976    -0.099    39.032    10.491
     2   6 C        1.842     0.083    29.065     8.709
     3   8 O        1.703    -0.134    16.328     5.456
     4   6 C        2.857     0.160    24.537     8.119
     5   6 C        2.001    -0.080    33.212     9.307
     6   6 C        2.951     0.119    25.391     8.265
     7   7 N        1.844    -0.112    24.210     7.292
     8   6 C        1.969     0.068    29.347     8.748
     9   6 C        2.958     0.034    27.241     8.561
    10   6 C        1.907     0.123    28.088     8.559
    11   7 N        0.911    -0.176    24.815     7.205
    12   6 C        2.909     0.131    25.143     8.222
    13   7 N        1.827    -0.152    25.071     7.420
    14   6 C        2.891     0.143    24.880     8.178
    15   6 C        1.990    -0.062    32.713     9.237
    16   6 C        1.986    -0.069    32.924     9.266
    17   6 C        2.872     0.171    24.327     8.085
    18   8 O        1.702    -0.107    15.944     5.391
    19   6 C        1.842     0.069    29.411     8.761
    20   6 C        2.958     0.082    26.160     8.389
    21   6 C        1.990    -0.041    32.148     9.156
    22   6 C        2.022    -0.026    31.719     9.096
    23   6 C        2.879     0.140    24.955     8.189
    24  17 Cl       0.966    -0.031   100.150    15.310
    25   6 C        2.022    -0.029    31.778     9.104
    26   6 C        1.990    -0.034    31.956     9.129
    27   6 C        2.879     0.092    25.963     8.353
    28  17 Cl       0.959    -0.057   100.942    15.371
    29   6 C        2.034    -0.065    32.757     9.244
    30   6 C        2.978     0.020    27.556     8.611
    31   6 C        1.995    -0.059    32.642     9.227
    32   6 C        2.935     0.098    25.822     8.334
    33   7 N        1.833    -0.151    25.050     7.417
    34   6 C        2.790     0.295    21.996     7.683
    35   8 O        0.860    -0.377    21.231     6.178
    36   6 C        1.963    -0.013    31.426     9.053
    37   6 C        1.963     0.058    29.595     8.785
    38   6 C        1.912    -0.021    31.656     9.086
    39   7 N        2.720     0.172    18.367     6.365
    40   6 C        0.940    -0.064    37.631    10.282
    41   6 C        0.937    -0.098    38.699    10.425

 Mol. C6AA /au·bohr⁶  :      50639.519733
 Mol. C8AA /au·bohr⁸  :    1450559.925213
 Mol. α(0) /au        :        358.059779


Wiberg/Mayer (AO) data.
largest (>0.10) Wiberg bond orders for each atom

 ---------------------------------------------------------------------------
     #   Z sym  total        # sym  WBO       # sym  WBO       # sym  WBO
 ---------------------------------------------------------------------------
     1   6 C    2.173 --     2 C    1.991
     2   6 C    3.250 --     1 C    1.991     3 O    1.113
     3   8 O    2.394 --     2 C    1.113     4 C    1.080
     4   6 C    3.887 --     5 C    1.477    32 C    1.091     3 O    1.080
     5   6 C    3.662 --     4 C    1.477     6 C    1.386    31 C    0.441
     6   6 C    3.908 --     5 C    1.386     7 N    1.238    30 C    1.070
     7   7 N    3.280 --     8 C    1.672     6 C    1.238
     8   6 C    3.594 --     7 N    1.672     9 C    1.387    13 N    0.203
     9   6 C    3.935 --     8 C    1.387    12 C    1.227    10 C    1.081
    10   6 C    3.944 --    11 N    2.816     9 C    1.081
    11   7 N    2.998 --    10 C    2.816
    12   6 C    3.945 --    13 N    1.245     9 C    1.227    30 C    1.194
    13   7 N    3.139 --    14 C    1.276    12 C    1.245     8 C    0.203
    14   6 C    3.909 --    13 N    1.276    29 C    1.263    15 C    1.196
    15   6 C    3.665 --    16 C    1.804    14 C    1.196    29 C    0.308
    16   6 C    3.499 --    15 C    1.804    17 C    1.299    29 C    0.164
    17   6 C    3.841 --    16 C    1.299    27 C    1.182    18 O    1.080
Note: The following floating-point exceptions are signalling: IEEE_UNDERFLOW_FLAG IEEE_DENORMAL
normal termination of xtb
    18   8 O    2.520 --    19 C    1.175    17 C    1.080
    19   6 C    3.101 --    20 C    1.197    18 O    1.175    22 C    0.149
    20   6 C    3.907 --    26 C    1.251    21 C    1.242    19 C    1.197
    21   6 C    3.464 --    22 C    1.575    20 C    1.242    26 C    0.220
                            25 C    0.216
    22   6 C    3.457 --    21 C    1.575    23 C    1.324    26 C    0.179
                            19 C    0.149
    23   6 C    3.885 --    25 C    1.342    22 C    1.324    24 Cl   1.021
    24  17 Cl   1.183 --    23 C    1.021
    25   6 C    3.441 --    26 C    1.593    23 C    1.342    21 C    0.216
    26   6 C    3.448 --    25 C    1.593    20 C    1.251    21 C    0.220
                            22 C    0.179
    27   6 C    3.880 --    29 C    1.500    17 C    1.182    28 Cl   1.014
    28  17 Cl   1.203 --    27 C    1.014
    29   6 C    3.455 --    27 C    1.500    14 C    1.263    15 C    0.308
                            16 C    0.164
    30   6 C    3.939 --    31 C    1.423    12 C    1.194     6 C    1.070
    31   6 C    3.688 --    32 C    1.439    30 C    1.423     5 C    0.441
    32   6 C    3.926 --    31 C    1.439    33 N    1.175     4 C    1.091
    33   7 N    3.205 --    34 C    1.483    32 C    1.175    35 O    0.205
    34   6 C    3.941 --    33 N    1.483    35 O    1.396    36 C    0.971
    35   8 O    1.868 --    34 C    1.396    33 N    0.205
    36   6 C    3.707 --    37 C    2.326    34 C    0.971    38 C    0.106
    37   6 C    3.840 --    36 C    2.326    38 C    1.259
    38   6 C    3.055 --    37 C    1.259    39 N    1.038    41 C    0.484
                            36 C    0.106
    39   7 N    3.670 --    41 C    1.300    40 C    1.288    38 C    1.038
    40   6 C    1.893 --    39 N    1.288    41 C    0.452
    41   6 C    2.382 --    39 N    1.300    38 C    0.484    40 C    0.452
 ---------------------------------------------------------------------------

Topologies differ in total number of bonds
Writing topology from bond orders to xtbtopo.mol

molecular dipole:
                 x           y           z       tot (Debye)
 q only:       -0.547       1.600       1.405
   full:       -0.454       1.982       0.630       5.411
molecular quadrupole (traceless):
                xx          xy          yy          xz          yz          zz
 q only:       -2.536     -10.398      12.881      -6.365     -19.445     -10.346
  q+dip:        2.416      -6.346      -1.126      -6.080     -25.448      -1.290
   full:        4.265      -8.228      -0.774      -8.101     -28.171      -3.491


           -------------------------------------------------
          | TOTAL ENERGY             -100.285875735487 Eh   |
          | GRADIENT NORM               0.541465077596 Eh/α |
          | HOMO-LUMO GAP               0.044990814995 eV   |
           -------------------------------------------------

------------------------------------------------------------------------
 * finished run on 2026/07/23 at 16:41:22.620     
------------------------------------------------------------------------
 total:
 * wall-time:     0 d,  0 h,  0 min,  1.644 sec
 *  cpu-time:     0 d,  0 h,  0 min,  1.585 sec
 * ratio c/w:     0.964 speedup
 SCF:
 * wall-time:     0 d,  0 h,  0 min,  1.618 sec
 *  cpu-time:     0 d,  0 h,  0 min,  1.559 sec
 * ratio c/w:     0.964 speedup

