      -----------------------------------------------------------      
     |                   =====================                   |     
     |                           x T B                           |     
     |                   =====================                   |     
     |                         S. Grimme                         |     
     |          Mulliken Center for Theoretical Chemistry        |     
     |                    University of Bonn                     |     
      -----------------------------------------------------------      

   * xtb version 6.6.1 (unknown) compiled by 'builduser@buildhost' on 2023-08-07

   xtb is free software: you can redistribute it and/or modify it under
   the terms of the GNU Lesser General Public License as published by
   the Free Software Foundation, either version 3 of the License, or
   (at your option) any later version.
   
   xtb is distributed in the hope that it will be useful,
   but WITHOUT ANY WARRANTY; without even the implied warranty of
   MERCHANTABILITY or FITNESS FOR A PARTICULAR PURPOSE.  See the
   GNU Lesser General Public License for more details.
   
   Cite this work as:
   * C. Bannwarth, E. Caldeweyher, S. Ehlert, A. Hansen, P. Pracht,
     J. Seibert, S. Spicher, S. Grimme, WIREs Comput. Mol. Sci., 2020, 11,
     e01493. DOI: 10.1002/wcms.1493
   
   for GFN2-xTB:
   * C. Bannwarth, S. Ehlert and S. Grimme., J. Chem. Theory Comput., 2019,
     15, 1652-1671. DOI: 10.1021/acs.jctc.8b01176
   for GFN1-xTB:
   * S. Grimme, C. Bannwarth, P. Shushkov, J. Chem. Theory Comput., 2017,
     13, 1989-2009. DOI: 10.1021/acs.jctc.7b00118
   for GFN0-xTB:
   * P. Pracht, E. Caldeweyher, S. Ehlert, S. Grimme, ChemRxiv, 2019, preprint.
     DOI: 10.26434/chemrxiv.8326202.v1
   for GFN-FF:
   * S. Spicher and S. Grimme, Angew. Chem. Int. Ed., 2020, 59, 15665-15673.
     DOI: 10.1002/anie.202004239
   
   for ALPB and GBSA implicit solvation:
   * S. Ehlert, M. Stahn, S. Spicher, S. Grimme, J. Chem. Theory Comput.,
     2021, 17, 4250-4261. DOI: 10.1021/acs.jctc.1c00471
   
   for DFT-D4:
   * E. Caldeweyher, C. Bannwarth and S. Grimme, J. Chem. Phys., 2017,
     147, 034112. DOI: 10.1063/1.4993215
   * E. Caldeweyher, S. Ehlert, A. Hansen, H. Neugebauer, S. Spicher,
     C. Bannwarth and S. Grimme, J. Chem. Phys., 2019, 150, 154122.
     DOI: 10.1063/1.5090222
   * E. Caldeweyher, J.-M. Mewes, S. Ehlert and S. Grimme, Phys. Chem. Chem. Phys.
     2020, 22, 8499-8512. DOI: 10.1039/D0CP00502A
   
   for sTDA-xTB:
   * S. Grimme and C. Bannwarth, J. Chem. Phys., 2016, 145, 054103.
     DOI: 10.1063/1.4959605
   
   in the mass-spec context:
   * V. Asgeirsson, C. Bauer and S. Grimme, Chem. Sci., 2017, 8, 4879.
     DOI: 10.1039/c7sc00601b
   * J. Koopman and S. Grimme, ACS Omega 2019, 4, 12, 15120-15133.
     DOI: 10.1021/acsomega.9b02011
   
   for metadynamics refer to:
   * S. Grimme, J. Chem. Theory Comput., 2019, 155, 2847-2862
     DOI: 10.1021/acs.jctc.9b00143
   
   for SPH calculations refer to:
   * S. Spicher and S. Grimme, J. Chem. Theory Comput., 2021, 17, 1701-1714
     DOI: 10.1021/acs.jctc.0c01306
   
   with help from (in alphabetical order)
   P. Atkinson, C. Bannwarth, F. Bohle, G. Brandenburg, E. Caldeweyher
   M. Checinski, S. Dohm, S. Ehlert, S. Ehrlich, I. Gerasimov, C. Hölzer
   A. Katbashev, J. Koopman, C. Lavigne, S. Lehtola, F. März, M. Müller,
   F. Musil, H. Neugebauer, J. Pisarek, C. Plett, P. Pracht, F. Pultar,
   J. Seibert, P. Shushkov, S. Spicher, M. Stahn, M. Steiner, T. Strunk,
   J. Stückrath, T. Rose, and J. Unsleber
   
 * started run on 2026/07/23 at 16:37:56.007     

           -------------------------------------------------
          |                Calculation Setup                |
           -------------------------------------------------

          program call               : xtb /home/selva/covalent_quantum_benchmark/data/quantum/erbB_xyz/EGFR__CHEMBL296168__state01.xyz --gfn2 --chrg 0 --uhf 0 --iterations 300
          coordinate file            : /home/selva/covalent_quantum_benchmark/data/quantum/erbB_xyz/EGFR__CHEMBL296168__state01.xyz
          omp threads                :                    24

   ID    Z sym.   atoms
    1    6 C      1-3, 6-9, 11, 13, 15-19, 21, 22
    2    8 O      4
    3    7 N      5, 10, 12, 14, 23
    4   35 Br     20

           -------------------------------------------------
          |                 G F N 2 - x T B                 |
           -------------------------------------------------

        Reference                      10.1021/acs.jctc.8b01176
      * Hamiltonian:
        H0-scaling (s, p, d)           1.850000    2.230000    2.230000
        zeta-weighting                 0.500000
      * Dispersion:
        s8                             2.700000
        a1                             0.520000
        a2                             5.000000
        s9                             5.000000
      * Repulsion:
        kExp                           1.500000    1.000000
        rExp                           1.000000
      * Coulomb:
        alpha                          2.000000
        third order                    shell-resolved
        anisotropic                    true
        a3                             3.000000
        a5                             4.000000
        cn-shift                       1.200000
        cn-exp                         4.000000
        max-rad                        5.000000


          ...................................................
          :                      SETUP                      :
          :.................................................:
          :  # basis functions                  98          :
          :  # atomic orbitals                  97          :
          :  # shells                           47          :
          :  # electrons                       102          :
          :  max. iterations                   300          :
          :  Hamiltonian                  GFN2-xTB          :
          :  restarted?                      false          :
          :  GBSA solvation                  false          :
          :  PC potential                    false          :
          :  electronic temp.          300.0000000     K    :
          :  accuracy                    1.0000000          :
          :  -> integral cutoff          0.2500000E+02      :
          :  -> integral neglect         0.1000000E-07      :
          :  -> SCF convergence          0.1000000E-05 Eh   :
          :  -> wf. convergence          0.1000000E-03 e    :
          :  Broyden damping             0.4000000          :
          ...................................................

 iter      E             dE          RMSdq      gap      omega  full diag
   1    -56.2545357 -0.562545E+02  0.771E+00    0.63       0.0  T
   2    -45.9501133  0.103044E+02  0.114E+01    0.40       1.0  T
   3    -49.2661267 -0.331601E+01  0.102E+01    0.03       1.0  T
   4    -53.4379787 -0.417185E+01  0.727E+00    0.19       1.0  T
   5    -53.9127797 -0.474801E+00  0.698E+00    0.28       1.0  T
   6    -56.6990044 -0.278622E+01  0.337E+00    0.06       1.0  T
   7    -56.7578858 -0.588814E-01  0.250E+00    0.08       1.0  T
   8    -56.4703327  0.287553E+00  0.313E+00    0.26       1.0  T
   9    -56.5432639 -0.729313E-01  0.290E+00    0.31       1.0  T
  10    -56.7349792 -0.191715E+00  0.213E+00    0.24       1.0  T
  11    -56.7876513 -0.526721E-01  0.166E+00    0.12       1.0  T
  12    -56.8125854 -0.249341E-01  0.135E+00    0.10       1.0  T
  13    -56.8478582 -0.352729E-01  0.830E-01    0.01       1.0  T
  14    -56.8171626  0.306956E-01  0.107E+00    0.01       1.0  T
  15    -56.4754357  0.341727E+00  0.279E+00    0.11       1.0  T
  16    -56.8345736 -0.359138E+00  0.920E-01    0.02       1.0  T
  17    -56.8631597 -0.285861E-01  0.402E-01    0.03       1.0  T
  18    -56.8694215 -0.626183E-02  0.212E-01    0.02       1.0  T
  19    -56.8684094  0.101213E-02  0.212E-01    0.03       1.0  T
  20    -56.8697193 -0.130991E-02  0.132E-01    0.02       1.0  T
  21    -56.8698744 -0.155101E-03  0.105E-01    0.02       1.0  T
  22    -56.8688638  0.101058E-02  0.186E-01    0.01       1.0  T
  23    -56.8699887 -0.112493E-02  0.100E-01    0.02       1.0  T
  24    -56.8702865 -0.297791E-03  0.366E-02    0.02       1.0  T
  25    -56.8702940 -0.747773E-05  0.400E-02    0.02       1.0  T
  26    -56.8703105 -0.165054E-04  0.321E-02    0.02       1.0  T
  27    -56.8703263 -0.157946E-04  0.267E-02    0.02       1.0  T
  28    -56.8703340 -0.766673E-05  0.234E-02    0.02       1.0  T
  29    -56.8703223  0.116902E-04  0.276E-02    0.02       1.0  T
  30    -56.8703272 -0.495427E-05  0.253E-02    0.02       1.0  T
  31    -56.8703439 -0.166923E-04  0.169E-02    0.02       1.2  T
  32    -56.8703510 -0.708382E-05  0.118E-02    0.02       1.8  T
  33    -56.8703537 -0.268725E-05  0.892E-03    0.02       2.3  T
  34    -56.8703568 -0.315509E-05  0.312E-03    0.02       6.7  T
  35    -56.8703572 -0.405417E-06  0.110E-03    0.02      18.9  T
  36    -56.8703573 -0.376085E-07  0.695E-04    0.02      30.0  T
  37    -56.8703573 -0.141202E-07  0.425E-04    0.02      49.1  T

   *** convergence criteria satisfied after 37 iterations ***

         #    Occupation            Energy/Eh            Energy/eV
      -------------------------------------------------------------
         1        2.0000           -0.8640872             -23.5130
       ...           ...                  ...                  ...
        45        2.0000           -0.4434479             -12.0668
        46        2.0000           -0.4428152             -12.0496
        47        2.0000           -0.4359682             -11.8633
        48        2.0000           -0.4342621             -11.8169
        49        2.0000           -0.4313524             -11.7377
        50        1.9665           -0.4248965             -11.5620
        51        1.2216           -0.4214552             -11.4684 (HOMO)
        52        0.8119           -0.4206654             -11.4469 (LUMO)
        53        0.0000           -0.4087035             -11.1214
        54                         -0.3953060             -10.7568
        55                         -0.3655491              -9.9471
        56                         -0.3614831              -9.8365
       ...                                ...                  ...
        97                          0.6258531              17.0303
      -------------------------------------------------------------
                  HL-Gap            0.0007899 Eh            0.0215 eV
             Fermi-level           -0.4210271 Eh          -11.4567 eV

 SCC (total)                   0 d,  0 h,  0 min,  0.238 sec
 SCC setup                      ...        0 min,  0.000 sec (  0.141%)
 Dispersion                     ...        0 min,  0.001 sec (  0.323%)
 classical contributions        ...        0 min,  0.003 sec (  1.404%)
 integral evaluation            ...        0 min,  0.020 sec (  8.480%)
 iterations                     ...        0 min,  0.194 sec ( 81.519%)
 molecular gradient             ...        0 min,  0.019 sec (  7.833%)
 printout                       ...        0 min,  0.001 sec (  0.289%)

         :::::::::::::::::::::::::::::::::::::::::::::::::::::
         ::                     SUMMARY                     ::
         :::::::::::::::::::::::::::::::::::::::::::::::::::::
         :: total energy             -56.189117490079 Eh    ::
         :: gradient norm              0.366061633416 Eh/a0 ::
         :: HOMO-LUMO gap              0.021493411234 eV    ::
         ::.................................................::
         :: SCC energy               -56.870357293947 Eh    ::
         :: -> isotropic ES            0.049670316931 Eh    ::
         :: -> anisotropic ES          0.007649449423 Eh    ::
         :: -> anisotropic XC          0.032308916049 Eh    ::
         :: -> dispersion             -0.035101287694 Eh    ::
         :: repulsion energy           0.680803359600 Eh    ::
         :: add. restraining           0.000000000000 Eh    ::
         :: total charge               0.000000000012 e     ::
         :::::::::::::::::::::::::::::::::::::::::::::::::::::

           -------------------------------------------------
          |                Property Printout                |
           -------------------------------------------------

    * Orbital Energies and Occupations

         #    Occupation            Energy/Eh            Energy/eV
      -------------------------------------------------------------
         1        2.0000           -0.8640872             -23.5130
       ...           ...                  ...                  ...
        39        2.0000           -0.4766889             -12.9714
        40        2.0000           -0.4737660             -12.8918
        41        2.0000           -0.4651010             -12.6560
        42        2.0000           -0.4588094             -12.4848
        43        2.0000           -0.4553957             -12.3919
        44        2.0000           -0.4488671             -12.2143
        45        2.0000           -0.4434479             -12.0668
        46        2.0000           -0.4428152             -12.0496
        47        2.0000           -0.4359682             -11.8633
        48        2.0000           -0.4342621             -11.8169
        49        2.0000           -0.4313524             -11.7377
        50        1.9665           -0.4248965             -11.5620
        51        1.2216           -0.4214552             -11.4684 (HOMO)
        52        0.8119           -0.4206654             -11.4469 (LUMO)
        53        0.0000           -0.4087035             -11.1214
        54                         -0.3953060             -10.7568
        55                         -0.3655491              -9.9471
        56                         -0.3614831              -9.8365
        57                         -0.3332275              -9.0676
        58                         -0.3168422              -8.6217
        59                         -0.3057728              -8.3205
        60                         -0.3039621              -8.2712
        61                         -0.2932456              -7.9796
        62                         -0.2826827              -7.6922
       ...                                ...                  ...
        97                          0.6258531              17.0303
      -------------------------------------------------------------
                  HL-Gap            0.0007899 Eh            0.0215 eV
             Fermi-level           -0.4210271 Eh          -11.4567 eV

     #   Z          covCN         q      C6AA      α(0)
     1   6 C        0.984    -0.051    37.516    10.289
     2   6 C        1.966     0.004    30.954     8.985
     3   6 C        2.802     0.335    21.310     7.563
     4   8 O        0.858    -0.313    20.021     5.999
     5   7 N        1.839    -0.219    26.624     7.647
     6   6 C        2.874     0.222    23.327     7.917
     7   6 C        1.977    -0.033    31.935     9.126
     8   6 C        1.984    -0.008    31.274     9.031
     9   6 C        2.927     0.125    25.262     8.243
    10   7 N        1.837    -0.169    25.468     7.479
    11   6 C        1.911     0.173    26.958     8.385
    12   7 N        1.852    -0.145    24.925     7.400
    13   6 C        2.890     0.192    23.904     8.016
    14   7 N        1.855    -0.137    24.744     7.373
    15   6 C        2.921     0.130    25.161     8.226
    16   6 C        1.992    -0.004    31.142     9.012
    17   6 C        1.986    -0.015    31.444     9.056
    18   6 C        2.062     0.017    30.520     8.924
    19   6 C        2.906     0.122    25.331     8.253
    20  35 Br       1.068    -0.044   186.209    22.002
    21   6 C        2.066    -0.055    32.432     9.199
    22   6 C        2.902     0.071    26.404     8.425
    23   7 N        1.833    -0.199    26.138     7.576

 Mol. C6AA /au·bohr⁶  :      16467.494802
 Mol. C8AA /au·bohr⁸  :     495796.667657
 Mol. α(0) /au        :        204.124225


Wiberg/Mayer (AO) data.
largest (>0.10) Wiberg bond orders for each atom

 ---------------------------------------------------------------------------
     #   Z sym  total        # sym  WBO       # sym  WBO       # sym  WBO
Note: The following floating-point exceptions are signalling: IEEE_UNDERFLOW_FLAG IEEE_DENORMAL
normal termination of xtb
 ---------------------------------------------------------------------------
     1   6 C    2.881 --     2 C    2.547     4 O    0.178
     2   6 C    3.573 --     1 C    2.547     3 C    0.936
     3   6 C    3.899 --     4 O    1.676     5 N    1.157     2 C    0.936
     4   8 O    2.082 --     3 C    1.676     1 C    0.178
     5   7 N    2.970 --     6 C    1.457     3 C    1.157
     6   6 C    3.941 --     5 N    1.457    23 N    1.283     7 C    1.008
     7   6 C    3.694 --     8 C    2.114     6 C    1.008    11 C    0.142
     8   6 C    3.867 --     7 C    2.114     9 C    1.171    23 N    0.196
                            11 C    0.121
     9   6 C    3.894 --    22 C    1.286    10 N    1.185     8 C    1.171
    10   7 N    3.101 --    11 C    1.556     9 C    1.185
    11   6 C    3.833 --    12 N    1.766    10 N    1.556     7 C    0.142
                             8 C    0.121
    12   7 N    3.227 --    11 C    1.766    13 C    1.116
    13   6 C    3.953 --    14 N    1.619    12 N    1.116    22 C    0.992
    14   7 N    3.148 --    13 C    1.619    15 C    1.099
    15   6 C    3.952 --    21 C    1.358    16 C    1.310    14 N    1.099
    16   6 C    3.735 --    17 C    1.612    15 C    1.310    18 C    0.386
                            21 C    0.164    19 C    0.100
    17   6 C    3.731 --    18 C    1.635    16 C    1.612    21 C    0.354
    18   6 C    3.754 --    17 C    1.635    19 C    1.366    16 C    0.386
                            21 C    0.155
    19   6 C    3.929 --    21 C    1.417    18 C    1.366    20 Br   0.996
                            16 C    0.100
    20  35 Br   1.202 --    19 C    0.996
    21   6 C    3.589 --    19 C    1.417    15 C    1.358    17 C    0.354
                            16 C    0.164    18 C    0.155
    22   6 C    3.909 --    23 N    1.353     9 C    1.286    13 C    0.992
    23   7 N    3.161 --    22 C    1.353     6 C    1.283     8 C    0.196
 ---------------------------------------------------------------------------

Topologies differ in total number of bonds
Writing topology from bond orders to xtbtopo.mol

molecular dipole:
                 x           y           z       tot (Debye)
 q only:        0.959      -0.077       0.228
   full:        1.708       0.017      -0.190       4.368
molecular quadrupole (traceless):
                xx          xy          yy          xz          yz          zz
 q only:       -2.499      -0.757      -0.744      -2.179       3.411       3.243
  q+dip:       -2.104      -3.905       1.102      -0.896      11.270       1.002
   full:       -1.838      -0.871       0.600       0.908      14.114       1.238


           -------------------------------------------------
          | TOTAL ENERGY              -56.189117490079 Eh   |
          | GRADIENT NORM               0.366061633416 Eh/α |
          | HOMO-LUMO GAP               0.021493411234 eV   |
           -------------------------------------------------

------------------------------------------------------------------------
 * finished run on 2026/07/23 at 16:37:56.261     
------------------------------------------------------------------------
 total:
 * wall-time:     0 d,  0 h,  0 min,  0.255 sec
 *  cpu-time:     0 d,  0 h,  0 min,  0.234 sec
 * ratio c/w:     0.918 speedup
 SCF:
 * wall-time:     0 d,  0 h,  0 min,  0.239 sec
 *  cpu-time:     0 d,  0 h,  0 min,  0.217 sec
 * ratio c/w:     0.911 speedup

