      -----------------------------------------------------------      
     |                   =====================                   |     
     |                           x T B                           |     
     |                   =====================                   |     
     |                         S. Grimme                         |     
     |          Mulliken Center for Theoretical Chemistry        |     
     |                    University of Bonn                     |     
      -----------------------------------------------------------      

   * xtb version 6.6.1 (unknown) compiled by 'builduser@buildhost' on 2023-08-07

   xtb is free software: you can redistribute it and/or modify it under
   the terms of the GNU Lesser General Public License as published by
   the Free Software Foundation, either version 3 of the License, or
   (at your option) any later version.
   
   xtb is distributed in the hope that it will be useful,
   but WITHOUT ANY WARRANTY; without even the implied warranty of
   MERCHANTABILITY or FITNESS FOR A PARTICULAR PURPOSE.  See the
   GNU Lesser General Public License for more details.
   
   Cite this work as:
   * C. Bannwarth, E. Caldeweyher, S. Ehlert, A. Hansen, P. Pracht,
     J. Seibert, S. Spicher, S. Grimme, WIREs Comput. Mol. Sci., 2020, 11,
     e01493. DOI: 10.1002/wcms.1493
   
   for GFN2-xTB:
   * C. Bannwarth, S. Ehlert and S. Grimme., J. Chem. Theory Comput., 2019,
     15, 1652-1671. DOI: 10.1021/acs.jctc.8b01176
   for GFN1-xTB:
   * S. Grimme, C. Bannwarth, P. Shushkov, J. Chem. Theory Comput., 2017,
     13, 1989-2009. DOI: 10.1021/acs.jctc.7b00118
   for GFN0-xTB:
   * P. Pracht, E. Caldeweyher, S. Ehlert, S. Grimme, ChemRxiv, 2019, preprint.
     DOI: 10.26434/chemrxiv.8326202.v1
   for GFN-FF:
   * S. Spicher and S. Grimme, Angew. Chem. Int. Ed., 2020, 59, 15665-15673.
     DOI: 10.1002/anie.202004239
   
   for ALPB and GBSA implicit solvation:
   * S. Ehlert, M. Stahn, S. Spicher, S. Grimme, J. Chem. Theory Comput.,
     2021, 17, 4250-4261. DOI: 10.1021/acs.jctc.1c00471
   
   for DFT-D4:
   * E. Caldeweyher, C. Bannwarth and S. Grimme, J. Chem. Phys., 2017,
     147, 034112. DOI: 10.1063/1.4993215
   * E. Caldeweyher, S. Ehlert, A. Hansen, H. Neugebauer, S. Spicher,
     C. Bannwarth and S. Grimme, J. Chem. Phys., 2019, 150, 154122.
     DOI: 10.1063/1.5090222
   * E. Caldeweyher, J.-M. Mewes, S. Ehlert and S. Grimme, Phys. Chem. Chem. Phys.
     2020, 22, 8499-8512. DOI: 10.1039/D0CP00502A
   
   for sTDA-xTB:
   * S. Grimme and C. Bannwarth, J. Chem. Phys., 2016, 145, 054103.
     DOI: 10.1063/1.4959605
   
   in the mass-spec context:
   * V. Asgeirsson, C. Bauer and S. Grimme, Chem. Sci., 2017, 8, 4879.
     DOI: 10.1039/c7sc00601b
   * J. Koopman and S. Grimme, ACS Omega 2019, 4, 12, 15120-15133.
     DOI: 10.1021/acsomega.9b02011
   
   for metadynamics refer to:
   * S. Grimme, J. Chem. Theory Comput., 2019, 155, 2847-2862
     DOI: 10.1021/acs.jctc.9b00143
   
   for SPH calculations refer to:
   * S. Spicher and S. Grimme, J. Chem. Theory Comput., 2021, 17, 1701-1714
     DOI: 10.1021/acs.jctc.0c01306
   
   with help from (in alphabetical order)
   P. Atkinson, C. Bannwarth, F. Bohle, G. Brandenburg, E. Caldeweyher
   M. Checinski, S. Dohm, S. Ehlert, S. Ehrlich, I. Gerasimov, C. Hölzer
   A. Katbashev, J. Koopman, C. Lavigne, S. Lehtola, F. März, M. Müller,
   F. Musil, H. Neugebauer, J. Pisarek, C. Plett, P. Pracht, F. Pultar,
   J. Seibert, P. Shushkov, S. Spicher, M. Stahn, M. Steiner, T. Strunk,
   J. Stückrath, T. Rose, and J. Unsleber
   
 * started run on 2026/07/23 at 16:41:29.840     

           -------------------------------------------------
          |                Calculation Setup                |
           -------------------------------------------------

          program call               : xtb /home/selva/covalent_quantum_benchmark/data/quantum/erbB_xyz/ERBB2__CHEMBL202621__state00.xyz --gfn2 --chrg 0 --uhf 0 --iterations 300
          coordinate file            : /home/selva/covalent_quantum_benchmark/data/quantum/erbB_xyz/ERBB2__CHEMBL202621__state00.xyz
          omp threads                :                    24

   ID    Z sym.   atoms
    1    8 O      1, 9
    2    6 C      2-5, 7, 8, 10, 11, 13-16, 18, 20, 22-25, 27, 29-31
    3    7 N      6, 12, 17, 19, 21
    4    9 F      26
    5   17 Cl     28

           -------------------------------------------------
          |                 G F N 2 - x T B                 |
           -------------------------------------------------

        Reference                      10.1021/acs.jctc.8b01176
      * Hamiltonian:
        H0-scaling (s, p, d)           1.850000    2.230000    2.230000
        zeta-weighting                 0.500000
      * Dispersion:
        s8                             2.700000
        a1                             0.520000
        a2                             5.000000
        s9                             5.000000
      * Repulsion:
        kExp                           1.500000    1.000000
        rExp                           1.000000
      * Coulomb:
        alpha                          2.000000
        third order                    shell-resolved
        anisotropic                    true
        a3                             3.000000
        a5                             4.000000
        cn-shift                       1.200000
        cn-exp                         4.000000
        max-rad                        5.000000


          ...................................................
          :                      SETUP                      :
          :.................................................:
          :  # basis functions                 130          :
          :  # atomic orbitals                 129          :
          :  # shells                           63          :
          :  # electrons                       139          :
          :  max. iterations                   300          :
          :  Hamiltonian                  GFN2-xTB          :
          :  restarted?                      false          :
          :  GBSA solvation                  false          :
          :  PC potential                    false          :
          :  electronic temp.          300.0000000     K    :
          :  accuracy                    1.0000000          :
          :  -> integral cutoff          0.2500000E+02      :
          :  -> integral neglect         0.1000000E-07      :
          :  -> SCF convergence          0.1000000E-05 Eh   :
          :  -> wf. convergence          0.1000000E-03 e    :
          :  Broyden damping             0.4000000          :
          ...................................................

 iter      E             dE          RMSdq      gap      omega  full diag
   1    -78.1420616 -0.781421E+02  0.816E+00    0.23       0.0  T
   2    -70.5637379  0.757832E+01  0.100E+01    0.32       1.0  T
   3    -60.7548425  0.980890E+01  0.112E+01    0.20       1.0  T
   4    -54.6811844  0.607366E+01  0.126E+01    0.08       1.0  T
   5    -75.4225069 -0.207413E+02  0.634E+00    0.18       1.0  T
   6    -75.8855911 -0.463084E+00  0.585E+00    0.10       1.0  T
   7    -76.0958709 -0.210280E+00  0.574E+00    0.05       1.0  T
   8    -77.8653667 -0.176950E+01  0.347E+00    0.14       1.0  T
   9    -78.0846064 -0.219240E+00  0.324E+00    0.25       1.0  T
  10    -77.9809537  0.103653E+00  0.298E+00    0.13       1.0  T
  11    -78.0715007 -0.905470E-01  0.284E+00    0.16       1.0  T
  12    -78.4508359 -0.379335E+00  0.230E+00    0.07       1.0  T
  13    -78.2186334  0.232203E+00  0.235E+00    0.12       1.0  T
  14    -78.3567379 -0.138104E+00  0.191E+00    0.06       1.0  T
  15    -78.5117103 -0.154972E+00  0.173E+00    0.04       1.0  T
  16    -78.5234715 -0.117612E-01  0.149E+00    0.02       1.0  T
  17    -78.5886024 -0.651309E-01  0.131E+00    0.03       1.0  T
  18    -78.5928506 -0.424817E-02  0.118E+00    0.02       1.0  T
  19    -78.6167991 -0.239485E-01  0.120E+00    0.02       1.0  T
  20    -78.6205810 -0.378195E-02  0.102E+00    0.04       1.0  T
  21    -78.6233193 -0.273821E-02  0.110E+00    0.02       1.0  T
  22    -78.6431920 -0.198727E-01  0.847E-01    0.03       1.0  T
  23    -78.5391269  0.104065E+00  0.151E+00    0.02       1.0  T
  24    -78.5554506 -0.163237E-01  0.140E+00    0.01       1.0  T
  25    -78.5765913 -0.211408E-01  0.129E+00    0.01       1.0  T
  26    -78.6403708 -0.637795E-01  0.831E-01    0.02       1.0  T
  27    -78.6728402 -0.324694E-01  0.409E-01    0.03       1.0  T
  28    -78.6818837 -0.904343E-02  0.182E-01    0.04       1.0  T
  29    -78.6773994  0.448425E-02  0.299E-01    0.05       1.0  T
  30    -78.6829176 -0.551819E-02  0.162E-01    0.05       1.0  T
  31    -78.6836525 -0.734848E-03  0.111E-01    0.04       1.0  T
  32    -78.6839772 -0.324793E-03  0.816E-02    0.04       1.0  T
  33    -78.6842598 -0.282577E-03  0.543E-02    0.04       1.0  T
  34    -78.6841659  0.938897E-04  0.596E-02    0.04       1.0  T
  35    -78.6843350 -0.169109E-03  0.325E-02    0.04       1.0  T
  36    -78.6844145 -0.794176E-04  0.109E-02    0.04       1.6  T
  37    -78.6843188  0.956536E-04  0.356E-02    0.04       1.0  T
  38    -78.6843528 -0.340249E-04  0.304E-02    0.04       1.0  T
  39    -78.6844038 -0.509993E-04  0.151E-02    0.04       1.2  T
  40    -78.6844172 -0.133551E-04  0.534E-03    0.04       3.4  T
  41    -78.6844170  0.219595E-06  0.495E-03    0.04       3.6  T
  42    -78.6844182 -0.122461E-05  0.341E-03    0.04       5.3  T
  43    -78.6844189 -0.668145E-06  0.218E-03    0.04       8.2  T
  44    -78.6844192 -0.368060E-06  0.630E-04    0.04      28.5  T
  45    -78.6844192 -0.115291E-07  0.337E-04    0.04      53.3  T

   *** convergence criteria satisfied after 45 iterations ***

         #    Occupation            Energy/Eh            Energy/eV
      -------------------------------------------------------------
         1        2.0000           -1.0887049             -29.6252
       ...           ...                  ...                  ...
        64        2.0000           -0.4311145             -11.7312
        65        2.0000           -0.4286823             -11.6650
        66        1.9999           -0.4270871             -11.6216
        67        1.9397           -0.4211546             -11.4602
        68        1.5695           -0.4190215             -11.4022
        69        1.5360           -0.4189233             -11.3995
        70        1.3411           -0.4184228             -11.3859 (HOMO)
        71        0.6138           -0.4168224             -11.3423 (LUMO)
        72        0.0001           -0.4076706             -11.0933
        73        0.0000           -0.4017180             -10.9313
        74                         -0.3986178             -10.8469
        75                         -0.3757209             -10.2239
       ...                                ...                  ...
       129                          1.3040544              35.4851
      -------------------------------------------------------------
                  HL-Gap            0.0016004 Eh            0.0435 eV
             Fermi-level           -0.4176765 Eh          -11.3656 eV

 SCC (total)                   0 d,  0 h,  0 min,  0.572 sec
 SCC setup                      ...        0 min,  0.000 sec (  0.047%)
 Dispersion                     ...        0 min,  0.001 sec (  0.173%)
 classical contributions        ...        0 min,  0.001 sec (  0.106%)
 integral evaluation            ...        0 min,  0.005 sec (  0.958%)
 iterations                     ...        0 min,  0.524 sec ( 91.594%)
 molecular gradient             ...        0 min,  0.035 sec (  6.166%)
 printout                       ...        0 min,  0.005 sec (  0.948%)

         :::::::::::::::::::::::::::::::::::::::::::::::::::::
         ::                     SUMMARY                     ::
         :::::::::::::::::::::::::::::::::::::::::::::::::::::
         :: total energy             -77.830166785061 Eh    ::
         :: gradient norm              0.429981352965 Eh/a0 ::
         :: HOMO-LUMO gap              0.043549061464 eV    ::
         ::.................................................::
         :: SCC energy               -78.684419237374 Eh    ::
         :: -> isotropic ES            0.057664176574 Eh    ::
         :: -> anisotropic ES          0.007497034234 Eh    ::
         :: -> anisotropic XC          0.038535005176 Eh    ::
         :: -> dispersion             -0.044270540080 Eh    ::
         :: repulsion energy           0.853501855650 Eh    ::
         :: add. restraining           0.000000000000 Eh    ::
         :: total charge               0.000000000000 e     ::
         :::::::::::::::::::::::::::::::::::::::::::::::::::::

           -------------------------------------------------
          |                Property Printout                |
           -------------------------------------------------

    * Orbital Energies and Occupations

         #    Occupation            Energy/Eh            Energy/eV
      -------------------------------------------------------------
         1        2.0000           -1.0887049             -29.6252
       ...           ...                  ...                  ...
        58        2.0000           -0.4584035             -12.4738
        59        2.0000           -0.4540713             -12.3559
        60        2.0000           -0.4458883             -12.1332
        61        2.0000           -0.4418955             -12.0246
        62        2.0000           -0.4357824             -11.8582
        63        2.0000           -0.4323170             -11.7639
        64        2.0000           -0.4311145             -11.7312
        65        2.0000           -0.4286823             -11.6650
        66        1.9999           -0.4270871             -11.6216
        67        1.9397           -0.4211546             -11.4602
        68        1.5695           -0.4190215             -11.4022
        69        1.5360           -0.4189233             -11.3995
        70        1.3411           -0.4184228             -11.3859 (HOMO)
        71        0.6138           -0.4168224             -11.3423 (LUMO)
        72        0.0001           -0.4076706             -11.0933
        73        0.0000           -0.4017180             -10.9313
        74                         -0.3986178             -10.8469
        75                         -0.3757209             -10.2239
        76                         -0.3564732              -9.7001
        77                         -0.3536232              -9.6226
        78                         -0.3423170              -9.3149
        79                         -0.3406152              -9.2686
        80                         -0.3169667              -8.6251
        81                         -0.3119377              -8.4883
       ...                                ...                  ...
       129                          1.3040544              35.4851
      -------------------------------------------------------------
                  HL-Gap            0.0016004 Eh            0.0435 eV
             Fermi-level           -0.4176765 Eh          -11.3656 eV

     #   Z          covCN         q      C6AA      α(0)
     1   8 O        0.859    -0.365    20.994     6.143
     2   6 C        2.749     0.322    21.536     7.599
     3   6 C        1.976     0.032    30.250     8.882
     4   6 C        1.961     0.030    30.290     8.888
     5   6 C        1.896     0.009    30.892     8.976
     6   7 N        2.722     0.097    19.570     6.570
     7   6 C        1.898    -0.031    31.944     9.128
     8   6 C        1.847     0.034    30.268     8.887
     9   8 O        1.696    -0.118    16.093     5.416
    10   6 C        1.848     0.040    30.124     8.866
    11   6 C        1.898    -0.030    31.908     9.123
    12   7 N        1.841    -0.215    26.518     7.632
    13   6 C        2.895     0.148    24.778     8.161
    14   6 C        1.990    -0.002    31.095     9.005
    15   6 C        2.005    -0.023    31.643     9.085
    16   6 C        2.984     0.136    25.027     8.206
    17   7 N        1.842    -0.135    24.705     7.366
    18   6 C        1.959     0.152    27.388     8.451
    19   7 N        1.837    -0.148    24.987     7.408
    20   6 C        2.899     0.199    23.770     7.994
    21   7 N        1.834    -0.132    24.647     7.357
    22   6 C        2.893     0.141    24.920     8.185
    23   6 C        1.994    -0.025    31.718     9.095
    24   6 C        1.986    -0.037    32.030     9.140
    25   6 C        2.806     0.198    23.781     7.989
    26   9 F        0.787    -0.151    10.741     3.871
    27   6 C        2.878     0.091    25.976     8.355
    28  17 Cl       0.962    -0.073   101.426    15.408
    29   6 C        2.027    -0.099    33.723     9.379
    30   6 C        2.978     0.009    27.815     8.651
    31   6 C        2.000    -0.056    32.550     9.214

 Mol. C6AA /au·bohr⁶  :      26884.744447
 Mol. C8AA /au·bohr⁸  :     747464.088774
 Mol. α(0) /au        :        258.431379


Wiberg/Mayer (AO) data.
largest (>0.10) Wiberg bond orders for each atom

 ---------------------------------------------------------------------------
     #   Z sym  total        # sym  WBO       # sym  WBO       # sym  WBO
 ---------------------------------------------------------------------------
     1   8 O    1.959 --     2 C    1.635    12 N    0.146
     2   6 C    3.943 --     1 O    1.635    12 N    1.205     3 C    1.022
     3   6 C    3.887 --     4 C    2.497     2 C    1.022
     4   6 C    3.959 --     3 C    2.497     5 C    1.299
     5   6 C    3.101 --     4 C    1.299     6 N    1.098    11 C    0.120
                             7 C    0.114
     6   7 N    3.567 --     5 C    1.098    11 C    1.079     7 C    1.078
                            10 C    0.102     8 C    0.102
     7   6 C    3.249 --     8 C    1.486     6 N    1.078    10 C    0.267
                            11 C    0.193     5 C    0.114
     8   6 C    3.237 --     7 C    1.486     9 O    1.093    11 C    0.266
                            10 C    0.145     6 N    0.102
     9   8 O    2.443 --    10 C    1.098     8 C    1.093
    10   6 C    3.235 --    11 C    1.484     9 O    1.098     7 C    0.267
                             8 C    0.145     6 N    0.102
    11   6 C    3.254 --    10 C    1.484     6 N    1.079     8 C    0.266
                             7 C    0.193     5 C    0.120
    12   7 N    3.019 --    13 C    1.228     2 C    1.205     1 O    0.146
                            15 C    0.129
    13   6 C    3.926 --    31 C    1.312    12 N    1.228    14 C    1.220
    14   6 C    3.658 --    15 C    1.713    13 C    1.220    31 C    0.215
                            18 C    0.147
    15   6 C    3.565 --    14 C    1.713    16 C    1.289    31 C    0.177
                            12 N    0.129
    16   6 C    3.893 --    15 C    1.289    17 N    1.219    30 C    1.128
    17   7 N    3.180 --    18 C    1.614    16 C    1.219
    18   6 C    3.750 --    17 N    1.614    19 N    1.574    14 C    0.147
    19   7 N    3.187 --    18 C    1.574    20 C    1.265
    20   6 C    3.944 --    21 N    1.282    19 N    1.265    30 C    1.173
    21   7 N    3.049 --    20 C    1.282    22 C    1.277
    22   6 C    3.891 --    21 N    1.277    29 C    1.250    23 C    1.206
    23   6 C    3.598 --    24 C    1.786    22 C    1.206    29 C    0.327
    24   6 C    3.460 --    23 C    1.786    25 C    1.356    29 C    0.167
    25   6 C    3.769 --    24 C    1.356    27 C    1.236    26 F    1.009
    26   9 F    1.155 --    25 C    1.009
    27   6 C    3.893 --    29 C    1.474    25 C    1.236    28 Cl   1.006
    28  17 Cl   1.188 --    27 C    1.006
    29   6 C    3.400 --    27 C    1.474    22 C    1.250    23 C    0.327
                            24 C    0.167
    30   6 C    3.941 --    31 C    1.367    20 C    1.173    16 C    1.128
    31   6 C    3.413 --    30 C    1.367    13 C    1.312    14 C    0.215
                            15 C    0.177
 ---------------------------------------------------------------------------

Topologies differ in total number of bonds
Writing topology from bond orders to xtbtopo.mol

molecular dipole:
                 x           y           z       tot (Debye)
 q only:        0.511      -0.521      -0.033
   full:       -0.032      -0.609      -0.376       1.822
molecular quadrupole (traceless):
Note: The following floating-point exceptions are signalling: IEEE_UNDERFLOW_FLAG IEEE_DENORMAL
normal termination of xtb
                xx          xy          yy          xz          yz          zz
 q only:       -1.388      -1.097      -1.469      -3.304      21.938       2.856
  q+dip:       -1.389       2.461      -6.664      -3.469      21.654       8.053
   full:        4.257       5.729      -6.994      -2.425      19.262       2.737


           -------------------------------------------------
          | TOTAL ENERGY              -77.830166785061 Eh   |
          | GRADIENT NORM               0.429981352965 Eh/α |
          | HOMO-LUMO GAP               0.043549061464 eV   |
           -------------------------------------------------

------------------------------------------------------------------------
 * finished run on 2026/07/23 at 16:41:30.435     
------------------------------------------------------------------------
 total:
 * wall-time:     0 d,  0 h,  0 min,  0.594 sec
 *  cpu-time:     0 d,  0 h,  0 min,  0.551 sec
 * ratio c/w:     0.928 speedup
 SCF:
 * wall-time:     0 d,  0 h,  0 min,  0.572 sec
 *  cpu-time:     0 d,  0 h,  0 min,  0.528 sec
 * ratio c/w:     0.923 speedup

