      -----------------------------------------------------------      
     |                   =====================                   |     
     |                           x T B                           |     
     |                   =====================                   |     
     |                         S. Grimme                         |     
     |          Mulliken Center for Theoretical Chemistry        |     
     |                    University of Bonn                     |     
      -----------------------------------------------------------      

   * xtb version 6.6.1 (unknown) compiled by 'builduser@buildhost' on 2023-08-07

   xtb is free software: you can redistribute it and/or modify it under
   the terms of the GNU Lesser General Public License as published by
   the Free Software Foundation, either version 3 of the License, or
   (at your option) any later version.
   
   xtb is distributed in the hope that it will be useful,
   but WITHOUT ANY WARRANTY; without even the implied warranty of
   MERCHANTABILITY or FITNESS FOR A PARTICULAR PURPOSE.  See the
   GNU Lesser General Public License for more details.
   
   Cite this work as:
   * C. Bannwarth, E. Caldeweyher, S. Ehlert, A. Hansen, P. Pracht,
     J. Seibert, S. Spicher, S. Grimme, WIREs Comput. Mol. Sci., 2020, 11,
     e01493. DOI: 10.1002/wcms.1493
   
   for GFN2-xTB:
   * C. Bannwarth, S. Ehlert and S. Grimme., J. Chem. Theory Comput., 2019,
     15, 1652-1671. DOI: 10.1021/acs.jctc.8b01176
   for GFN1-xTB:
   * S. Grimme, C. Bannwarth, P. Shushkov, J. Chem. Theory Comput., 2017,
     13, 1989-2009. DOI: 10.1021/acs.jctc.7b00118
   for GFN0-xTB:
   * P. Pracht, E. Caldeweyher, S. Ehlert, S. Grimme, ChemRxiv, 2019, preprint.
     DOI: 10.26434/chemrxiv.8326202.v1
   for GFN-FF:
   * S. Spicher and S. Grimme, Angew. Chem. Int. Ed., 2020, 59, 15665-15673.
     DOI: 10.1002/anie.202004239
   
   for ALPB and GBSA implicit solvation:
   * S. Ehlert, M. Stahn, S. Spicher, S. Grimme, J. Chem. Theory Comput.,
     2021, 17, 4250-4261. DOI: 10.1021/acs.jctc.1c00471
   
   for DFT-D4:
   * E. Caldeweyher, C. Bannwarth and S. Grimme, J. Chem. Phys., 2017,
     147, 034112. DOI: 10.1063/1.4993215
   * E. Caldeweyher, S. Ehlert, A. Hansen, H. Neugebauer, S. Spicher,
     C. Bannwarth and S. Grimme, J. Chem. Phys., 2019, 150, 154122.
     DOI: 10.1063/1.5090222
   * E. Caldeweyher, J.-M. Mewes, S. Ehlert and S. Grimme, Phys. Chem. Chem. Phys.
     2020, 22, 8499-8512. DOI: 10.1039/D0CP00502A
   
   for sTDA-xTB:
   * S. Grimme and C. Bannwarth, J. Chem. Phys., 2016, 145, 054103.
     DOI: 10.1063/1.4959605
   
   in the mass-spec context:
   * V. Asgeirsson, C. Bauer and S. Grimme, Chem. Sci., 2017, 8, 4879.
     DOI: 10.1039/c7sc00601b
   * J. Koopman and S. Grimme, ACS Omega 2019, 4, 12, 15120-15133.
     DOI: 10.1021/acsomega.9b02011
   
   for metadynamics refer to:
   * S. Grimme, J. Chem. Theory Comput., 2019, 155, 2847-2862
     DOI: 10.1021/acs.jctc.9b00143
   
   for SPH calculations refer to:
   * S. Spicher and S. Grimme, J. Chem. Theory Comput., 2021, 17, 1701-1714
     DOI: 10.1021/acs.jctc.0c01306
   
   with help from (in alphabetical order)
   P. Atkinson, C. Bannwarth, F. Bohle, G. Brandenburg, E. Caldeweyher
   M. Checinski, S. Dohm, S. Ehlert, S. Ehrlich, I. Gerasimov, C. Hölzer
   A. Katbashev, J. Koopman, C. Lavigne, S. Lehtola, F. März, M. Müller,
   F. Musil, H. Neugebauer, J. Pisarek, C. Plett, P. Pracht, F. Pultar,
   J. Seibert, P. Shushkov, S. Spicher, M. Stahn, M. Steiner, T. Strunk,
   J. Stückrath, T. Rose, and J. Unsleber
   
 * started run on 2026/07/23 at 16:42:00.778     

           -------------------------------------------------
          |                Calculation Setup                |
           -------------------------------------------------

          program call               : xtb /home/selva/covalent_quantum_benchmark/data/quantum/erbB_xyz/ERBB2__CHEMBL359629__state01.xyz --gfn2 --chrg 0 --uhf 0 --iterations 300
          coordinate file            : /home/selva/covalent_quantum_benchmark/data/quantum/erbB_xyz/ERBB2__CHEMBL359629__state01.xyz
          omp threads                :                    24

   ID    Z sym.   atoms
    1    6 C      1, 2, 4-6, 8-10, 12, 14-17, 19-30, 32-35, 37, 39-41, 43, 44
    2    8 O      3, 18, 38
    3    7 N      7, 11, 13, 36, 42
    4   17 Cl     31

           -------------------------------------------------
          |                 G F N 2 - x T B                 |
           -------------------------------------------------

        Reference                      10.1021/acs.jctc.8b01176
      * Hamiltonian:
        H0-scaling (s, p, d)           1.850000    2.230000    2.230000
        zeta-weighting                 0.500000
      * Dispersion:
        s8                             2.700000
        a1                             0.520000
        a2                             5.000000
        s9                             5.000000
      * Repulsion:
        kExp                           1.500000    1.000000
        rExp                           1.000000
      * Coulomb:
        alpha                          2.000000
        third order                    shell-resolved
        anisotropic                    true
        a3                             3.000000
        a5                             4.000000
        cn-shift                       1.200000
        cn-exp                         4.000000
        max-rad                        5.000000


          ...................................................
          :                      SETUP                      :
          :.................................................:
          :  # basis functions                 182          :
          :  # atomic orbitals                 181          :
          :  # shells                           89          :
          :  # electrons                       190          :
          :  max. iterations                   300          :
          :  Hamiltonian                  GFN2-xTB          :
          :  restarted?                      false          :
          :  GBSA solvation                  false          :
          :  PC potential                    false          :
          :  electronic temp.          300.0000000     K    :
          :  accuracy                    1.0000000          :
          :  -> integral cutoff          0.2500000E+02      :
          :  -> integral neglect         0.1000000E-07      :
          :  -> SCF convergence          0.1000000E-05 Eh   :
          :  -> wf. convergence          0.1000000E-03 e    :
          :  Broyden damping             0.4000000          :
          ...................................................

 iter      E             dE          RMSdq      gap      omega  full diag
   1   -104.1330420 -0.104133E+03  0.886E+00    0.08       0.0  T
   2    -77.6462525  0.264868E+02  0.129E+01    0.07       1.0  T
   3    -68.4945507  0.915170E+01  0.131E+01    0.09       1.0  T
   4    -74.0829968 -0.558845E+01  0.115E+01    0.30       1.0  T
   5    -85.3159590 -0.112330E+02  0.978E+00    0.38       1.0  T
   6   -100.5307596 -0.152148E+02  0.685E+00    0.03       1.0  T
   7   -102.1796723 -0.164891E+01  0.599E+00    0.15       1.0  T
   8   -102.8944949 -0.714823E+00  0.495E+00    0.11       1.0  T
   9   -102.4250309  0.469464E+00  0.537E+00    0.15       1.0  T
  10   -104.2486130 -0.182358E+01  0.366E+00    0.11       1.0  T
  11   -103.8007550  0.447858E+00  0.394E+00    0.09       1.0  T
  12   -105.1014756 -0.130072E+01  0.256E+00    0.10       1.0  T
  13   -105.1567667 -0.552911E-01  0.229E+00    0.09       1.0  T
  14   -105.1579162 -0.114946E-02  0.228E+00    0.09       1.0  T
  15   -105.1832513 -0.253352E-01  0.228E+00    0.09       1.0  T
  16   -105.2139647 -0.307133E-01  0.200E+00    0.05       1.0  T
  17   -104.0647993  0.114917E+01  0.342E+00    0.08       1.0  T
  18   -104.3445024 -0.279703E+00  0.318E+00    0.01       1.0  T
  19   -104.0426398  0.301863E+00  0.326E+00    0.08       1.0  T
  20   -103.8717563  0.170884E+00  0.350E+00    0.00       1.0  T
  21   -104.5022253 -0.630469E+00  0.275E+00    0.03       1.0  T
  22   -104.3315061  0.170719E+00  0.281E+00    0.01       1.0  T
  23   -104.3206375  0.108686E-01  0.282E+00    0.01       1.0  T
  24   -104.2637564  0.568811E-01  0.308E+00    0.03       1.0  T
  25   -105.0536186 -0.789862E+00  0.176E+00    0.03       1.0  T
  26   -105.1762514 -0.122633E+00  0.133E+00    0.04       1.0  T
  27   -105.2306418 -0.543904E-01  0.115E+00    0.03       1.0  T
  28   -105.2286246  0.201717E-02  0.117E+00    0.03       1.0  T
  29   -105.2603580 -0.317334E-01  0.108E+00    0.01       1.0  T
  30   -105.2688754 -0.851737E-02  0.104E+00    0.00       1.0  T
  31   -105.3262720 -0.573966E-01  0.683E-01    0.04       1.0  T
  32   -105.3390934 -0.128214E-01  0.583E-01    0.03       1.0  T
  33   -105.3552734 -0.161800E-01  0.405E-01    0.04       1.0  T
  34   -105.3521541  0.311937E-02  0.422E-01    0.04       1.0  T
  35   -105.3553592 -0.320516E-02  0.313E-01    0.06       1.0  T
  36   -105.3629759 -0.761662E-02  0.181E-01    0.06       1.0  T
  37   -105.3602015  0.277440E-02  0.240E-01    0.05       1.0  T
  38   -105.3644448 -0.424333E-02  0.120E-01    0.06       1.0  T
  39   -105.3646933 -0.248525E-03  0.108E-01    0.06       1.0  T
  40   -105.3643302  0.363074E-03  0.118E-01    0.06       1.0  T
  41   -105.3651026 -0.772405E-03  0.845E-02    0.06       1.0  T
  42   -105.3647930  0.309652E-03  0.974E-02    0.06       1.0  T
  43   -105.3654256 -0.632591E-03  0.630E-02    0.05       1.0  T
  44   -105.3658376 -0.411966E-03  0.236E-02    0.05       1.0  T
  45   -105.3657741  0.634358E-04  0.309E-02    0.05       1.0  T
  46   -105.3657408  0.332831E-04  0.315E-02    0.05       1.0  T
  47   -105.3658117 -0.709084E-04  0.215E-02    0.05       1.0  T
  48   -105.3658397 -0.279326E-04  0.146E-02    0.05       1.0  T
  49   -105.3658241  0.155374E-04  0.166E-02    0.05       1.0  T
  50   -105.3658288 -0.470400E-05  0.158E-02    0.05       1.0  T
  51   -105.3658484 -0.195870E-04  0.982E-03    0.05       1.5  T
  52   -105.3658508 -0.236354E-05  0.813E-03    0.05       1.9  T
  53   -105.3658548 -0.399599E-05  0.439E-03    0.05       3.4  T
  54   -105.3658563 -0.156315E-05  0.271E-03    0.05       5.6  T
  55   -105.3658567 -0.375078E-06  0.170E-03    0.05       8.8  T
  56   -105.3658569 -0.211658E-06  0.811E-04    0.05      18.6  T
  57   -105.3658569 -0.137273E-07  0.612E-04    0.05      24.6  T

   *** convergence criteria satisfied after 57 iterations ***

         #    Occupation            Energy/Eh            Energy/eV
      -------------------------------------------------------------
         1        2.0000           -1.0908350             -29.6831
       ...           ...                  ...                  ...
        89        2.0000           -0.4270039             -11.6194
        90        2.0000           -0.4242121             -11.5434
        91        1.9992           -0.4208038             -11.4507
        92        1.9698           -0.4172930             -11.3551
        93        1.8681           -0.4158406             -11.3156
        94        1.6630           -0.4148394             -11.2884
        95        1.4860           -0.4143314             -11.2745 (HOMO)
        96        0.5332           -0.4123615             -11.2209 (LUMO)
        97        0.4511           -0.4121508             -11.2152
        98        0.0281           -0.4092845             -11.1372
        99        0.0014           -0.4064099             -11.0590
       100        0.0000           -0.4014896             -10.9251
       ...           ...                  ...                  ...
       181                          1.0522234              28.6325
      -------------------------------------------------------------
                  HL-Gap            0.0019699 Eh            0.0536 eV
             Fermi-level           -0.4133228 Eh          -11.2471 eV

 SCC (total)                   0 d,  0 h,  0 min,  0.977 sec
 SCC setup                      ...        0 min,  0.000 sec (  0.029%)
 Dispersion                     ...        0 min,  0.002 sec (  0.179%)
 classical contributions        ...        0 min,  0.001 sec (  0.062%)
 integral evaluation            ...        0 min,  0.005 sec (  0.467%)
 iterations                     ...        0 min,  0.942 sec ( 96.457%)
 molecular gradient             ...        0 min,  0.024 sec (  2.460%)
 printout                       ...        0 min,  0.003 sec (  0.338%)

         :::::::::::::::::::::::::::::::::::::::::::::::::::::
         ::                     SUMMARY                     ::
         :::::::::::::::::::::::::::::::::::::::::::::::::::::
         :: total energy            -104.119808266710 Eh    ::
         :: gradient norm              0.555080511610 Eh/a0 ::
         :: HOMO-LUMO gap              0.053604380496 eV    ::
         ::.................................................::
         :: SCC energy              -105.365856949414 Eh    ::
         :: -> isotropic ES            0.019727673299 Eh    ::
         :: -> anisotropic ES          0.004388696528 Eh    ::
         :: -> anisotropic XC          0.061892224252 Eh    ::
         :: -> dispersion             -0.069468601153 Eh    ::
         :: repulsion energy           1.244850248815 Eh    ::
         :: add. restraining           0.000000000000 Eh    ::
         :: total charge               0.000000000015 e     ::
         :::::::::::::::::::::::::::::::::::::::::::::::::::::

           -------------------------------------------------
          |                Property Printout                |
           -------------------------------------------------

    * Orbital Energies and Occupations

         #    Occupation            Energy/Eh            Energy/eV
      -------------------------------------------------------------
         1        2.0000           -1.0908350             -29.6831
       ...           ...                  ...                  ...
        83        2.0000           -0.4453809             -12.1194
        84        2.0000           -0.4399424             -11.9714
        85        2.0000           -0.4374458             -11.9035
        86        2.0000           -0.4350004             -11.8370
        87        2.0000           -0.4299904             -11.7006
        88        2.0000           -0.4283314             -11.6555
        89        2.0000           -0.4270039             -11.6194
        90        2.0000           -0.4242121             -11.5434
        91        1.9992           -0.4208038             -11.4507
        92        1.9698           -0.4172930             -11.3551
        93        1.8681           -0.4158406             -11.3156
        94        1.6630           -0.4148394             -11.2884
        95        1.4860           -0.4143314             -11.2745 (HOMO)
        96        0.5332           -0.4123615             -11.2209 (LUMO)
        97        0.4511           -0.4121508             -11.2152
        98        0.0281           -0.4092845             -11.1372
        99        0.0014           -0.4064099             -11.0590
       100        0.0000           -0.4014896             -10.9251
       101                         -0.3971962             -10.8083
       102                         -0.3856850             -10.4950
       103                         -0.3825793             -10.4105
       104                         -0.3800206             -10.3409
       105                         -0.3781831             -10.2909
       106                         -0.3576757              -9.7329
       ...                                ...                  ...
       181                          1.0522234              28.6325
      -------------------------------------------------------------
                  HL-Gap            0.0019699 Eh            0.0536 eV
             Fermi-level           -0.4133228 Eh          -11.2471 eV

     #   Z          covCN         q      C6AA      α(0)
     1   6 C        0.976    -0.102    39.137    10.505
     2   6 C        1.842     0.082    29.089     8.713
     3   8 O        1.703    -0.128    16.246     5.442
     4   6 C        2.854     0.158    24.572     8.125
     5   6 C        1.987    -0.078    33.181     9.303
     6   6 C        2.915     0.113    25.503     8.281
     7   7 N        1.831    -0.134    24.682     7.362
     8   6 C        1.933     0.090    28.837     8.672
     9   6 C        2.953     0.021    27.530     8.606
    10   6 C        1.908     0.125    28.043     8.552
    11   7 N        0.911    -0.183    24.974     7.228
    12   6 C        2.897     0.134    25.072     8.210
    13   7 N        1.837    -0.119    24.365     7.315
    14   6 C        2.911     0.129    25.178     8.228
    15   6 C        1.992    -0.044    32.227     9.168
    16   6 C        1.986    -0.074    33.073     9.287
    17   6 C        2.882     0.161    24.513     8.117
    18   8 O        1.701    -0.152    16.592     5.500
    19   6 C        1.846     0.044    30.028     8.852
    20   6 C        2.957     0.066    26.512     8.445
    21   6 C        1.987     0.016    30.641     8.939
    22   6 C        1.982     0.025    30.416     8.906
    23   6 C        1.996     0.019    30.541     8.925
    24   6 C        2.982     0.062    26.594     8.459
    25   6 C        1.996    -0.034    31.954     9.129
    26   6 C        1.985     0.037    30.098     8.860
    27   6 C        1.983     0.048    29.825     8.820
    28   6 C        1.990    -0.029    31.827     9.111
    29   6 C        2.974     0.048    26.928     8.512
    30   6 C        2.879     0.088    26.049     8.367
    31  17 Cl       0.959    -0.085   101.814    15.437
    32   6 C        2.032    -0.100    33.752     9.383
    33   6 C        2.961     0.011    27.775     8.644
    34   6 C        1.992    -0.073    33.035     9.282
    35   6 C        2.941     0.097    25.854     8.339
    36   7 N        1.831    -0.158    25.217     7.441
    37   6 C        2.801     0.295    21.998     7.684
    38   8 O        0.861    -0.374    21.157     6.167
    39   6 C        1.966    -0.001    31.094     9.005
    40   6 C        1.969     0.023    30.464     8.913
    41   6 C        1.912    -0.035    32.031     9.140
    42   7 N        2.721     0.176    18.305     6.354
    43   6 C        0.937    -0.093    38.537    10.403
    44   6 C        0.939    -0.073    37.896    10.318

 Mol. C6AA /au·bohr⁶  :      56194.669723
 Mol. C8AA /au·bohr⁸  :    1583125.066555
 Mol. α(0) /au        :        378.449945


Wiberg/Mayer (AO) data.
largest (>0.10) Wiberg bond orders for each atom

 ---------------------------------------------------------------------------
     #   Z sym  total        # sym  WBO       # sym  WBO       # sym  WBO
 ---------------------------------------------------------------------------
     1   6 C    2.099 --     2 C    1.956
     2   6 C    3.209 --     1 C    1.956     3 O    1.121
     3   8 O    2.390 --     2 C    1.121     4 C    1.083
     4   6 C    3.889 --     5 C    1.459    35 C    1.110     3 O    1.083
     5   6 C    3.631 --     4 C    1.459     6 C    1.405    34 C    0.431
     6   6 C    3.895 --     5 C    1.405     7 N    1.161    33 C    1.110
     7   7 N    3.189 --     8 C    1.675     6 C    1.161
     8   6 C    3.667 --     7 N    1.675     9 C    1.577    13 N    0.111
     9   6 C    3.877 --     8 C    1.577    10 C    1.099    12 C    0.991
    10   6 C    3.945 --    11 N    2.793     9 C    1.099
    11   7 N    2.982 --    10 C    2.793
    12   6 C    3.938 --    13 N    1.655    33 C    1.036     9 C    0.991
    13   7 N    3.234 --    12 C    1.655    14 C    1.110     8 C    0.111
    14   6 C    3.899 --    32 C    1.318    15 C    1.278    13 N    1.110
    15   6 C    3.643 --    16 C    1.737    14 C    1.278    32 C    0.280
    16   6 C    3.492 --    15 C    1.737    17 C    1.328    32 C    0.197
    17   6 C    3.860 --    16 C    1.328    30 C    1.215    18 O    1.035
    18   8 O    2.410 --    19 C    1.121    17 C    1.035
    19   6 C    3.103 --    20 C    1.195    18 O    1.121    22 C    0.172
                            23 C    0.153
    20   6 C    3.937 --    21 C    1.318    19 C    1.195    29 C    1.159
                            23 C    0.104
    21   6 C    3.516 --    22 C    1.628    20 C    1.318    23 C    0.233
    22   6 C    3.767 --    23 C    1.650    21 C    1.628    19 C    0.172
Note: The following floating-point exceptions are signalling: IEEE_UNDERFLOW_FLAG IEEE_DENORMAL
normal termination of xtb
    23   6 C    3.619 --    22 C    1.650    24 C    1.286    21 C    0.233
                            19 C    0.153    20 C    0.104
    24   6 C    3.950 --    23 C    1.286    25 C    1.279    29 C    1.113
    25   6 C    3.730 --    26 C    1.745    24 C    1.279    28 C    0.400
                            27 C    0.139
    26   6 C    3.779 --    25 C    1.745    27 C    1.696    28 C    0.107
    27   6 C    3.815 --    28 C    1.719    26 C    1.696    25 C    0.139
    28   6 C    3.793 --    27 C    1.719    29 C    1.371    25 C    0.400
                            26 C    0.107
    29   6 C    3.942 --    28 C    1.371    20 C    1.159    24 C    1.113
    30   6 C    3.866 --    32 C    1.463    17 C    1.215    31 Cl   0.999
    31  17 Cl   1.168 --    30 C    0.999
    32   6 C    3.512 --    30 C    1.463    14 C    1.318    15 C    0.280
                            16 C    0.197
    33   6 C    3.917 --    34 C    1.512     6 C    1.110    12 C    1.036
    34   6 C    3.731 --    33 C    1.512    35 C    1.377     5 C    0.431
    35   6 C    3.914 --    34 C    1.377    36 N    1.185     4 C    1.110
    36   7 N    3.192 --    37 C    1.494    35 C    1.185    38 O    0.195
    37   6 C    3.941 --    36 N    1.494    38 O    1.389    39 C    0.960
    38   8 O    1.960 --    37 C    1.389    36 N    0.195    39 C    0.113
                            41 C    0.108
    39   6 C    3.705 --    40 C    2.286    37 C    0.960    41 C    0.121
                            38 O    0.113
    40   6 C    3.855 --    39 C    2.286    41 C    1.283
    41   6 C    3.129 --    40 C    1.283    42 N    1.038    43 C    0.462
                            39 C    0.121    38 O    0.108
    42   7 N    3.684 --    43 C    1.300    44 C    1.295    41 C    1.038
    43   6 C    2.418 --    42 N    1.300    44 C    0.496    41 C    0.462
    44   6 C    1.955 --    42 N    1.295    43 C    0.496
 ---------------------------------------------------------------------------

Topologies differ in total number of bonds
Writing topology from bond orders to xtbtopo.mol

molecular dipole:
                 x           y           z       tot (Debye)
 q only:        2.793       0.655       1.405
   full:        2.820       0.669       1.880       8.781
molecular quadrupole (traceless):
                xx          xy          yy          xz          yz          zz
 q only:       -8.672     -15.731     -18.660      30.546      -2.271      27.333
  q+dip:      -16.845     -21.601     -10.914      33.581      -0.620      27.759
   full:      -18.248     -24.512     -11.295      30.869       3.159      29.543


           -------------------------------------------------
          | TOTAL ENERGY             -104.119808266710 Eh   |
          | GRADIENT NORM               0.555080511610 Eh/α |
          | HOMO-LUMO GAP               0.053604380496 eV   |
           -------------------------------------------------

------------------------------------------------------------------------
 * finished run on 2026/07/23 at 16:42:01.775     
------------------------------------------------------------------------
 total:
 * wall-time:     0 d,  0 h,  0 min,  0.996 sec
 *  cpu-time:     0 d,  0 h,  0 min,  1.039 sec
 * ratio c/w:     1.043 speedup
 SCF:
 * wall-time:     0 d,  0 h,  0 min,  0.977 sec
 *  cpu-time:     0 d,  0 h,  0 min,  1.020 sec
 * ratio c/w:     1.043 speedup

