      -----------------------------------------------------------      
     |                   =====================                   |     
     |                           x T B                           |     
     |                   =====================                   |     
     |                         S. Grimme                         |     
     |          Mulliken Center for Theoretical Chemistry        |     
     |                    University of Bonn                     |     
      -----------------------------------------------------------      

   * xtb version 6.6.1 (unknown) compiled by 'builduser@buildhost' on 2023-08-07

   xtb is free software: you can redistribute it and/or modify it under
   the terms of the GNU Lesser General Public License as published by
   the Free Software Foundation, either version 3 of the License, or
   (at your option) any later version.
   
   xtb is distributed in the hope that it will be useful,
   but WITHOUT ANY WARRANTY; without even the implied warranty of
   MERCHANTABILITY or FITNESS FOR A PARTICULAR PURPOSE.  See the
   GNU Lesser General Public License for more details.
   
   Cite this work as:
   * C. Bannwarth, E. Caldeweyher, S. Ehlert, A. Hansen, P. Pracht,
     J. Seibert, S. Spicher, S. Grimme, WIREs Comput. Mol. Sci., 2020, 11,
     e01493. DOI: 10.1002/wcms.1493
   
   for GFN2-xTB:
   * C. Bannwarth, S. Ehlert and S. Grimme., J. Chem. Theory Comput., 2019,
     15, 1652-1671. DOI: 10.1021/acs.jctc.8b01176
   for GFN1-xTB:
   * S. Grimme, C. Bannwarth, P. Shushkov, J. Chem. Theory Comput., 2017,
     13, 1989-2009. DOI: 10.1021/acs.jctc.7b00118
   for GFN0-xTB:
   * P. Pracht, E. Caldeweyher, S. Ehlert, S. Grimme, ChemRxiv, 2019, preprint.
     DOI: 10.26434/chemrxiv.8326202.v1
   for GFN-FF:
   * S. Spicher and S. Grimme, Angew. Chem. Int. Ed., 2020, 59, 15665-15673.
     DOI: 10.1002/anie.202004239
   
   for ALPB and GBSA implicit solvation:
   * S. Ehlert, M. Stahn, S. Spicher, S. Grimme, J. Chem. Theory Comput.,
     2021, 17, 4250-4261. DOI: 10.1021/acs.jctc.1c00471
   
   for DFT-D4:
   * E. Caldeweyher, C. Bannwarth and S. Grimme, J. Chem. Phys., 2017,
     147, 034112. DOI: 10.1063/1.4993215
   * E. Caldeweyher, S. Ehlert, A. Hansen, H. Neugebauer, S. Spicher,
     C. Bannwarth and S. Grimme, J. Chem. Phys., 2019, 150, 154122.
     DOI: 10.1063/1.5090222
   * E. Caldeweyher, J.-M. Mewes, S. Ehlert and S. Grimme, Phys. Chem. Chem. Phys.
     2020, 22, 8499-8512. DOI: 10.1039/D0CP00502A
   
   for sTDA-xTB:
   * S. Grimme and C. Bannwarth, J. Chem. Phys., 2016, 145, 054103.
     DOI: 10.1063/1.4959605
   
   in the mass-spec context:
   * V. Asgeirsson, C. Bauer and S. Grimme, Chem. Sci., 2017, 8, 4879.
     DOI: 10.1039/c7sc00601b
   * J. Koopman and S. Grimme, ACS Omega 2019, 4, 12, 15120-15133.
     DOI: 10.1021/acsomega.9b02011
   
   for metadynamics refer to:
   * S. Grimme, J. Chem. Theory Comput., 2019, 155, 2847-2862
     DOI: 10.1021/acs.jctc.9b00143
   
   for SPH calculations refer to:
   * S. Spicher and S. Grimme, J. Chem. Theory Comput., 2021, 17, 1701-1714
     DOI: 10.1021/acs.jctc.0c01306
   
   with help from (in alphabetical order)
   P. Atkinson, C. Bannwarth, F. Bohle, G. Brandenburg, E. Caldeweyher
   M. Checinski, S. Dohm, S. Ehlert, S. Ehrlich, I. Gerasimov, C. Hölzer
   A. Katbashev, J. Koopman, C. Lavigne, S. Lehtola, F. März, M. Müller,
   F. Musil, H. Neugebauer, J. Pisarek, C. Plett, P. Pracht, F. Pultar,
   J. Seibert, P. Shushkov, S. Spicher, M. Stahn, M. Steiner, T. Strunk,
   J. Stückrath, T. Rose, and J. Unsleber
   
 * started run on 2026/07/23 at 16:37:42.810     

           -------------------------------------------------
          |                Calculation Setup                |
           -------------------------------------------------

          program call               : xtb /home/selva/covalent_quantum_benchmark/data/quantum/erbB_xyz/EGFR__CHEMBL264382__state01.xyz --gfn2 --chrg 0 --uhf 0 --iterations 300
          coordinate file            : /home/selva/covalent_quantum_benchmark/data/quantum/erbB_xyz/EGFR__CHEMBL264382__state01.xyz
          omp threads                :                    24

   ID    Z sym.   atoms
    1    6 C      1-5, 8, 9, 11, 12, 14, 15, 17-20, 23, 25, 27, 29-35, 37-45
    2    8 O      6, 13, 21
    3    7 N      7, 10, 16, 22, 24, 26, 28, 36

           -------------------------------------------------
          |                 G F N 2 - x T B                 |
           -------------------------------------------------

        Reference                      10.1021/acs.jctc.8b01176
      * Hamiltonian:
        H0-scaling (s, p, d)           1.850000    2.230000    2.230000
        zeta-weighting                 0.500000
      * Dispersion:
        s8                             2.700000
        a1                             0.520000
        a2                             5.000000
        s9                             5.000000
      * Repulsion:
        kExp                           1.500000    1.000000
        rExp                           1.000000
      * Coulomb:
        alpha                          2.000000
        third order                    shell-resolved
        anisotropic                    true
        a3                             3.000000
        a5                             4.000000
        cn-shift                       1.200000
        cn-exp                         4.000000
        max-rad                        5.000000


          ...................................................
          :                      SETUP                      :
          :.................................................:
          :  # basis functions                 180          :
          :  # atomic orbitals                 180          :
          :  # shells                           90          :
          :  # electrons                       194          :
          :  max. iterations                   300          :
          :  Hamiltonian                  GFN2-xTB          :
          :  restarted?                      false          :
          :  GBSA solvation                  false          :
          :  PC potential                    false          :
          :  electronic temp.          300.0000000     K    :
          :  accuracy                    1.0000000          :
          :  -> integral cutoff          0.2500000E+02      :
          :  -> integral neglect         0.1000000E-07      :
          :  -> SCF convergence          0.1000000E-05 Eh   :
          :  -> wf. convergence          0.1000000E-03 e    :
          :  Broyden damping             0.4000000          :
          ...................................................

 iter      E             dE          RMSdq      gap      omega  full diag
   1   -105.8534932 -0.105853E+03  0.826E+00    0.05       0.0  T
   2    -73.5466239  0.323069E+02  0.133E+01    0.13       1.0  T
   3    -49.4005828  0.241460E+02  0.142E+01    0.05       1.0  T
   4    -69.9275992 -0.205270E+02  0.123E+01    0.25       1.0  T
   5    -99.3035989 -0.293760E+02  0.799E+00    0.16       1.0  T
   6   -103.6748656 -0.437127E+01  0.636E+00    0.11       1.0  T
   7    -92.1914305  0.114834E+02  0.827E+00    0.02       1.0  T
   8   -103.1446853 -0.109533E+02  0.563E+00    0.13       1.0  T
   9   -103.8082501 -0.663565E+00  0.590E+00    0.12       1.0  T
  10   -104.5448536 -0.736603E+00  0.463E+00    0.01       1.0  T
  11   -106.1714929 -0.162664E+01  0.352E+00    0.06       1.0  T
  12   -106.4760090 -0.304516E+00  0.363E+00    0.07       1.0  T
  13   -106.8304073 -0.354398E+00  0.295E+00    0.05       1.0  T
  14   -106.5693987  0.261009E+00  0.318E+00    0.03       1.0  T
  15   -106.9076186 -0.338220E+00  0.285E+00    0.05       1.0  T
  16   -106.9120469 -0.442823E-02  0.275E+00    0.07       1.0  T
  17   -106.8541850  0.578618E-01  0.293E+00    0.03       1.0  T
  18   -105.5033912  0.135079E+01  0.351E+00    0.05       1.0  T
  19   -106.2052250 -0.701834E+00  0.281E+00    0.01       1.0  T
  20   -106.1562053  0.490197E-01  0.295E+00    0.06       1.0  T
  21   -106.2579331 -0.101728E+00  0.267E+00    0.01       1.0  T
  22   -106.0791953  0.178738E+00  0.291E+00    0.04       1.0  T
  23   -106.8720528 -0.792858E+00  0.194E+00    0.03       1.0  T
  24   -106.8452853  0.267675E-01  0.189E+00    0.03       1.0  T
  25   -107.1652496 -0.319964E+00  0.133E+00    0.03       1.0  T
  26   -107.2437045 -0.784549E-01  0.115E+00    0.01       1.0  T
  27   -107.1847075  0.589969E-01  0.117E+00    0.03       1.0  T
  28   -107.3318103 -0.147103E+00  0.816E-01    0.02       1.0  T
  29   -107.3678180 -0.360077E-01  0.607E-01    0.01       1.0  T
  30   -107.3665858  0.123217E-02  0.597E-01    0.01       1.0  T
  31   -107.3545418  0.120440E-01  0.626E-01    0.01       1.0  T
  32   -107.3523265  0.221529E-02  0.560E-01    0.01       1.0  T
  33   -107.3692783 -0.169518E-01  0.424E-01    0.01       1.0  T
  34   -107.3635941  0.568423E-02  0.447E-01    0.01       1.0  T
  35   -107.3602578  0.333625E-02  0.449E-01    0.01       1.0  T
  36   -107.3783810 -0.181232E-01  0.315E-01    0.02       1.0  T
  37   -107.3840531 -0.567206E-02  0.224E-01    0.02       1.0  T
  38   -107.3835400  0.513126E-03  0.229E-01    0.02       1.0  T
  39   -107.3871696 -0.362960E-02  0.167E-01    0.01       1.0  T
  40   -107.3834556  0.371400E-02  0.200E-01    0.01       1.0  T
  41   -107.3882021 -0.474649E-02  0.116E-01    0.01       1.0  T
  42   -107.3878558  0.346261E-03  0.126E-01    0.01       1.0  T
  43   -107.3888125 -0.956656E-03  0.934E-02    0.01       1.0  T
  44   -107.3892915 -0.479070E-03  0.575E-02    0.01       1.0  T
  45   -107.3894698 -0.178319E-03  0.305E-02    0.01       1.0  T
  46   -107.3894570  0.128932E-04  0.244E-02    0.01       1.0  T
  47   -107.3895168 -0.598525E-04  0.139E-02    0.01       1.1  T
  48   -107.3895238 -0.697886E-05  0.849E-03    0.01       1.8  T
  49   -107.3895276 -0.383274E-05  0.676E-03    0.01       2.2  T
  50   -107.3895338 -0.620315E-05  0.205E-03    0.01       7.3  T
  51   -107.3895340 -0.161647E-06  0.140E-03    0.01      10.7  T
  52   -107.3895339  0.550394E-07  0.140E-03    0.01      10.6  T
  53   -107.3895339 -0.158789E-07  0.134E-03    0.01      11.2  T
  54   -107.3895341 -0.189719E-06  0.507E-04    0.01      29.4  T
  55   -107.3895341 -0.751510E-08  0.298E-04    0.01      50.0  T

   *** convergence criteria satisfied after 55 iterations ***

         #    Occupation            Energy/Eh            Energy/eV
      -------------------------------------------------------------
         1        2.0000           -0.7687398             -20.9185
       ...           ...                  ...                  ...
        91        1.9997           -0.4298186             -11.6960
        92        1.9996           -0.4295031             -11.6874
        93        1.9410           -0.4247502             -11.5580
        94        1.8606           -0.4238940             -11.5347
        95        1.7070           -0.4231061             -11.5133
        96        1.6669           -0.4229616             -11.5094
        97        1.4060           -0.4222503             -11.4900 (HOMO)
        98        1.2220           -0.4218607             -11.4794 (LUMO)
        99        0.1699           -0.4191739             -11.4063
       100        0.0251           -0.4172831             -11.3549
       101        0.0017           -0.4147301             -11.2854
       102        0.0005           -0.4136090             -11.2549
       ...           ...                  ...                  ...
       180                          0.6520415              17.7430
      -------------------------------------------------------------
                  HL-Gap            0.0003896 Eh            0.0106 eV
             Fermi-level           -0.4214318 Eh          -11.4677 eV

 SCC (total)                   0 d,  0 h,  0 min,  1.536 sec
 SCC setup                      ...        0 min,  0.000 sec (  0.025%)
 Dispersion                     ...        0 min,  0.002 sec (  0.133%)
 classical contributions        ...        0 min,  0.001 sec (  0.038%)
 integral evaluation            ...        0 min,  0.008 sec (  0.514%)
 iterations                     ...        0 min,  1.463 sec ( 95.211%)
 molecular gradient             ...        0 min,  0.058 sec (  3.787%)
 printout                       ...        0 min,  0.004 sec (  0.289%)

         :::::::::::::::::::::::::::::::::::::::::::::::::::::
         ::                     SUMMARY                     ::
         :::::::::::::::::::::::::::::::::::::::::::::::::::::
         :: total energy            -106.174232197020 Eh    ::
         :: gradient norm              0.573527747334 Eh/a0 ::
         :: HOMO-LUMO gap              0.010602413285 eV    ::
         ::.................................................::
         :: SCC energy              -107.389534138273 Eh    ::
         :: -> isotropic ES            0.067071464594 Eh    ::
         :: -> anisotropic ES          0.010980025990 Eh    ::
         :: -> anisotropic XC          0.064047991086 Eh    ::
         :: -> dispersion             -0.068578688287 Eh    ::
         :: repulsion energy           1.214892629521 Eh    ::
         :: add. restraining           0.000000000000 Eh    ::
         :: total charge              -0.000000000000 e     ::
         :::::::::::::::::::::::::::::::::::::::::::::::::::::

           -------------------------------------------------
          |                Property Printout                |
           -------------------------------------------------

    * Orbital Energies and Occupations

         #    Occupation            Energy/Eh            Energy/eV
      -------------------------------------------------------------
         1        2.0000           -0.7687398             -20.9185
       ...           ...                  ...                  ...
        85        2.0000           -0.4446612             -12.0998
        86        2.0000           -0.4419355             -12.0257
        87        2.0000           -0.4413023             -12.0084
        88        2.0000           -0.4392308             -11.9521
        89        2.0000           -0.4366580             -11.8821
        90        2.0000           -0.4325157             -11.7694
        91        1.9997           -0.4298186             -11.6960
        92        1.9996           -0.4295031             -11.6874
        93        1.9410           -0.4247502             -11.5580
        94        1.8606           -0.4238940             -11.5347
        95        1.7070           -0.4231061             -11.5133
        96        1.6669           -0.4229616             -11.5094
        97        1.4060           -0.4222503             -11.4900 (HOMO)
        98        1.2220           -0.4218607             -11.4794 (LUMO)
        99        0.1699           -0.4191739             -11.4063
       100        0.0251           -0.4172831             -11.3549
       101        0.0017           -0.4147301             -11.2854
       102        0.0005           -0.4136090             -11.2549
       103        0.0000           -0.4075724             -11.0906
       104                         -0.4016175             -10.9286
       105                         -0.3985697             -10.8456
       106                         -0.3957164             -10.7680
       107                         -0.3738282             -10.1724
       108                         -0.3715446             -10.1102
       ...                                ...                  ...
       180                          0.6520415              17.7430
      -------------------------------------------------------------
                  HL-Gap            0.0003896 Eh            0.0106 eV
             Fermi-level           -0.4214318 Eh          -11.4677 eV

     #   Z          covCN         q      C6AA      α(0)
     1   6 C        0.990    -0.098    39.077    10.504
     2   6 C        3.080     0.072    26.297     8.407
     3   6 C        2.039    -0.026    31.679     9.091
     4   6 C        3.016     0.099    25.782     8.329
     5   6 C        2.753     0.302    21.867     7.657
     6   8 O        0.858    -0.337    20.458     6.064
     7   7 N        1.824    -0.124    24.459     7.328
     8   6 C        1.889     0.081    29.084     8.710
     9   6 C        1.899     0.028    30.383     8.902
    10   7 N        2.718     0.088    19.720     6.595
    11   6 C        1.897    -0.039    32.146     9.157
    12   6 C        1.841     0.032    30.333     8.897
    13   8 O        1.695    -0.121    16.142     5.424
    14   6 C        1.841     0.051    29.849     8.826
    15   6 C        1.903    -0.048    32.398     9.193
    16   7 N        1.928    -0.123    24.444     7.331
    17   6 C        2.948     0.128    25.193     8.232
    18   6 C        1.974     0.031    30.277     8.886
    19   6 C        3.097     0.036    27.085     8.529
    20   6 C        2.915     0.284    22.205     7.727
    21   8 O        0.855    -0.336    20.448     6.063
    22   7 N        1.936    -0.221    26.660     7.656
    23   6 C        3.138     0.197    23.606     7.952
    24   7 N        1.828    -0.150    25.034     7.414
    25   6 C        1.985     0.175    26.865     8.370
    26   7 N        1.833    -0.166    25.379     7.465
    27   6 C        2.856     0.184    24.061     8.040
    28   7 N        1.830    -0.172    25.533     7.488
    29   6 C        2.887     0.144    24.866     8.175
    30   6 C        1.993    -0.020    31.581     9.075
    31   6 C        1.979    -0.047    32.328     9.182
    32   6 C        3.058     0.067    26.450     8.434
    33   6 C        3.100     0.039    27.010     8.517
    34   6 C        2.094    -0.018    31.376     9.050
    35   6 C        2.064    -0.021    31.517     9.068
    36   7 N        2.844     0.085    19.758     6.602
    37   6 C        1.894    -0.005    31.262     9.030
    38   6 C        2.961     0.072    26.397     8.427
    39   6 C        1.990    -0.025    31.708     9.094
    40   6 C        1.985    -0.005    31.176     9.017
    41   6 C        1.987     0.033    30.210     8.876
    42   6 C        1.986    -0.006    31.217     9.023
    43   6 C        1.990    -0.035    31.979     9.133
    44   6 C        1.995    -0.069    32.922     9.266
    45   6 C        3.070    -0.017    28.354     8.731

 Mol. C6AA /au·bohr⁶  :      55109.513578
 Mol. C8AA /au·bohr⁸  :    1499495.114859
 Mol. α(0) /au        :        372.939936


Wiberg/Mayer (AO) data.
largest (>0.10) Wiberg bond orders for each atom

 ---------------------------------------------------------------------------
     #   Z sym  total        # sym  WBO       # sym  WBO       # sym  WBO
 ---------------------------------------------------------------------------
     1   6 C    2.503 --     2 C    1.836    16 N    0.211     3 C    0.166
     2   6 C    3.950 --     1 C    1.836     3 C    1.105    17 C    0.892
     3   6 C    3.237 --     4 C    1.437     2 C    1.105    18 C    0.207
                             1 C    0.166
     4   6 C    3.918 --     3 C    1.437    16 N    1.267     5 C    0.978
     5   6 C    3.937 --     6 O    1.700     7 N    1.161     4 C    0.978
     6   8 O    2.015 --     5 C    1.700     7 N    0.105
     7   7 N    3.247 --     8 C    1.631     5 C    1.161     9 C    0.150
                             6 O    0.105
     8   6 C    3.524 --     7 N    1.631     9 C    1.503
     9   6 C    3.391 --     8 C    1.503    10 N    1.239    11 C    0.196
                             7 N    0.150    14 C    0.103
    10   7 N    3.606 --     9 C    1.239    11 C    1.072    15 C    1.029
    11   6 C    3.110 --    12 C    1.446    10 N    1.072     9 C    0.196
                            15 C    0.148
    12   6 C    2.931 --    11 C    1.446    13 O    1.153
    13   8 O    2.478 --    12 C    1.153    14 C    1.145
    14   6 C    3.054 --    15 C    1.555    13 O    1.145     9 C    0.103
    15   6 C    2.965 --    14 C    1.555    10 N    1.029    11 C    0.148
    16   7 N    3.059 --    17 C    1.299     4 C    1.267     1 C    0.211
    17   6 C    3.949 --    18 C    1.539    16 N    1.299     2 C    0.892
    18   6 C    3.789 --    17 C    1.539    19 C    1.515     3 C    0.207
                            22 N    0.113    21 O    0.110
    19   6 C    3.945 --    18 C    1.515    45 C    1.167    20 C    1.025
    20   6 C    3.936 --    21 O    1.569    22 N    1.220    19 C    1.025
Note: The following floating-point exceptions are signalling: IEEE_UNDERFLOW_FLAG IEEE_DENORMAL
normal termination of xtb
    21   8 O    1.975 --    20 C    1.569    18 C    0.110    22 N    0.101
    22   7 N    2.995 --    23 C    1.301    20 C    1.220    18 C    0.113
                            21 O    0.101
    23   6 C    3.937 --    22 N    1.301    24 N    1.230    45 C    1.170
    24   7 N    3.147 --    25 C    1.568    23 C    1.230
    25   6 C    3.694 --    26 N    1.695    24 N    1.568    28 N    0.187
    26   7 N    3.190 --    25 C    1.695    27 C    1.157
    27   6 C    3.943 --    28 N    1.327    45 C    1.237    26 N    1.157
    28   7 N    3.173 --    27 C    1.327    29 C    1.243    25 C    0.187
    29   6 C    3.917 --    30 C    1.272    28 N    1.243    44 C    1.225
    30   6 C    3.748 --    31 C    1.639    29 C    1.272    44 C    0.293
                            35 C    0.171
    31   6 C    3.661 --    30 C    1.639    32 C    1.345    34 C    0.187
                            44 C    0.173
    32   6 C    3.884 --    31 C    1.345    33 C    1.112    36 N    1.103
    33   6 C    3.936 --    44 C    1.425    34 C    1.163    32 C    1.112
    34   6 C    3.625 --    35 C    1.784    33 C    1.163    37 C    0.191
                            31 C    0.187
    35   6 C    3.503 --    34 C    1.784    36 N    1.152    30 C    0.171
    36   7 N    3.624 --    35 C    1.152    37 C    1.150    32 C    1.103
    37   6 C    3.122 --    36 N    1.150    38 C    1.066    34 C    0.191
                            44 C    0.102    43 C    0.100
    38   6 C    3.897 --    39 C    1.312    43 C    1.310    37 C    1.066
                            41 C    0.104
    39   6 C    3.534 --    40 C    1.572    38 C    1.312    42 C    0.223
                            41 C    0.179    43 C    0.108
    40   6 C    3.639 --    41 C    1.624    39 C    1.572    43 C    0.230
    41   6 C    3.741 --    40 C    1.624    42 C    1.615    39 C    0.179
                            43 C    0.172    38 C    0.104
    42   6 C    3.611 --    41 C    1.615    43 C    1.572    39 C    0.223
    43   6 C    3.582 --    42 C    1.572    38 C    1.310    40 C    0.230
                            41 C    0.172    39 C    0.108    37 C    0.100
    44   6 C    3.468 --    33 C    1.425    29 C    1.225    30 C    0.293
                            31 C    0.173    37 C    0.102
    45   6 C    3.898 --    27 C    1.237    23 C    1.170    19 C    1.167
 ---------------------------------------------------------------------------

Topologies differ in total number of bonds
Writing topology from bond orders to xtbtopo.mol

molecular dipole:
                 x           y           z       tot (Debye)
 q only:        0.527       2.545       1.597
   full:        0.987       2.993       1.900       9.353
molecular quadrupole (traceless):
                xx          xy          yy          xz          yz          zz
 q only:       11.703     -24.380     -31.393       6.783      -4.807      19.690
  q+dip:       14.394     -23.098     -39.400      10.213      -6.220      25.006
   full:       16.495     -27.799     -42.792      12.937      -5.329      26.298


           -------------------------------------------------
          | TOTAL ENERGY             -106.174232197020 Eh   |
          | GRADIENT NORM               0.573527747334 Eh/α |
          | HOMO-LUMO GAP               0.010602413285 eV   |
           -------------------------------------------------

------------------------------------------------------------------------
 * finished run on 2026/07/23 at 16:37:44.366     
------------------------------------------------------------------------
 total:
 * wall-time:     0 d,  0 h,  0 min,  1.556 sec
 *  cpu-time:     0 d,  0 h,  0 min,  1.518 sec
 * ratio c/w:     0.976 speedup
 SCF:
 * wall-time:     0 d,  0 h,  0 min,  1.537 sec
 *  cpu-time:     0 d,  0 h,  0 min,  1.490 sec
 * ratio c/w:     0.969 speedup

