      -----------------------------------------------------------      
     |                   =====================                   |     
     |                           x T B                           |     
     |                   =====================                   |     
     |                         S. Grimme                         |     
     |          Mulliken Center for Theoretical Chemistry        |     
     |                    University of Bonn                     |     
      -----------------------------------------------------------      

   * xtb version 6.6.1 (unknown) compiled by 'builduser@buildhost' on 2023-08-07

   xtb is free software: you can redistribute it and/or modify it under
   the terms of the GNU Lesser General Public License as published by
   the Free Software Foundation, either version 3 of the License, or
   (at your option) any later version.
   
   xtb is distributed in the hope that it will be useful,
   but WITHOUT ANY WARRANTY; without even the implied warranty of
   MERCHANTABILITY or FITNESS FOR A PARTICULAR PURPOSE.  See the
   GNU Lesser General Public License for more details.
   
   Cite this work as:
   * C. Bannwarth, E. Caldeweyher, S. Ehlert, A. Hansen, P. Pracht,
     J. Seibert, S. Spicher, S. Grimme, WIREs Comput. Mol. Sci., 2020, 11,
     e01493. DOI: 10.1002/wcms.1493
   
   for GFN2-xTB:
   * C. Bannwarth, S. Ehlert and S. Grimme., J. Chem. Theory Comput., 2019,
     15, 1652-1671. DOI: 10.1021/acs.jctc.8b01176
   for GFN1-xTB:
   * S. Grimme, C. Bannwarth, P. Shushkov, J. Chem. Theory Comput., 2017,
     13, 1989-2009. DOI: 10.1021/acs.jctc.7b00118
   for GFN0-xTB:
   * P. Pracht, E. Caldeweyher, S. Ehlert, S. Grimme, ChemRxiv, 2019, preprint.
     DOI: 10.26434/chemrxiv.8326202.v1
   for GFN-FF:
   * S. Spicher and S. Grimme, Angew. Chem. Int. Ed., 2020, 59, 15665-15673.
     DOI: 10.1002/anie.202004239
   
   for ALPB and GBSA implicit solvation:
   * S. Ehlert, M. Stahn, S. Spicher, S. Grimme, J. Chem. Theory Comput.,
     2021, 17, 4250-4261. DOI: 10.1021/acs.jctc.1c00471
   
   for DFT-D4:
   * E. Caldeweyher, C. Bannwarth and S. Grimme, J. Chem. Phys., 2017,
     147, 034112. DOI: 10.1063/1.4993215
   * E. Caldeweyher, S. Ehlert, A. Hansen, H. Neugebauer, S. Spicher,
     C. Bannwarth and S. Grimme, J. Chem. Phys., 2019, 150, 154122.
     DOI: 10.1063/1.5090222
   * E. Caldeweyher, J.-M. Mewes, S. Ehlert and S. Grimme, Phys. Chem. Chem. Phys.
     2020, 22, 8499-8512. DOI: 10.1039/D0CP00502A
   
   for sTDA-xTB:
   * S. Grimme and C. Bannwarth, J. Chem. Phys., 2016, 145, 054103.
     DOI: 10.1063/1.4959605
   
   in the mass-spec context:
   * V. Asgeirsson, C. Bauer and S. Grimme, Chem. Sci., 2017, 8, 4879.
     DOI: 10.1039/c7sc00601b
   * J. Koopman and S. Grimme, ACS Omega 2019, 4, 12, 15120-15133.
     DOI: 10.1021/acsomega.9b02011
   
   for metadynamics refer to:
   * S. Grimme, J. Chem. Theory Comput., 2019, 155, 2847-2862
     DOI: 10.1021/acs.jctc.9b00143
   
   for SPH calculations refer to:
   * S. Spicher and S. Grimme, J. Chem. Theory Comput., 2021, 17, 1701-1714
     DOI: 10.1021/acs.jctc.0c01306
   
   with help from (in alphabetical order)
   P. Atkinson, C. Bannwarth, F. Bohle, G. Brandenburg, E. Caldeweyher
   M. Checinski, S. Dohm, S. Ehlert, S. Ehrlich, I. Gerasimov, C. Hölzer
   A. Katbashev, J. Koopman, C. Lavigne, S. Lehtola, F. März, M. Müller,
   F. Musil, H. Neugebauer, J. Pisarek, C. Plett, P. Pracht, F. Pultar,
   J. Seibert, P. Shushkov, S. Spicher, M. Stahn, M. Steiner, T. Strunk,
   J. Stückrath, T. Rose, and J. Unsleber
   
 * started run on 2026/07/23 at 16:40:05.484     

           -------------------------------------------------
          |                Calculation Setup                |
           -------------------------------------------------

          program call               : xtb /home/selva/covalent_quantum_benchmark/data/quantum/erbB_xyz/ERBB2__CHEMBL1630114__state00.xyz --gfn2 --chrg 0 --uhf 0 --iterations 300
          coordinate file            : /home/selva/covalent_quantum_benchmark/data/quantum/erbB_xyz/ERBB2__CHEMBL1630114__state00.xyz
          omp threads                :                    24

   ID    Z sym.   atoms
    1    7 N      1, 8, 22, 24, 26
    2    6 C      2-7, 9, 11-21, 23, 25, 27-30, 32-37, 39, 40, 42-45
    3    8 O      10, 31
    4    9 F      38
    5   17 Cl     41

           -------------------------------------------------
          |                 G F N 2 - x T B                 |
           -------------------------------------------------

        Reference                      10.1021/acs.jctc.8b01176
      * Hamiltonian:
        H0-scaling (s, p, d)           1.850000    2.230000    2.230000
        zeta-weighting                 0.500000
      * Dispersion:
        s8                             2.700000
        a1                             0.520000
        a2                             5.000000
        s9                             5.000000
      * Repulsion:
        kExp                           1.500000    1.000000
        rExp                           1.000000
      * Coulomb:
        alpha                          2.000000
        third order                    shell-resolved
        anisotropic                    true
        a3                             3.000000
        a5                             4.000000
        cn-shift                       1.200000
        cn-exp                         4.000000
        max-rad                        5.000000


          ...................................................
          :                      SETUP                      :
          :.................................................:
          :  # basis functions                 186          :
          :  # atomic orbitals                 185          :
          :  # shells                           91          :
          :  # electrons                       195          :
          :  max. iterations                   300          :
          :  Hamiltonian                  GFN2-xTB          :
          :  restarted?                      false          :
          :  GBSA solvation                  false          :
          :  PC potential                    false          :
          :  electronic temp.          300.0000000     K    :
          :  accuracy                    1.0000000          :
          :  -> integral cutoff          0.2500000E+02      :
          :  -> integral neglect         0.1000000E-07      :
          :  -> SCF convergence          0.1000000E-05 Eh   :
          :  -> wf. convergence          0.1000000E-03 e    :
          :  Broyden damping             0.4000000          :
          ...................................................

 iter      E             dE          RMSdq      gap      omega  full diag
   1   -107.5535683 -0.107554E+03  0.809E+00    0.46       0.0  T
   2    -92.6391462  0.149144E+02  0.101E+01    0.02       1.0  T
   3    -57.2729859  0.353662E+02  0.133E+01    0.01       1.0  T
   4    -82.1572705 -0.248843E+02  0.987E+00    0.08       1.0  T
   5    -97.3074153 -0.151501E+02  0.824E+00    0.12       1.0  T
   6    -95.0178432  0.228957E+01  0.803E+00    0.09       1.0  T
   7   -102.2471490 -0.722931E+01  0.571E+00    0.05       1.0  T
   8   -107.6371889 -0.539004E+01  0.432E+00    0.41       1.0  T
   9   -106.9318139  0.705375E+00  0.410E+00    0.10       1.0  T
  10   -108.0902103 -0.115840E+01  0.262E+00    0.06       1.0  T
  11   -108.0354409  0.547695E-01  0.258E+00    0.05       1.0  T
  12   -108.1747702 -0.139329E+00  0.235E+00    0.03       1.0  T
  13   -107.9884845  0.186286E+00  0.270E+00    0.03       1.0  T
  14   -108.0507763 -0.622918E-01  0.252E+00    0.05       1.0  T
  15   -108.1527033 -0.101927E+00  0.250E+00    0.03       1.0  T
  16   -108.0369520  0.115751E+00  0.235E+00    0.01       1.0  T
  17   -108.2854877 -0.248536E+00  0.173E+00    0.09       1.0  T
  18   -108.1359861  0.149502E+00  0.213E+00    0.07       1.0  T
  19   -108.2811987 -0.145213E+00  0.168E+00    0.07       1.0  T
  20   -108.1975252  0.836736E-01  0.184E+00    0.09       1.0  T
  21   -108.2133406 -0.158154E-01  0.179E+00    0.10       1.0  T
  22   -108.2823175 -0.689769E-01  0.148E+00    0.09       1.0  T
  23   -108.3097899 -0.274724E-01  0.158E+00    0.03       1.0  T
  24   -108.3155775 -0.578763E-02  0.146E+00    0.07       1.0  T
  25   -108.3701745 -0.545970E-01  0.127E+00    0.06       1.0  T
  26   -108.4354739 -0.652994E-01  0.991E-01    0.04       1.0  T
  27   -108.5018702 -0.663964E-01  0.635E-01    0.02       1.0  T
  28   -108.5065512 -0.468097E-02  0.569E-01    0.02       1.0  T
  29   -108.5148968 -0.834559E-02  0.570E-01    0.00       1.0  T
  30   -108.5216825 -0.678571E-02  0.435E-01    0.00       1.0  T
  31   -108.5249377 -0.325521E-02  0.392E-01    0.00       1.0  T
  32   -108.5282431 -0.330538E-02  0.345E-01    0.01       1.0  T
  33   -108.5305721 -0.232906E-02  0.295E-01    0.01       1.0  T
  34   -108.5263750  0.419710E-02  0.333E-01    0.01       1.0  T
  35   -108.5298283 -0.345328E-02  0.282E-01    0.00       1.0  T
  36   -108.5299244 -0.961113E-04  0.281E-01    0.00       1.0  T
  37   -108.5323790 -0.245460E-02  0.234E-01    0.00       1.0  T
  38   -108.5311242  0.125487E-02  0.250E-01    0.00       1.0  T
  39   -108.5350157 -0.389155E-02  0.174E-01    0.01       1.0  T
  40   -108.5361170 -0.110132E-02  0.131E-01    0.00       1.0  T
  41   -108.5371699 -0.105289E-02  0.105E-01    0.01       1.0  T
  42   -108.5375415 -0.371617E-03  0.634E-02    0.01       1.0  T
  43   -108.5368524  0.689113E-03  0.891E-02    0.01       1.0  T
  44   -108.5375788 -0.726406E-03  0.466E-02    0.01       1.0  T
  45   -108.5377176 -0.138735E-03  0.333E-02    0.01       1.0  T
  46   -108.5375261  0.191439E-03  0.578E-02    0.01       1.0  T
  47   -108.5376353 -0.109168E-03  0.445E-02    0.01       1.0  T
  48   -108.5377995 -0.164192E-03  0.199E-02    0.01       1.0  T
  49   -108.5378346 -0.351400E-04  0.443E-03    0.01       3.4  T
  50   -108.5378172  0.174013E-04  0.119E-02    0.01       1.3  T
  51   -108.5378350 -0.177973E-04  0.393E-03    0.01       3.8  T
  52   -108.5378357 -0.698953E-06  0.285E-03    0.01       5.2  T
  53   -108.5378361 -0.418090E-06  0.196E-03    0.01       7.6  T
  54   -108.5378358  0.346273E-06  0.333E-03    0.01       4.5  T
  55   -108.5378364 -0.619553E-06  0.157E-03    0.01       9.5  T
  56   -108.5378361  0.335203E-06  0.215E-03    0.01       6.9  T
  57   -108.5378365 -0.435820E-06  0.834E-04    0.01      17.9  T
  58   -108.5378365 -0.260800E-07  0.690E-04    0.01      21.6  T

   *** convergence criteria satisfied after 58 iterations ***

         #    Occupation            Energy/Eh            Energy/eV
      -------------------------------------------------------------
         1        2.0000           -1.0839431             -29.4956
       ...           ...                  ...                  ...
        92        1.9997           -0.4180982             -11.3770
        93        1.9982           -0.4162628             -11.3271
        94        1.9752           -0.4137412             -11.2585
        95        1.8900           -0.4122726             -11.2185
        96        1.7429           -0.4113685             -11.1939
        97        1.3118           -0.4100980             -11.1593
        98        1.1081           -0.4096585             -11.1474 (HOMO)
        99        0.9741           -0.4093812             -11.1398 (LUMO)
       100        0.0000           -0.3972317             -10.8092
       101                         -0.3919275             -10.6649
       102                         -0.3846119             -10.4658
       103                         -0.3816797             -10.3860
       ...                                ...                  ...
       185                          0.6328639              17.2211
      -------------------------------------------------------------
                  HL-Gap            0.0002773 Eh            0.0075 eV
             Fermi-level           -0.4094347 Eh          -11.1413 eV

 SCC (total)                   0 d,  0 h,  0 min,  1.098 sec
 SCC setup                      ...        0 min,  0.000 sec (  0.034%)
 Dispersion                     ...        0 min,  0.002 sec (  0.174%)
 classical contributions        ...        0 min,  0.001 sec (  0.087%)
 integral evaluation            ...        0 min,  0.011 sec (  0.958%)
 iterations                     ...        0 min,  1.041 sec ( 94.878%)
 molecular gradient             ...        0 min,  0.030 sec (  2.725%)
 printout                       ...        0 min,  0.013 sec (  1.141%)

         :::::::::::::::::::::::::::::::::::::::::::::::::::::
         ::                     SUMMARY                     ::
         :::::::::::::::::::::::::::::::::::::::::::::::::::::
         :: total energy            -107.191149811416 Eh    ::
         :: gradient norm              0.550776214930 Eh/a0 ::
         :: HOMO-LUMO gap              0.007544961262 eV    ::
         ::.................................................::
         :: SCC energy              -108.537836545766 Eh    ::
         :: -> isotropic ES            0.067432079104 Eh    ::
         :: -> anisotropic ES          0.007696242434 Eh    ::
         :: -> anisotropic XC          0.058581775249 Eh    ::
         :: -> dispersion             -0.062533802292 Eh    ::
         :: repulsion energy           1.347580507796 Eh    ::
         :: add. restraining           0.000000000000 Eh    ::
         :: total charge               0.000000000002 e     ::
         :::::::::::::::::::::::::::::::::::::::::::::::::::::

           -------------------------------------------------
          |                Property Printout                |
           -------------------------------------------------

    * Orbital Energies and Occupations

         #    Occupation            Energy/Eh            Energy/eV
      -------------------------------------------------------------
         1        2.0000           -1.0839431             -29.4956
       ...           ...                  ...                  ...
        86        2.0000           -0.4338796             -11.8065
        87        2.0000           -0.4284760             -11.6594
        88        2.0000           -0.4277497             -11.6397
        89        2.0000           -0.4257923             -11.5864
        90        2.0000           -0.4243581             -11.5474
        91        2.0000           -0.4220591             -11.4848
        92        1.9997           -0.4180982             -11.3770
        93        1.9982           -0.4162628             -11.3271
        94        1.9752           -0.4137412             -11.2585
        95        1.8900           -0.4122726             -11.2185
        96        1.7429           -0.4113685             -11.1939
        97        1.3118           -0.4100980             -11.1593
        98        1.1081           -0.4096585             -11.1474 (HOMO)
        99        0.9741           -0.4093812             -11.1398 (LUMO)
       100        0.0000           -0.3972317             -10.8092
       101                         -0.3919275             -10.6649
       102                         -0.3846119             -10.4658
       103                         -0.3816797             -10.3860
       104                         -0.3729027             -10.1472
       105                         -0.3621127              -9.8536
       106                         -0.3515198              -9.5653
       107                         -0.3478936              -9.4667
       108                         -0.3463105              -9.4236
       109                         -0.3458036              -9.4098
       ...                                ...                  ...
       185                          0.6328639              17.2211
      -------------------------------------------------------------
                  HL-Gap            0.0002773 Eh            0.0075 eV
             Fermi-level           -0.4094347 Eh          -11.1413 eV

     #   Z          covCN         q      C6AA      α(0)
     1   7 N        0.914    -0.156    24.355     7.136
     2   6 C        2.899     0.128    25.205     8.232
     3   6 C        1.988    -0.024    31.682     9.090
     4   6 C        1.985     0.026    30.383     8.902
     5   6 C        1.987     0.036    30.131     8.865
     6   6 C        1.986    -0.037    32.035     9.140
     7   6 C        2.900     0.141    24.932     8.187
     8   7 N        1.837    -0.196    26.071     7.567
     9   6 C        2.754     0.322    21.532     7.598
    10   8 O        0.857    -0.348    20.673     6.096
    11   6 C        1.973    -0.030    31.856     9.115
    12   6 C        1.976     0.024    30.435     8.909
    13   6 C        2.962     0.078    26.267     8.407
    14   6 C        1.990     0.019    30.559     8.927
    15   6 C        1.983    -0.020    31.583     9.076
    16   6 C        1.991     0.012    30.729     8.952
    17   6 C        2.966     0.067    26.500     8.444
    18   6 C        2.966     0.076    26.300     8.412
    19   6 C        1.992    -0.034    31.955     9.129
    20   6 C        2.004    -0.028    31.781     9.104
    21   6 C        2.985     0.132    25.115     8.221
    22   7 N        1.844    -0.150    25.025     7.414
    23   6 C        1.958     0.153    27.381     8.450
    24   7 N        1.831    -0.169    25.455     7.476
    25   6 C        2.893     0.194    23.864     8.009
    26   7 N        1.830    -0.166    25.400     7.468
    27   6 C        2.891     0.142    24.915     8.184
    28   6 C        1.993    -0.032    31.887     9.119
    29   6 C        1.985    -0.038    32.075     9.146
    30   6 C        2.882     0.157    24.601     8.131
    31   8 O        1.703    -0.128    16.241     5.441
    32   6 C        1.850     0.008    30.934     8.985
    33   6 C        2.960     0.070    26.432     8.433
    34   6 C        1.989     0.020    30.538     8.924
    35   6 C        1.986    -0.024    31.698     9.092
    36   6 C        1.988    -0.007    31.245     9.027
    37   6 C        2.773     0.203    23.687     7.971
    38   9 F        0.787    -0.165    10.881     3.896
    39   6 C        1.990    -0.081    33.259     9.313
    40   6 C        2.878     0.088    26.031     8.364
    41  17 Cl       0.959    -0.086   101.819    15.437
    42   6 C        2.032    -0.077    33.109     9.293
    43   6 C        2.979     0.011    27.764     8.643
    44   6 C        1.996    -0.053    32.467     9.202
    45   6 C        1.999    -0.057    32.587     9.219

 Mol. C6AA /au·bohr⁶  :      57718.211410
 Mol. C8AA /au·bohr⁸  :    1624112.193302
 Mol. α(0) /au        :        382.147449


Wiberg/Mayer (AO) data.
largest (>0.10) Wiberg bond orders for each atom

 ---------------------------------------------------------------------------
     #   Z sym  total        # sym  WBO       # sym  WBO       # sym  WBO
 ---------------------------------------------------------------------------
     1   7 N    2.401 --     2 C    1.599     8 N    0.216     6 C    0.165
                             4 C    0.157
     2   6 C    3.954 --     1 N    1.599     3 C    1.205     7 C    1.012
     3   6 C    3.578 --     4 C    1.785     2 C    1.205     6 C    0.329
                             5 C    0.121
     4   6 C    3.834 --     3 C    1.785     5 C    1.617     1 N    0.157
                             6 C    0.108
     5   6 C    3.865 --     6 C    1.733     4 C    1.617     8 N    0.160
                             3 C    0.121
     6   6 C    3.733 --     5 C    1.733     7 C    1.298     3 C    0.329
                             1 N    0.165     4 C    0.108
     7   6 C    3.952 --     8 N    1.386     6 C    1.298     2 C    1.012
     8   7 N    3.186 --     7 C    1.386     9 C    1.160     1 N    0.216
                             5 C    0.160
     9   6 C    3.945 --    10 O    1.694     8 N    1.160    11 C    0.994
    10   8 O    2.108 --     9 C    1.694    12 C    0.100
    11   6 C    3.817 --    12 C    2.528     9 C    0.994
    12   6 C    3.841 --    11 C    2.528    13 C    1.082    10 O    0.100
    13   6 C    3.957 --    45 C    1.365    14 C    1.331    12 C    1.082
                            16 C    0.105
    14   6 C    3.755 --    15 C    1.650    13 C    1.331    16 C    0.379
                            45 C    0.153    17 C    0.116
    15   6 C    3.723 --    14 C    1.650    16 C    1.606    45 C    0.379
    16   6 C    3.755 --    15 C    1.606    17 C    1.370    14 C    0.379
                            45 C    0.171    13 C    0.105
    17   6 C    3.946 --    45 C    1.399    16 C    1.370    18 C    0.985
                            14 C    0.116
    18   6 C    3.939 --    44 C    1.435    19 C    1.304    17 C    0.985
    19   6 C    3.741 --    20 C    1.717    18 C    1.304    44 C    0.226
                            23 C    0.134
    20   6 C    3.491 --    19 C    1.717    21 C    1.315    44 C    0.198
    21   6 C    3.931 --    20 C    1.315    22 N    1.192    43 C    1.150
    22   7 N    3.174 --    23 C    1.630    21 C    1.192
    23   6 C    3.827 --    22 N    1.630    24 N    1.591    26 N    0.142
                            19 C    0.134
    24   7 N    3.176 --    23 C    1.591    25 C    1.226
    25   6 C    3.947 --    26 N    1.315    24 N    1.226    43 C    1.177
    26   7 N    3.089 --    25 C    1.315    27 C    1.226    23 C    0.142
    27   6 C    3.907 --    42 C    1.278    28 C    1.242    26 N    1.226
    28   6 C    3.619 --    29 C    1.792    27 C    1.242    42 C    0.309
    29   6 C    3.441 --    28 C    1.792    30 C    1.330    42 C    0.137
    30   6 C    3.822 --    29 C    1.330    40 C    1.230    31 O    1.063
    31   8 O    2.509 --    32 C    1.290    30 C    1.063
    32   6 C    2.784 --    31 O    1.290    33 C    1.054    36 C    0.107
    33   6 C    3.954 --    39 C    1.373    34 C    1.344    32 C    1.054
                            36 C    0.114
    34   6 C    3.768 --    35 C    1.659    33 C    1.344    36 C    0.349
                            39 C    0.163    37 C    0.103
    35   6 C    3.782 --    34 C    1.659    36 C    1.611    39 C    0.418
    36   6 C    3.761 --    35 C    1.611    37 C    1.352    34 C    0.349
                            39 C    0.159    33 C    0.114    32 C    0.107
    37   6 C    3.879 --    39 C    1.385    36 C    1.352    38 F    0.993
                            34 C    0.103
    38   9 F    1.162 --    37 C    0.993
    39   6 C    3.629 --    37 C    1.385    33 C    1.373    35 C    0.418
                            34 C    0.163    36 C    0.159
    40   6 C    3.888 --    42 C    1.461    30 C    1.230    41 Cl   1.000
    41  17 Cl   1.179 --    40 C    1.000
    42   6 C    3.359 --    40 C    1.461    27 C    1.278    28 C    0.309
                            29 C    0.137
    43   6 C    3.939 --    44 C    1.339    25 C    1.177    21 C    1.150
    44   6 C    3.515 --    18 C    1.435    43 C    1.339    19 C    0.226
                            20 C    0.198
    45   6 C    3.604 --    17 C    1.399    13 C    1.365    15 C    0.379
                            16 C    0.171    14 C    0.153
 ---------------------------------------------------------------------------

Topologies differ in total number of bonds
Writing topology from bond orders to xtbtopo.mol

molecular dipole:
                 x           y           z       tot (Debye)
 q only:        0.066       0.064      -0.905
   full:        0.441      -0.615      -0.197       1.987
molecular quadrupole (traceless):
                xx          xy          yy          xz          yz          zz
 q only:        2.763      18.893      -2.017     -15.569      27.759      -0.746
  q+dip:        9.219      -3.915      14.705     -16.521      31.629     -23.924
   full:       14.683       0.205      11.079     -18.662      33.448     -25.762


           -------------------------------------------------
          | TOTAL ENERGY             -107.191149811416 Eh   |
          | GRADIENT NORM               0.550776214930 Eh/α |
          | HOMO-LUMO GAP               0.007544961262 eV   |
           -------------------------------------------------

------------------------------------------------------------------------
 * finished run on 2026/07/23 at 16:40:06.601     
------------------------------------------------------------------------
 total:
 * wall-time:     0 d,  0 h,  0 min,  1.117 sec
 *  cpu-time:     0 d,  0 h,  0 min,  1.115 sec
 * ratio c/w:     0.998 speedup
Note: The following floating-point exceptions are signalling: IEEE_UNDERFLOW_FLAG IEEE_DENORMAL
normal termination of xtb
 SCF:
 * wall-time:     0 d,  0 h,  0 min,  1.098 sec
 *  cpu-time:     0 d,  0 h,  0 min,  1.095 sec
 * ratio c/w:     0.997 speedup

