      -----------------------------------------------------------      
     |                   =====================                   |     
     |                           x T B                           |     
     |                   =====================                   |     
     |                         S. Grimme                         |     
     |          Mulliken Center for Theoretical Chemistry        |     
     |                    University of Bonn                     |     
      -----------------------------------------------------------      

   * xtb version 6.6.1 (unknown) compiled by 'builduser@buildhost' on 2023-08-07

   xtb is free software: you can redistribute it and/or modify it under
   the terms of the GNU Lesser General Public License as published by
   the Free Software Foundation, either version 3 of the License, or
   (at your option) any later version.
   
   xtb is distributed in the hope that it will be useful,
   but WITHOUT ANY WARRANTY; without even the implied warranty of
   MERCHANTABILITY or FITNESS FOR A PARTICULAR PURPOSE.  See the
   GNU Lesser General Public License for more details.
   
   Cite this work as:
   * C. Bannwarth, E. Caldeweyher, S. Ehlert, A. Hansen, P. Pracht,
     J. Seibert, S. Spicher, S. Grimme, WIREs Comput. Mol. Sci., 2020, 11,
     e01493. DOI: 10.1002/wcms.1493
   
   for GFN2-xTB:
   * C. Bannwarth, S. Ehlert and S. Grimme., J. Chem. Theory Comput., 2019,
     15, 1652-1671. DOI: 10.1021/acs.jctc.8b01176
   for GFN1-xTB:
   * S. Grimme, C. Bannwarth, P. Shushkov, J. Chem. Theory Comput., 2017,
     13, 1989-2009. DOI: 10.1021/acs.jctc.7b00118
   for GFN0-xTB:
   * P. Pracht, E. Caldeweyher, S. Ehlert, S. Grimme, ChemRxiv, 2019, preprint.
     DOI: 10.26434/chemrxiv.8326202.v1
   for GFN-FF:
   * S. Spicher and S. Grimme, Angew. Chem. Int. Ed., 2020, 59, 15665-15673.
     DOI: 10.1002/anie.202004239
   
   for ALPB and GBSA implicit solvation:
   * S. Ehlert, M. Stahn, S. Spicher, S. Grimme, J. Chem. Theory Comput.,
     2021, 17, 4250-4261. DOI: 10.1021/acs.jctc.1c00471
   
   for DFT-D4:
   * E. Caldeweyher, C. Bannwarth and S. Grimme, J. Chem. Phys., 2017,
     147, 034112. DOI: 10.1063/1.4993215
   * E. Caldeweyher, S. Ehlert, A. Hansen, H. Neugebauer, S. Spicher,
     C. Bannwarth and S. Grimme, J. Chem. Phys., 2019, 150, 154122.
     DOI: 10.1063/1.5090222
   * E. Caldeweyher, J.-M. Mewes, S. Ehlert and S. Grimme, Phys. Chem. Chem. Phys.
     2020, 22, 8499-8512. DOI: 10.1039/D0CP00502A
   
   for sTDA-xTB:
   * S. Grimme and C. Bannwarth, J. Chem. Phys., 2016, 145, 054103.
     DOI: 10.1063/1.4959605
   
   in the mass-spec context:
   * V. Asgeirsson, C. Bauer and S. Grimme, Chem. Sci., 2017, 8, 4879.
     DOI: 10.1039/c7sc00601b
   * J. Koopman and S. Grimme, ACS Omega 2019, 4, 12, 15120-15133.
     DOI: 10.1021/acsomega.9b02011
   
   for metadynamics refer to:
   * S. Grimme, J. Chem. Theory Comput., 2019, 155, 2847-2862
     DOI: 10.1021/acs.jctc.9b00143
   
   for SPH calculations refer to:
   * S. Spicher and S. Grimme, J. Chem. Theory Comput., 2021, 17, 1701-1714
     DOI: 10.1021/acs.jctc.0c01306
   
   with help from (in alphabetical order)
   P. Atkinson, C. Bannwarth, F. Bohle, G. Brandenburg, E. Caldeweyher
   M. Checinski, S. Dohm, S. Ehlert, S. Ehrlich, I. Gerasimov, C. Hölzer
   A. Katbashev, J. Koopman, C. Lavigne, S. Lehtola, F. März, M. Müller,
   F. Musil, H. Neugebauer, J. Pisarek, C. Plett, P. Pracht, F. Pultar,
   J. Seibert, P. Shushkov, S. Spicher, M. Stahn, M. Steiner, T. Strunk,
   J. Stückrath, T. Rose, and J. Unsleber
   
 * started run on 2026/07/23 at 16:43:26.247     

           -------------------------------------------------
          |                Calculation Setup                |
           -------------------------------------------------

          program call               : xtb /home/selva/covalent_quantum_benchmark/data/quantum/erbB_xyz/ERBB2__CHEMBL90277__state01.xyz --gfn2 --chrg 0 --uhf 0 --iterations 300
          coordinate file            : /home/selva/covalent_quantum_benchmark/data/quantum/erbB_xyz/ERBB2__CHEMBL90277__state01.xyz
          omp threads                :                    24

   ID    Z sym.   atoms
    1    6 C      1-13, 15, 16, 18-22
    2    7 N      14, 24
    3    8 O      17, 23

           -------------------------------------------------
          |                 G F N 2 - x T B                 |
           -------------------------------------------------

        Reference                      10.1021/acs.jctc.8b01176
      * Hamiltonian:
        H0-scaling (s, p, d)           1.850000    2.230000    2.230000
        zeta-weighting                 0.500000
      * Dispersion:
        s8                             2.700000
        a1                             0.520000
        a2                             5.000000
        s9                             5.000000
      * Repulsion:
        kExp                           1.500000    1.000000
        rExp                           1.000000
      * Coulomb:
        alpha                          2.000000
        third order                    shell-resolved
        anisotropic                    true
        a3                             3.000000
        a5                             4.000000
        cn-shift                       1.200000
        cn-exp                         4.000000
        max-rad                        5.000000


          ...................................................
          :                      SETUP                      :
          :.................................................:
          :  # basis functions                  96          :
          :  # atomic orbitals                  96          :
          :  # shells                           48          :
          :  # electrons                       102          :
          :  max. iterations                   300          :
          :  Hamiltonian                  GFN2-xTB          :
          :  restarted?                      false          :
          :  GBSA solvation                  false          :
          :  PC potential                    false          :
          :  electronic temp.          300.0000000     K    :
          :  accuracy                    1.0000000          :
          :  -> integral cutoff          0.2500000E+02      :
          :  -> integral neglect         0.1000000E-07      :
          :  -> SCF convergence          0.1000000E-05 Eh   :
          :  -> wf. convergence          0.1000000E-03 e    :
          :  Broyden damping             0.4000000          :
          ...................................................

 iter      E             dE          RMSdq      gap      omega  full diag
   1    -55.1996841 -0.551997E+02  0.912E+00    0.35       0.0  T
   2    -32.3388745  0.228608E+02  0.149E+01    0.38       1.0  T
   3    -14.4682846  0.178706E+02  0.163E+01    0.19       1.0  T
   4    -41.8639997 -0.273957E+02  0.110E+01    0.72       1.0  T
   5    -50.7338374 -0.886984E+01  0.895E+00    0.08       1.0  T
   6    -54.3890126 -0.365518E+01  0.556E+00    0.05       1.0  T
   7    -53.6729281  0.716085E+00  0.677E+00    0.22       1.0  T
   8    -54.4703645 -0.797436E+00  0.537E+00    0.02       1.0  T
   9    -55.4718473 -0.100148E+01  0.443E+00    0.19       1.0  T
  10    -55.7345465 -0.262699E+00  0.344E+00    0.07       1.0  T
  11    -55.8350239 -0.100477E+00  0.314E+00    0.04       1.0  T
  12    -55.6562123  0.178812E+00  0.326E+00    0.09       1.0  T
  13    -55.9071344 -0.250922E+00  0.279E+00    0.04       1.0  T
  14    -55.6400502  0.267084E+00  0.323E+00    0.12       1.0  T
  15    -56.0054779 -0.365428E+00  0.199E+00    0.01       1.0  T
  16    -55.9986586  0.681935E-02  0.168E+00    0.03       1.0  T
  17    -55.8667831  0.131875E+00  0.207E+00    0.04       1.0  T
  18    -55.0840933  0.782690E+00  0.381E+00    0.06       1.0  T
  19    -55.1995306 -0.115437E+00  0.355E+00    0.06       1.0  T
  20    -54.5994728  0.600058E+00  0.468E+00    0.12       1.0  T
  21    -54.4253308  0.174142E+00  0.499E+00    0.14       1.0  T
  22    -55.5854612 -0.116013E+01  0.280E+00    0.05       1.0  T
  23    -55.4360863  0.149375E+00  0.313E+00    0.07       1.0  T
  24    -55.4426532 -0.656695E-02  0.312E+00    0.07       1.0  T
  25    -55.3450296  0.976237E-01  0.334E+00    0.08       1.0  T
  26    -56.0548096 -0.709780E+00  0.792E-01    0.03       1.0  T
  27    -56.0254291  0.293806E-01  0.934E-01    0.02       1.0  T
  28    -56.0558799 -0.304508E-01  0.697E-01    0.01       1.0  T
  29    -56.0676423 -0.117624E-01  0.564E-01    0.00       1.0  T
  30    -56.0833514 -0.157091E-01  0.367E-01    0.02       1.0  T
  31    -56.0824971  0.854289E-03  0.382E-01    0.02       1.0  T
  32    -56.0852292 -0.273206E-02  0.305E-01    0.01       1.0  T
  33    -56.0870711 -0.184190E-02  0.219E-01    0.01       1.0  T
  34    -56.0885030 -0.143192E-02  0.142E-01    0.01       1.0  T
  35    -56.0885680 -0.650623E-04  0.123E-01    0.01       1.0  T
  36    -56.0884329  0.135092E-03  0.115E-01    0.01       1.0  T
  37    -56.0888789 -0.445911E-03  0.771E-02    0.01       1.0  T
  38    -56.0889497 -0.708447E-04  0.561E-02    0.01       1.0  T
  39    -56.0889810 -0.313278E-04  0.439E-02    0.01       1.0  T
  40    -56.0889811 -0.109398E-06  0.353E-02    0.01       1.0  T
  41    -56.0890108 -0.296177E-04  0.186E-02    0.01       1.1  T
  42    -56.0889925  0.182876E-04  0.185E-02    0.01       1.1  T
  43    -56.0890100 -0.175440E-04  0.102E-02    0.01       2.0  T
  44    -56.0890161 -0.613215E-05  0.519E-03    0.01       3.9  T
  45    -56.0890181 -0.198448E-05  0.188E-03    0.01      10.9  T
  46    -56.0890182 -0.108533E-06  0.132E-03    0.01      15.5  T
  47    -56.0890182 -0.174744E-08  0.140E-03    0.01      14.6  T
  48    -56.0890183 -0.608998E-07  0.619E-04    0.01      33.0  T
  49    -56.0890183 -0.625092E-08  0.433E-04    0.01      47.1  T

   *** convergence criteria satisfied after 49 iterations ***

         #    Occupation            Energy/Eh            Energy/eV
      -------------------------------------------------------------
         1        2.0000           -0.7717094             -20.9993
       ...           ...                  ...                  ...
        45        2.0000           -0.4423133             -12.0360
        46        2.0000           -0.4284507             -11.6587
        47        2.0000           -0.4274087             -11.6304
        48        2.0000           -0.4267252             -11.6118
        49        1.9918           -0.4141675             -11.2701
        50        1.6908           -0.4105603             -11.1719
        51        1.1821           -0.4092963             -11.1375 (HOMO)
        52        1.0481           -0.4090378             -11.1305 (LUMO)
        53        0.0784           -0.4059074             -11.0453
        54        0.0068           -0.4035439             -10.9810
        55        0.0020           -0.4023692             -10.9490
        56        0.0000           -0.3940184             -10.7218
       ...           ...                  ...                  ...
        96                          0.6394675              17.4008
      -------------------------------------------------------------
                  HL-Gap            0.0002585 Eh            0.0070 eV
             Fermi-level           -0.4089463 Eh          -11.1280 eV

 SCC (total)                   0 d,  0 h,  0 min,  0.305 sec
 SCC setup                      ...        0 min,  0.000 sec (  0.115%)
 Dispersion                     ...        0 min,  0.004 sec (  1.200%)
 classical contributions        ...        0 min,  0.001 sec (  0.205%)
 integral evaluation            ...        0 min,  0.007 sec (  2.338%)
 iterations                     ...        0 min,  0.270 sec ( 88.728%)
 molecular gradient             ...        0 min,  0.022 sec (  7.180%)
 printout                       ...        0 min,  0.001 sec (  0.221%)

         :::::::::::::::::::::::::::::::::::::::::::::::::::::
         ::                     SUMMARY                     ::
         :::::::::::::::::::::::::::::::::::::::::::::::::::::
         :: total energy             -55.451403514975 Eh    ::
         :: gradient norm              0.446228000957 Eh/a0 ::
         :: HOMO-LUMO gap              0.007033804280 eV    ::
         ::.................................................::
         :: SCC energy               -56.089018304610 Eh    ::
         :: -> isotropic ES            0.021391209151 Eh    ::
         :: -> anisotropic ES          0.002333134538 Eh    ::
         :: -> anisotropic XC          0.028215725221 Eh    ::
         :: -> dispersion             -0.033363190201 Eh    ::
         :: repulsion energy           0.637898889286 Eh    ::
         :: add. restraining           0.000000000000 Eh    ::
         :: total charge               0.000000000000 e     ::
         :::::::::::::::::::::::::::::::::::::::::::::::::::::

           -------------------------------------------------
          |                Property Printout                |
           -------------------------------------------------

    * Orbital Energies and Occupations

         #    Occupation            Energy/Eh            Energy/eV
      -------------------------------------------------------------
         1        2.0000           -0.7717094             -20.9993
       ...           ...                  ...                  ...
        39        2.0000           -0.4774024             -12.9908
        40        2.0000           -0.4755746             -12.9410
        41        2.0000           -0.4747727             -12.9192
        42        2.0000           -0.4598457             -12.5130
        43        2.0000           -0.4535535             -12.3418
        44        2.0000           -0.4441413             -12.0857
        45        2.0000           -0.4423133             -12.0360
        46        2.0000           -0.4284507             -11.6587
        47        2.0000           -0.4274087             -11.6304
        48        2.0000           -0.4267252             -11.6118
        49        1.9918           -0.4141675             -11.2701
        50        1.6908           -0.4105603             -11.1719
        51        1.1821           -0.4092963             -11.1375 (HOMO)
        52        1.0481           -0.4090378             -11.1305 (LUMO)
        53        0.0784           -0.4059074             -11.0453
        54        0.0068           -0.4035439             -10.9810
        55        0.0020           -0.4023692             -10.9490
        56        0.0000           -0.3940184             -10.7218
        57                         -0.3824896             -10.4081
        58                         -0.3692420             -10.0476
        59                         -0.3478245              -9.4648
        60                         -0.3458683              -9.4116
        61                         -0.3227235              -8.7818
        62                         -0.3073815              -8.3643
       ...                                ...                  ...
        96                          0.6394675              17.4008
      -------------------------------------------------------------
                  HL-Gap            0.0002585 Eh            0.0070 eV
             Fermi-level           -0.4089463 Eh          -11.1280 eV

     #   Z          covCN         q      C6AA      α(0)
     1   6 C        0.982    -0.104    39.225    10.520
     2   6 C        2.954     0.089    26.021     8.367
     3   6 C        1.993     0.005    30.929     8.981
     4   6 C        1.988     0.022    30.486     8.917
     5   6 C        1.983     0.032    30.230     8.879
     6   6 C        3.205     0.111    25.016     8.147
     7   6 C        3.033     0.029    27.321     8.574
     8   6 C        3.028     0.027    27.366     8.581
     9   6 C        1.974     0.023    30.475     8.915
    10   6 C        2.968     0.096    25.865     8.342
    11   6 C        1.990    -0.017    31.487     9.062
    12   6 C        1.992    -0.037    32.039     9.141
    13   6 C        2.905     0.118    25.395     8.263
    14   7 N        2.730     0.090    19.685     6.590
    15   6 C        1.900    -0.041    32.214     9.166
    16   6 C        1.853     0.042    30.066     8.857
    17   8 O        1.694    -0.099    15.824     5.371
    18   6 C        1.853     0.038    30.173     8.873
    19   6 C        1.894    -0.039    32.153     9.158
    20   6 C        1.995    -0.047    32.301     9.178
    21   6 C        1.990    -0.020    31.581     9.075
    22   6 C        3.032     0.289    22.095     7.710
    23   8 O        0.856    -0.392    21.523     6.220
    24   7 N        1.844    -0.216    26.537     7.635

 Mol. C6AA /au·bohr⁶  :      16049.599198
 Mol. C8AA /au·bohr⁸  :     445246.110453
 Mol. α(0) /au        :        202.521810


Wiberg/Mayer (AO) data.
largest (>0.10) Wiberg bond orders for each atom

 ---------------------------------------------------------------------------
     #   Z sym  total        # sym  WBO       # sym  WBO       # sym  WBO
 ---------------------------------------------------------------------------
     1   6 C    1.948 --     2 C    1.376     4 C    0.157     3 C    0.149
                             5 C    0.114
     2   6 C    3.951 --     1 C    1.376     7 C    1.214     3 C    1.213
     3   6 C    3.452 --     4 C    1.593     2 C    1.213     5 C    0.277
                             1 C    0.149
     4   6 C    3.675 --     5 C    1.733     3 C    1.593     1 C    0.157
                             7 C    0.104
     5   6 C    3.766 --     4 C    1.733     6 C    1.377     3 C    0.277
                             1 C    0.114
     6   6 C    3.952 --     5 C    1.377     7 C    1.192    24 N    1.150
     7   6 C    3.909 --     2 C    1.214     6 C    1.192     8 C    1.080
                             4 C    0.104
     8   6 C    3.958 --     9 C    1.816     7 C    1.080    22 C    0.857
     9   6 C    3.744 --     8 C    1.816    10 C    1.187    23 O    0.205
                            24 N    0.110
    10   6 C    3.926 --    21 C    1.266    11 C    1.251     9 C    1.187
    11   6 C    3.395 --    12 C    1.664    10 C    1.251    20 C    0.141
    12   6 C    3.579 --    11 C    1.664    13 C    1.291    21 C    0.153
                            20 C    0.111
    13   6 C    3.887 --    12 C    1.291    20 C    1.288    14 N    1.066
    14   7 N    3.625 --    19 C    1.192    15 C    1.184    13 C    1.066
    15   6 C    3.111 --    16 C    1.408    14 N    1.184    18 C    0.172
                            19 C    0.141
    16   6 C    3.058 --    15 C    1.408    17 O    1.171    18 C    0.221
                            19 C    0.171
    17   8 O    2.483 --    16 C    1.171    18 C    1.149
    18   6 C    3.068 --    19 C    1.415    17 O    1.149    16 C    0.221
                            15 C    0.172
    19   6 C    3.133 --    18 C    1.415    14 N    1.192    16 C    0.171
                            15 C    0.141
    20   6 C    3.475 --    21 C    1.663    13 C    1.288    11 C    0.141
                            12 C    0.111
    21   6 C    3.379 --    20 C    1.663    10 C    1.266    12 C    0.153
    22   6 C    3.949 --    23 O    1.522    24 N    1.425     8 C    0.857
    23   8 O    2.096 --    22 C    1.522     9 C    0.205    24 N    0.169
    24   7 N    3.131 --    22 C    1.425     6 C    1.150    23 O    0.169
                             9 C    0.110
 ---------------------------------------------------------------------------

Topologies differ in total number of bonds
Writing topology from bond orders to xtbtopo.mol

molecular dipole:
                 x           y           z       tot (Debye)
 q only:       -1.338      -0.731      -0.736
   full:       -1.340      -0.435      -1.134       4.598
molecular quadrupole (traceless):
                xx          xy          yy          xz          yz          zz
 q only:       -4.237      -7.029      -7.538       6.762      -2.526      11.775
  q+dip:       -5.759      -9.559     -12.995       8.467      -8.257      18.753
   full:       -3.698      -9.923     -11.713       4.430      -6.266      15.412


           -------------------------------------------------
          | TOTAL ENERGY              -55.451403514975 Eh   |
          | GRADIENT NORM               0.446228000957 Eh/α |
          | HOMO-LUMO GAP               0.007033804280 eV   |
Note: The following floating-point exceptions are signalling: IEEE_UNDERFLOW_FLAG IEEE_DENORMAL
normal termination of xtb
           -------------------------------------------------

------------------------------------------------------------------------
 * finished run on 2026/07/23 at 16:43:26.573     
------------------------------------------------------------------------
 total:
 * wall-time:     0 d,  0 h,  0 min,  0.326 sec
 *  cpu-time:     0 d,  0 h,  0 min,  0.315 sec
 * ratio c/w:     0.967 speedup
 SCF:
 * wall-time:     0 d,  0 h,  0 min,  0.305 sec
 *  cpu-time:     0 d,  0 h,  0 min,  0.295 sec
 * ratio c/w:     0.967 speedup

