      -----------------------------------------------------------      
     |                   =====================                   |     
     |                           x T B                           |     
     |                   =====================                   |     
     |                         S. Grimme                         |     
     |          Mulliken Center for Theoretical Chemistry        |     
     |                    University of Bonn                     |     
      -----------------------------------------------------------      

   * xtb version 6.6.1 (unknown) compiled by 'builduser@buildhost' on 2023-08-07

   xtb is free software: you can redistribute it and/or modify it under
   the terms of the GNU Lesser General Public License as published by
   the Free Software Foundation, either version 3 of the License, or
   (at your option) any later version.
   
   xtb is distributed in the hope that it will be useful,
   but WITHOUT ANY WARRANTY; without even the implied warranty of
   MERCHANTABILITY or FITNESS FOR A PARTICULAR PURPOSE.  See the
   GNU Lesser General Public License for more details.
   
   Cite this work as:
   * C. Bannwarth, E. Caldeweyher, S. Ehlert, A. Hansen, P. Pracht,
     J. Seibert, S. Spicher, S. Grimme, WIREs Comput. Mol. Sci., 2020, 11,
     e01493. DOI: 10.1002/wcms.1493
   
   for GFN2-xTB:
   * C. Bannwarth, S. Ehlert and S. Grimme., J. Chem. Theory Comput., 2019,
     15, 1652-1671. DOI: 10.1021/acs.jctc.8b01176
   for GFN1-xTB:
   * S. Grimme, C. Bannwarth, P. Shushkov, J. Chem. Theory Comput., 2017,
     13, 1989-2009. DOI: 10.1021/acs.jctc.7b00118
   for GFN0-xTB:
   * P. Pracht, E. Caldeweyher, S. Ehlert, S. Grimme, ChemRxiv, 2019, preprint.
     DOI: 10.26434/chemrxiv.8326202.v1
   for GFN-FF:
   * S. Spicher and S. Grimme, Angew. Chem. Int. Ed., 2020, 59, 15665-15673.
     DOI: 10.1002/anie.202004239
   
   for ALPB and GBSA implicit solvation:
   * S. Ehlert, M. Stahn, S. Spicher, S. Grimme, J. Chem. Theory Comput.,
     2021, 17, 4250-4261. DOI: 10.1021/acs.jctc.1c00471
   
   for DFT-D4:
   * E. Caldeweyher, C. Bannwarth and S. Grimme, J. Chem. Phys., 2017,
     147, 034112. DOI: 10.1063/1.4993215
   * E. Caldeweyher, S. Ehlert, A. Hansen, H. Neugebauer, S. Spicher,
     C. Bannwarth and S. Grimme, J. Chem. Phys., 2019, 150, 154122.
     DOI: 10.1063/1.5090222
   * E. Caldeweyher, J.-M. Mewes, S. Ehlert and S. Grimme, Phys. Chem. Chem. Phys.
     2020, 22, 8499-8512. DOI: 10.1039/D0CP00502A
   
   for sTDA-xTB:
   * S. Grimme and C. Bannwarth, J. Chem. Phys., 2016, 145, 054103.
     DOI: 10.1063/1.4959605
   
   in the mass-spec context:
   * V. Asgeirsson, C. Bauer and S. Grimme, Chem. Sci., 2017, 8, 4879.
     DOI: 10.1039/c7sc00601b
   * J. Koopman and S. Grimme, ACS Omega 2019, 4, 12, 15120-15133.
     DOI: 10.1021/acsomega.9b02011
   
   for metadynamics refer to:
   * S. Grimme, J. Chem. Theory Comput., 2019, 155, 2847-2862
     DOI: 10.1021/acs.jctc.9b00143
   
   for SPH calculations refer to:
   * S. Spicher and S. Grimme, J. Chem. Theory Comput., 2021, 17, 1701-1714
     DOI: 10.1021/acs.jctc.0c01306
   
   with help from (in alphabetical order)
   P. Atkinson, C. Bannwarth, F. Bohle, G. Brandenburg, E. Caldeweyher
   M. Checinski, S. Dohm, S. Ehlert, S. Ehrlich, I. Gerasimov, C. Hölzer
   A. Katbashev, J. Koopman, C. Lavigne, S. Lehtola, F. März, M. Müller,
   F. Musil, H. Neugebauer, J. Pisarek, C. Plett, P. Pracht, F. Pultar,
   J. Seibert, P. Shushkov, S. Spicher, M. Stahn, M. Steiner, T. Strunk,
   J. Stückrath, T. Rose, and J. Unsleber
   
 * started run on 2026/07/23 at 16:39:11.211     

           -------------------------------------------------
          |                Calculation Setup                |
           -------------------------------------------------

          program call               : xtb /home/selva/covalent_quantum_benchmark/data/quantum/erbB_xyz/EGFR__CHEMBL69071__state01.xyz --gfn2 --chrg 0 --uhf 0 --iterations 300
          coordinate file            : /home/selva/covalent_quantum_benchmark/data/quantum/erbB_xyz/EGFR__CHEMBL69071__state01.xyz
          omp threads                :                    24

   ID    Z sym.   atoms
    1    6 C      1-5, 8-10, 12-14, 16-19, 22, 24, 26, 28-31, 33, 35, 36
    2    8 O      6, 20
    3    7 N      7, 11, 15, 21, 23, 25, 27
    4    9 F      32
    5   17 Cl     34

           -------------------------------------------------
          |                 G F N 2 - x T B                 |
           -------------------------------------------------

        Reference                      10.1021/acs.jctc.8b01176
      * Hamiltonian:
        H0-scaling (s, p, d)           1.850000    2.230000    2.230000
        zeta-weighting                 0.500000
      * Dispersion:
        s8                             2.700000
        a1                             0.520000
        a2                             5.000000
        s9                             5.000000
      * Repulsion:
        kExp                           1.500000    1.000000
        rExp                           1.000000
      * Coulomb:
        alpha                          2.000000
        third order                    shell-resolved
        anisotropic                    true
        a3                             3.000000
        a5                             4.000000
        cn-shift                       1.200000
        cn-exp                         4.000000
        max-rad                        5.000000


          ...................................................
          :                      SETUP                      :
          :.................................................:
          :  # basis functions                 150          :
          :  # atomic orbitals                 149          :
          :  # shells                           73          :
          :  # electrons                       161          :
          :  max. iterations                   300          :
          :  Hamiltonian                  GFN2-xTB          :
          :  restarted?                      false          :
          :  GBSA solvation                  false          :
          :  PC potential                    false          :
          :  electronic temp.          300.0000000     K    :
          :  accuracy                    1.0000000          :
          :  -> integral cutoff          0.2500000E+02      :
          :  -> integral neglect         0.1000000E-07      :
          :  -> SCF convergence          0.1000000E-05 Eh   :
          :  -> wf. convergence          0.1000000E-03 e    :
          :  Broyden damping             0.4000000          :
          ...................................................

 iter      E             dE          RMSdq      gap      omega  full diag
   1    -89.8668685 -0.898669E+02  0.897E+00    0.22       0.0  T
   2    -79.3771759  0.104897E+02  0.118E+01    0.05       1.0  T
   3    -71.4084019  0.796877E+01  0.107E+01    0.21       1.0  T
   4    -69.3284261  0.207998E+01  0.120E+01    0.05       1.0  T
   5    -88.2455466 -0.189171E+02  0.711E+00    0.49       1.0  T
   6    -89.2377219 -0.992175E+00  0.550E+00    0.19       1.0  T
   7    -88.6169091  0.620813E+00  0.520E+00    0.06       1.0  T
   8    -86.7118092  0.190510E+01  0.607E+00    0.04       1.0  T
   9    -89.8504854 -0.313868E+01  0.448E+00    0.26       1.0  T
  10    -90.2629716 -0.412486E+00  0.357E+00    0.12       1.0  T
  11    -90.1525143  0.110457E+00  0.343E+00    0.16       1.0  T
  12    -90.3586474 -0.206133E+00  0.285E+00    0.17       1.0  T
  13    -90.3421992  0.164482E-01  0.260E+00    0.02       1.0  T
  14    -90.5546958 -0.212497E+00  0.217E+00    0.08       1.0  T
  15    -90.5957057 -0.410098E-01  0.184E+00    0.06       1.0  T
  16    -90.5310772  0.646285E-01  0.193E+00    0.04       1.0  T
  17    -89.2686569  0.126242E+01  0.480E+00    0.02       1.0  T
  18    -90.4833293 -0.121467E+01  0.231E+00    0.01       1.0  T
  19    -90.3352278  0.148101E+00  0.260E+00    0.01       1.0  T
  20    -90.3513064 -0.160786E-01  0.251E+00    0.01       1.0  T
  21    -90.0403879  0.310918E+00  0.321E+00    0.02       1.0  T
  22    -88.7808910  0.125950E+01  0.484E+00    0.05       1.0  T
  23    -88.8993529 -0.118462E+00  0.465E+00    0.03       1.0  T
  24    -89.2940391 -0.394686E+00  0.431E+00    0.05       1.0  T
  25    -90.1284045 -0.834365E+00  0.283E+00    0.02       1.0  T
  26    -89.6179566  0.510448E+00  0.381E+00    0.05       1.0  T
  27    -89.5739009  0.440557E-01  0.387E+00    0.04       1.0  T
  28    -90.7107416 -0.113684E+01  0.935E-01    0.01       1.0  T
  29    -90.7089905  0.175106E-02  0.893E-01    0.00       1.0  T
  30    -90.7764135 -0.674230E-01  0.393E-01    0.02       1.0  T
  31    -90.7765852 -0.171696E-03  0.378E-01    0.03       1.0  T
  32    -90.7616603  0.149249E-01  0.506E-01    0.01       1.0  T
  33    -90.7732538 -0.115936E-01  0.358E-01    0.02       1.0  T
  34    -90.7730109  0.242954E-03  0.358E-01    0.03       1.0  T
  35    -90.7685451  0.446573E-02  0.411E-01    0.03       1.0  T
  36    -90.7779663 -0.942122E-02  0.285E-01    0.02       1.0  T
  37    -90.7749984  0.296796E-02  0.337E-01    0.02       1.0  T
  38    -90.7783031 -0.330468E-02  0.287E-01    0.02       1.0  T
  39    -90.7798296 -0.152655E-02  0.234E-01    0.02       1.0  T
  40    -90.7795675  0.262070E-03  0.215E-01    0.02       1.0  T
  41    -90.7796125 -0.449825E-04  0.197E-01    0.02       1.0  T
  42    -90.7812937 -0.168119E-02  0.119E-01    0.02       1.0  T
  43    -90.7813510 -0.572567E-04  0.676E-02    0.02       1.0  T
  44    -90.7809558  0.395172E-03  0.895E-02    0.02       1.0  T
  45    -90.7817343 -0.778513E-03  0.212E-02    0.02       1.0  T
  46    -90.7817204  0.139502E-04  0.234E-02    0.02       1.0  T
  47    -90.7817462 -0.258358E-04  0.166E-02    0.02       1.0  T
  48    -90.7817199  0.262579E-04  0.204E-02    0.02       1.0  T
  49    -90.7817546 -0.346628E-04  0.734E-03    0.02       2.3  T
  50    -90.7817567 -0.208348E-05  0.438E-03    0.02       3.8  T
  51    -90.7817551  0.158099E-05  0.583E-03    0.02       2.9  T
  52    -90.7817570 -0.186926E-05  0.359E-03    0.02       4.6  T
  53    -90.7817572 -0.180144E-06  0.300E-03    0.02       5.6  T
  54    -90.7817571  0.658406E-07  0.288E-03    0.02       5.8  T
  55    -90.7817576 -0.468168E-06  0.172E-03    0.02       9.7  T
  56    -90.7817575  0.240348E-07  0.172E-03    0.02       9.7  T
  57    -90.7817576 -0.566669E-07  0.149E-03    0.02      11.2  T
  58    -90.7817577 -0.106609E-06  0.855E-04    0.02      19.5  T
  59    -90.7817577 -0.948440E-08  0.674E-04    0.02      24.7  T

   *** convergence criteria satisfied after 59 iterations ***

         #    Occupation            Energy/Eh            Energy/eV
      -------------------------------------------------------------
         1        2.0000           -1.0988084             -29.9001
       ...           ...                  ...                  ...
        75        2.0000           -0.4510785             -12.2745
        76        2.0000           -0.4462654             -12.1435
        77        2.0000           -0.4435330             -12.0691
        78        1.9977           -0.4372747             -11.8988
        79        1.7326           -0.4325858             -11.7713
        80        1.3694           -0.4315007             -11.7417
        81        0.8901           -0.4304893             -11.7142 (HOMO)
        82        0.5569           -0.4297495             -11.6941 (LUMO)
        83        0.2747           -0.4288726             -11.6702
        84        0.1685           -0.4283387             -11.6557
        85        0.0101           -0.4255656             -11.5802
        86        0.0000           -0.4175182             -11.3612
       ...           ...                  ...                  ...
       149                          0.6238589              16.9761
      -------------------------------------------------------------
                  HL-Gap            0.0007398 Eh            0.0201 eV
             Fermi-level           -0.4307139 Eh          -11.7203 eV

 SCC (total)                   0 d,  0 h,  0 min,  0.951 sec
 SCC setup                      ...        0 min,  0.001 sec (  0.054%)
 Dispersion                     ...        0 min,  0.001 sec (  0.142%)
 classical contributions        ...        0 min,  0.001 sec (  0.091%)
 integral evaluation            ...        0 min,  0.008 sec (  0.868%)
 iterations                     ...        0 min,  0.905 sec ( 95.188%)
 molecular gradient             ...        0 min,  0.027 sec (  2.870%)
 printout                       ...        0 min,  0.007 sec (  0.784%)

         :::::::::::::::::::::::::::::::::::::::::::::::::::::
         ::                     SUMMARY                     ::
         :::::::::::::::::::::::::::::::::::::::::::::::::::::
         :: total energy             -89.866326189978 Eh    ::
         :: gradient norm              0.485634233103 Eh/a0 ::
         :: HOMO-LUMO gap              0.020130646802 eV    ::
         ::.................................................::
         :: SCC energy               -90.781757706484 Eh    ::
         :: -> isotropic ES            0.046093711238 Eh    ::
         :: -> anisotropic ES          0.011295181688 Eh    ::
         :: -> anisotropic XC          0.047796174855 Eh    ::
         :: -> dispersion             -0.056341905216 Eh    ::
         :: repulsion energy           0.914082890916 Eh    ::
         :: add. restraining           0.000000000000 Eh    ::
         :: total charge              -0.000000000850 e     ::
         :::::::::::::::::::::::::::::::::::::::::::::::::::::

           -------------------------------------------------
          |                Property Printout                |
           -------------------------------------------------

    * Orbital Energies and Occupations

         #    Occupation            Energy/Eh            Energy/eV
      -------------------------------------------------------------
         1        2.0000           -1.0988084             -29.9001
       ...           ...                  ...                  ...
        69        2.0000           -0.4722554             -12.8507
        70        2.0000           -0.4701460             -12.7933
        71        2.0000           -0.4664589             -12.6930
        72        2.0000           -0.4617817             -12.5657
        73        2.0000           -0.4595616             -12.5053
        74        2.0000           -0.4528511             -12.3227
        75        2.0000           -0.4510785             -12.2745
        76        2.0000           -0.4462654             -12.1435
        77        2.0000           -0.4435330             -12.0691
        78        1.9977           -0.4372747             -11.8988
        79        1.7326           -0.4325858             -11.7713
        80        1.3694           -0.4315007             -11.7417
        81        0.8901           -0.4304893             -11.7142 (HOMO)
        82        0.5569           -0.4297495             -11.6941 (LUMO)
        83        0.2747           -0.4288726             -11.6702
        84        0.1685           -0.4283387             -11.6557
        85        0.0101           -0.4255656             -11.5802
        86        0.0000           -0.4175182             -11.3612
        87        0.0000           -0.4168528             -11.3431
        88                         -0.4017339             -10.9317
        89                         -0.3969768             -10.8023
        90                         -0.3930132             -10.6944
        91                         -0.3673767              -9.9968
        92                         -0.3661074              -9.9623
       ...                                ...                  ...
       149                          0.6238589              16.9761
      -------------------------------------------------------------
                  HL-Gap            0.0007398 Eh            0.0201 eV
             Fermi-level           -0.4307139 Eh          -11.7203 eV

     #   Z          covCN         q      C6AA      α(0)
     1   6 C        0.989    -0.064    37.975    10.355
     2   6 C        3.077     0.079    26.162     8.386
     3   6 C        2.035    -0.018    31.486     9.063
     4   6 C        3.028     0.088    26.005     8.365
     5   6 C        2.758     0.295    21.988     7.679
     6   8 O        0.858    -0.289    19.587     5.934
     7   7 N        2.728     0.045    20.453     6.717
     8   6 C        1.898    -0.031    31.944     9.128
     9   6 C        2.862     0.127    25.219     8.231
    10   6 C        0.980    -0.047    37.344    10.264
    11   7 N        1.818    -0.129    24.567     7.344
    12   6 C        2.859     0.138    24.981     8.192
    13   6 C        0.978    -0.086    38.627    10.438
    14   6 C        1.888    -0.040    32.180     9.162
    15   7 N        1.904    -0.174    25.582     7.499
    16   6 C        2.966     0.137    25.017     8.204
    17   6 C        1.973     0.014    30.702     8.948
    18   6 C        3.096     0.046    26.855     8.493
    19   6 C        2.919     0.283    22.218     7.730
    20   8 O        0.855    -0.327    20.271     6.036
    21   7 N        1.936    -0.214    26.478     7.630
    22   6 C        3.137     0.197    23.627     7.956
    23   7 N        1.828    -0.146    24.936     7.400
    24   6 C        1.984     0.176    26.855     8.369
    25   7 N        1.834    -0.153    25.093     7.423
    26   6 C        2.856     0.183    24.080     8.043
    27   7 N        1.829    -0.151    25.056     7.418
    28   6 C        2.889     0.139    24.974     8.193
    29   6 C        1.996    -0.043    32.205     9.165
    30   6 C        1.986    -0.032    31.900     9.121
    31   6 C        2.807     0.195    23.850     8.001
    32   9 F        0.787    -0.151    10.740     3.871
    33   6 C        2.878     0.090    26.004     8.360
    34  17 Cl       0.962    -0.055   100.890    15.367
    35   6 C        2.027    -0.070    32.897     9.263
    36   6 C        3.072    -0.011    28.223     8.711

 Mol. C6AA /au·bohr⁶  :      35974.843197
 Mol. C8AA /au·bohr⁸  :     991129.747053
 Mol. α(0) /au        :        300.456406


Wiberg/Mayer (AO) data.
largest (>0.10) Wiberg bond orders for each atom

 ---------------------------------------------------------------------------
     #   Z sym  total        # sym  WBO       # sym  WBO       # sym  WBO
 ---------------------------------------------------------------------------
     1   6 C    2.372 --     2 C    1.843     3 C    0.161    15 N    0.153
                            16 C    0.105
     2   6 C    3.948 --     1 C    1.843     3 C    1.074    16 C    0.944
     3   6 C    3.013 --     4 C    1.457     2 C    1.074     1 C    0.161
     4   6 C    3.903 --     3 C    1.457    15 N    1.239     5 C    0.992
     5   6 C    3.933 --     6 O    1.793     7 N    1.052     4 C    0.992
     6   8 O    2.110 --     5 C    1.793
     7   7 N    3.669 --     8 C    1.205    14 C    1.195     5 C    1.052
     8   6 C    2.941 --     7 N    1.205     9 C    1.130    11 N    0.189
                            10 C    0.162    13 C    0.101
     9   6 C    3.889 --    10 C    1.485    11 N    1.177     8 C    1.130
    10   6 C    1.996 --     9 C    1.485     8 C    0.162
    11   7 N    2.985 --     9 C    1.177    12 C    1.145    13 C    0.221
                             8 C    0.189    14 C    0.130
    12   6 C    3.895 --    13 C    1.588    11 N    1.145    14 C    1.046
    13   6 C    2.454 --    12 C    1.588    14 C    0.348    11 N    0.221
                             8 C    0.101
    14   6 C    2.993 --     7 N    1.195    12 C    1.046    13 C    0.348
                            11 N    0.130
    15   7 N    3.007 --    16 C    1.267     4 C    1.239     1 C    0.153
    16   6 C    3.944 --    17 C    1.494    15 N    1.267     2 C    0.944
                             1 C    0.105
    17   6 C    3.634 --    18 C    1.506    16 C    1.494    20 O    0.114
                            21 N    0.111
    18   6 C    3.935 --    17 C    1.506    36 C    1.167    19 C    1.030
    19   6 C    3.939 --    20 O    1.575    21 N    1.216    18 C    1.030
    20   8 O    1.964 --    19 C    1.575    17 C    0.114
    21   7 N    3.010 --    22 C    1.299    19 C    1.216    17 C    0.111
Note: The following floating-point exceptions are signalling: IEEE_UNDERFLOW_FLAG IEEE_DENORMAL
normal termination of xtb
    22   6 C    3.945 --    21 N    1.299    23 N    1.234    36 C    1.166
    23   7 N    3.154 --    24 C    1.561    22 C    1.234
    24   6 C    3.746 --    25 N    1.713    23 N    1.561    27 N    0.199
    25   7 N    3.208 --    24 C    1.713    26 C    1.155
    26   6 C    3.935 --    27 N    1.337    36 C    1.232    25 N    1.155
    27   7 N    3.141 --    26 C    1.337    28 C    1.233    24 C    0.199
    28   6 C    3.899 --    35 C    1.282    27 N    1.233    29 C    1.217
    29   6 C    3.612 --    30 C    1.775    28 C    1.217    35 C    0.316
    30   6 C    3.422 --    29 C    1.775    31 C    1.364    35 C    0.150
    31   6 C    3.768 --    30 C    1.364    33 C    1.244    32 F    1.007
    32   9 F    1.153 --    31 C    1.007
    33   6 C    3.880 --    35 C    1.454    31 C    1.244    34 Cl   1.010
    34  17 Cl   1.191 --    33 C    1.010
    35   6 C    3.402 --    33 C    1.454    28 C    1.282    29 C    0.316
                            30 C    0.150
    36   6 C    3.850 --    26 C    1.232    18 C    1.167    22 C    1.166
 ---------------------------------------------------------------------------

Topologies differ in total number of bonds
Writing topology from bond orders to xtbtopo.mol

molecular dipole:
                 x           y           z       tot (Debye)
 q only:        0.856       0.530       0.250
   full:        1.994       0.572       0.073       5.276
molecular quadrupole (traceless):
                xx          xy          yy          xz          yz          zz
 q only:        3.819     -13.404      -3.668       9.057      19.317      -0.150
  q+dip:       15.440     -10.718      -4.421      10.625      20.921     -11.019
   full:       15.606      -8.121      -5.845      13.760      22.661      -9.761


           -------------------------------------------------
          | TOTAL ENERGY              -89.866326189978 Eh   |
          | GRADIENT NORM               0.485634233103 Eh/α |
          | HOMO-LUMO GAP               0.020130646802 eV   |
           -------------------------------------------------

------------------------------------------------------------------------
 * finished run on 2026/07/23 at 16:39:12.177     
------------------------------------------------------------------------
 total:
 * wall-time:     0 d,  0 h,  0 min,  0.967 sec
 *  cpu-time:     0 d,  0 h,  0 min,  0.945 sec
 * ratio c/w:     0.977 speedup
 SCF:
 * wall-time:     0 d,  0 h,  0 min,  0.951 sec
 *  cpu-time:     0 d,  0 h,  0 min,  0.926 sec
 * ratio c/w:     0.973 speedup

