      -----------------------------------------------------------      
     |                   =====================                   |     
     |                           x T B                           |     
     |                   =====================                   |     
     |                         S. Grimme                         |     
     |          Mulliken Center for Theoretical Chemistry        |     
     |                    University of Bonn                     |     
      -----------------------------------------------------------      

   * xtb version 6.6.1 (unknown) compiled by 'builduser@buildhost' on 2023-08-07

   xtb is free software: you can redistribute it and/or modify it under
   the terms of the GNU Lesser General Public License as published by
   the Free Software Foundation, either version 3 of the License, or
   (at your option) any later version.
   
   xtb is distributed in the hope that it will be useful,
   but WITHOUT ANY WARRANTY; without even the implied warranty of
   MERCHANTABILITY or FITNESS FOR A PARTICULAR PURPOSE.  See the
   GNU Lesser General Public License for more details.
   
   Cite this work as:
   * C. Bannwarth, E. Caldeweyher, S. Ehlert, A. Hansen, P. Pracht,
     J. Seibert, S. Spicher, S. Grimme, WIREs Comput. Mol. Sci., 2020, 11,
     e01493. DOI: 10.1002/wcms.1493
   
   for GFN2-xTB:
   * C. Bannwarth, S. Ehlert and S. Grimme., J. Chem. Theory Comput., 2019,
     15, 1652-1671. DOI: 10.1021/acs.jctc.8b01176
   for GFN1-xTB:
   * S. Grimme, C. Bannwarth, P. Shushkov, J. Chem. Theory Comput., 2017,
     13, 1989-2009. DOI: 10.1021/acs.jctc.7b00118
   for GFN0-xTB:
   * P. Pracht, E. Caldeweyher, S. Ehlert, S. Grimme, ChemRxiv, 2019, preprint.
     DOI: 10.26434/chemrxiv.8326202.v1
   for GFN-FF:
   * S. Spicher and S. Grimme, Angew. Chem. Int. Ed., 2020, 59, 15665-15673.
     DOI: 10.1002/anie.202004239
   
   for ALPB and GBSA implicit solvation:
   * S. Ehlert, M. Stahn, S. Spicher, S. Grimme, J. Chem. Theory Comput.,
     2021, 17, 4250-4261. DOI: 10.1021/acs.jctc.1c00471
   
   for DFT-D4:
   * E. Caldeweyher, C. Bannwarth and S. Grimme, J. Chem. Phys., 2017,
     147, 034112. DOI: 10.1063/1.4993215
   * E. Caldeweyher, S. Ehlert, A. Hansen, H. Neugebauer, S. Spicher,
     C. Bannwarth and S. Grimme, J. Chem. Phys., 2019, 150, 154122.
     DOI: 10.1063/1.5090222
   * E. Caldeweyher, J.-M. Mewes, S. Ehlert and S. Grimme, Phys. Chem. Chem. Phys.
     2020, 22, 8499-8512. DOI: 10.1039/D0CP00502A
   
   for sTDA-xTB:
   * S. Grimme and C. Bannwarth, J. Chem. Phys., 2016, 145, 054103.
     DOI: 10.1063/1.4959605
   
   in the mass-spec context:
   * V. Asgeirsson, C. Bauer and S. Grimme, Chem. Sci., 2017, 8, 4879.
     DOI: 10.1039/c7sc00601b
   * J. Koopman and S. Grimme, ACS Omega 2019, 4, 12, 15120-15133.
     DOI: 10.1021/acsomega.9b02011
   
   for metadynamics refer to:
   * S. Grimme, J. Chem. Theory Comput., 2019, 155, 2847-2862
     DOI: 10.1021/acs.jctc.9b00143
   
   for SPH calculations refer to:
   * S. Spicher and S. Grimme, J. Chem. Theory Comput., 2021, 17, 1701-1714
     DOI: 10.1021/acs.jctc.0c01306
   
   with help from (in alphabetical order)
   P. Atkinson, C. Bannwarth, F. Bohle, G. Brandenburg, E. Caldeweyher
   M. Checinski, S. Dohm, S. Ehlert, S. Ehrlich, I. Gerasimov, C. Hölzer
   A. Katbashev, J. Koopman, C. Lavigne, S. Lehtola, F. März, M. Müller,
   F. Musil, H. Neugebauer, J. Pisarek, C. Plett, P. Pracht, F. Pultar,
   J. Seibert, P. Shushkov, S. Spicher, M. Stahn, M. Steiner, T. Strunk,
   J. Stückrath, T. Rose, and J. Unsleber
   
 * started run on 2026/07/23 at 16:39:19.102     

           -------------------------------------------------
          |                Calculation Setup                |
           -------------------------------------------------

          program call               : xtb /home/selva/covalent_quantum_benchmark/data/quantum/erbB_xyz/EGFR__CHEMBL86326__state02.xyz --gfn2 --chrg 0 --uhf 0 --iterations 300
          coordinate file            : /home/selva/covalent_quantum_benchmark/data/quantum/erbB_xyz/EGFR__CHEMBL86326__state02.xyz
          omp threads                :                    24

   ID    Z sym.   atoms
    1    6 C      1, 3-9, 12-15, 17-24
    2    8 O      2, 10
    3    7 N      11
    4   17 Cl     16

           -------------------------------------------------
          |                 G F N 2 - x T B                 |
           -------------------------------------------------

        Reference                      10.1021/acs.jctc.8b01176
      * Hamiltonian:
        H0-scaling (s, p, d)           1.850000    2.230000    2.230000
        zeta-weighting                 0.500000
      * Dispersion:
        s8                             2.700000
        a1                             0.520000
        a2                             5.000000
        s9                             5.000000
      * Repulsion:
        kExp                           1.500000    1.000000
        rExp                           1.000000
      * Coulomb:
        alpha                          2.000000
        third order                    shell-resolved
        anisotropic                    true
        a3                             3.000000
        a5                             4.000000
        cn-shift                       1.200000
        cn-exp                         4.000000
        max-rad                        5.000000


          ...................................................
          :                      SETUP                      :
          :.................................................:
          :  # basis functions                 102          :
          :  # atomic orbitals                 101          :
          :  # shells                           49          :
          :  # electrons                       104          :
          :  max. iterations                   300          :
          :  Hamiltonian                  GFN2-xTB          :
          :  restarted?                      false          :
          :  GBSA solvation                  false          :
          :  PC potential                    false          :
          :  electronic temp.          300.0000000     K    :
          :  accuracy                    1.0000000          :
          :  -> integral cutoff          0.2500000E+02      :
          :  -> integral neglect         0.1000000E-07      :
          :  -> SCF convergence          0.1000000E-05 Eh   :
          :  -> wf. convergence          0.1000000E-03 e    :
          :  Broyden damping             0.4000000          :
          ...................................................

 iter      E             dE          RMSdq      gap      omega  full diag
   1    -55.2395718 -0.552396E+02  0.107E+01    0.49       0.0  T
   2    -27.3670600  0.278725E+02  0.180E+01    0.22       1.0  T
   3    -43.7100456 -0.163430E+02  0.123E+01    0.15       1.0  T
   4    -53.4798712 -0.976983E+01  0.918E+00    0.29       1.0  T
   5    -55.5734990 -0.209363E+01  0.720E+00    0.11       1.0  T
   6    -55.7392130 -0.165714E+00  0.545E+00    0.20       1.0  T
   7    -51.5725233  0.416669E+01  0.984E+00    0.07       1.0  T
   8    -55.0535807 -0.348106E+01  0.694E+00    0.08       1.0  T
   9    -52.7514190  0.230216E+01  0.916E+00    0.05       1.0  T
  10    -52.1122329  0.639186E+00  0.907E+00    0.12       1.0  T
  11    -52.2176320 -0.105399E+00  0.900E+00    0.10       1.0  T
  12    -52.2450150 -0.273830E-01  0.898E+00    0.12       1.0  T
  13    -54.5869016 -0.234189E+01  0.673E+00    0.00       1.0  T
  14    -55.5632512 -0.976350E+00  0.576E+00    0.01       1.0  T
  15    -55.6165889 -0.533376E-01  0.563E+00    0.05       1.0  T
  16    -56.2062540 -0.589665E+00  0.499E+00    0.01       1.0  T
  17    -55.7862544  0.420000E+00  0.516E+00    0.07       1.0  T
  18    -56.0359802 -0.249726E+00  0.484E+00    0.05       1.0  T
  19    -57.1375519 -0.110157E+01  0.350E+00    0.09       1.0  T
  20    -57.2302869 -0.927349E-01  0.311E+00    0.07       1.0  T
  21    -56.9176054  0.312681E+00  0.405E+00    0.11       1.0  T
  22    -56.9029867  0.146188E-01  0.409E+00    0.10       1.0  T
  23    -56.1089949  0.793992E+00  0.506E+00    0.04       1.0  T
  24    -56.2605598 -0.151565E+00  0.461E+00    0.05       1.0  T
  25    -56.8260830 -0.565523E+00  0.402E+00    0.02       1.0  T
  26    -56.0594794  0.766604E+00  0.467E+00    0.06       1.0  T
  27    -57.1786586 -0.111918E+01  0.263E+00    0.01       1.0  T
  28    -57.1386887  0.399700E-01  0.262E+00    0.01       1.0  T
  29    -57.3741750 -0.235486E+00  0.199E+00    0.01       1.0  T
  30    -57.3712018  0.297326E-02  0.198E+00    0.01       1.0  T
  31    -57.1992280  0.171974E+00  0.282E+00    0.02       1.0  T
  32    -57.3844960 -0.185268E+00  0.207E+00    0.03       1.0  T
  33    -57.3955150 -0.110191E-01  0.164E+00    0.01       1.0  T
  34    -57.4911353 -0.956202E-01  0.123E+00    0.01       1.0  T
  35    -57.5938439 -0.102709E+00  0.556E-01    0.01       1.0  T
  36    -57.5973718 -0.352789E-02  0.509E-01    0.01       1.0  T
  37    -57.5971891  0.182770E-03  0.514E-01    0.01       1.0  T
  38    -57.5938930  0.329608E-02  0.460E-01    0.02       1.0  T
  39    -57.5923364  0.155654E-02  0.477E-01    0.02       1.0  T
  40    -57.5961737 -0.383722E-02  0.378E-01    0.01       1.0  T
  41    -57.6017120 -0.553831E-02  0.265E-01    0.00       1.0  T
  42    -57.6018397 -0.127782E-03  0.193E-01    0.00       1.0  T
  43    -57.6021633 -0.323562E-03  0.173E-01    0.00       1.0  T
  44    -57.6019479  0.215448E-03  0.146E-01    0.00       1.0  T
  45    -57.6020184 -0.704907E-04  0.155E-01    0.00       1.0  T
  46    -57.6015987  0.419666E-03  0.160E-01    0.00       1.0  T
  47    -57.6021990 -0.600310E-03  0.116E-01    0.00       1.0  T
  48    -57.6026329 -0.433875E-03  0.807E-02    0.00       1.0  T
  49    -57.6028959 -0.263048E-03  0.321E-02    0.00       1.0  T
  50    -57.6026744  0.221566E-03  0.601E-02    0.00       1.0  T
  51    -57.6028806 -0.206207E-03  0.326E-02    0.00       1.0  T
  52    -57.6028724  0.811988E-05  0.287E-02    0.00       1.0  T
  53    -57.6029127 -0.402264E-04  0.149E-02    0.00       1.4  T
  54    -57.6029193 -0.661364E-05  0.111E-02    0.00       1.8  T
  55    -57.6029232 -0.391083E-05  0.857E-03    0.00       2.4  T
  56    -57.6029248 -0.162280E-05  0.521E-03    0.00       3.9  T
  57    -57.6029251 -0.245517E-06  0.459E-03    0.00       4.4  T
  58    -57.6029254 -0.301404E-06  0.394E-03    0.00       5.2  T
  59    -57.6029258 -0.420317E-06  0.233E-03    0.00       8.8  T
  60    -57.6029259 -0.972303E-07  0.140E-03    0.00      14.6  T
  61    -57.6029260 -0.991302E-07  0.655E-04    0.00      31.2  T
  62    -57.6029260 -0.365823E-08  0.549E-04    0.00      37.2  T

   *** convergence criteria satisfied after 62 iterations ***

         #    Occupation            Energy/Eh            Energy/eV
      -------------------------------------------------------------
         1        2.0000           -1.0985184             -29.8922
       ...           ...                  ...                  ...
        46        2.0000           -0.4506924             -12.2640
        47        2.0000           -0.4430430             -12.0558
        48        2.0000           -0.4425819             -12.0433
        49        1.8958           -0.4289461             -11.6722
        50        1.8366           -0.4284881             -11.6598
        51        1.6177           -0.4275602             -11.6345
        52        1.3033           -0.4267847             -11.6134 (HOMO)
        53        1.2804           -0.4267371             -11.6121 (LUMO)
        54        0.0573           -0.4228426             -11.5061
        55        0.0089           -0.4210550             -11.4575
        56        0.0000           -0.4160589             -11.3215
        57                         -0.4020921             -10.9415
       ...                                ...                  ...
       101                          0.6583372              17.9143
      -------------------------------------------------------------
                  HL-Gap            0.0000476 Eh            0.0013 eV
             Fermi-level           -0.4261898 Eh          -11.5972 eV

 SCC (total)                   0 d,  0 h,  0 min,  0.447 sec
 SCC setup                      ...        0 min,  0.000 sec (  0.051%)
 Dispersion                     ...        0 min,  0.001 sec (  0.160%)
 classical contributions        ...        0 min,  0.000 sec (  0.108%)
 integral evaluation            ...        0 min,  0.003 sec (  0.616%)
 iterations                     ...        0 min,  0.429 sec ( 96.057%)
 molecular gradient             ...        0 min,  0.013 sec (  2.821%)
 printout                       ...        0 min,  0.001 sec (  0.182%)

         :::::::::::::::::::::::::::::::::::::::::::::::::::::
         ::                     SUMMARY                     ::
         :::::::::::::::::::::::::::::::::::::::::::::::::::::
         :: total energy             -56.980808293390 Eh    ::
         :: gradient norm              0.391872286785 Eh/a0 ::
         :: HOMO-LUMO gap              0.001294387162 eV    ::
         ::.................................................::
         :: SCC energy               -57.602925984836 Eh    ::
         :: -> isotropic ES           -0.019099899395 Eh    ::
         :: -> anisotropic ES          0.003323518212 Eh    ::
         :: -> anisotropic XC          0.021111370648 Eh    ::
         :: -> dispersion             -0.035144310098 Eh    ::
         :: repulsion energy           0.621718314442 Eh    ::
         :: add. restraining           0.000000000000 Eh    ::
         :: total charge               0.000000000000 e     ::
         :::::::::::::::::::::::::::::::::::::::::::::::::::::

           -------------------------------------------------
          |                Property Printout                |
           -------------------------------------------------

    * Orbital Energies and Occupations

         #    Occupation            Energy/Eh            Energy/eV
      -------------------------------------------------------------
         1        2.0000           -1.0985184             -29.8922
       ...           ...                  ...                  ...
        40        2.0000           -0.4949353             -13.4679
        41        2.0000           -0.4758886             -12.9496
        42        2.0000           -0.4718574             -12.8399
        43        2.0000           -0.4668817             -12.7045
        44        2.0000           -0.4645208             -12.6403
        45        2.0000           -0.4559666             -12.4075
        46        2.0000           -0.4506924             -12.2640
        47        2.0000           -0.4430430             -12.0558
        48        2.0000           -0.4425819             -12.0433
        49        1.8958           -0.4289461             -11.6722
        50        1.8366           -0.4284881             -11.6598
        51        1.6177           -0.4275602             -11.6345
        52        1.3033           -0.4267847             -11.6134 (HOMO)
        53        1.2804           -0.4267371             -11.6121 (LUMO)
        54        0.0573           -0.4228426             -11.5061
        55        0.0089           -0.4210550             -11.4575
        56        0.0000           -0.4160589             -11.3215
        57                         -0.4020921             -10.9415
        58                         -0.3998045             -10.8792
        59                         -0.3931439             -10.6980
        60                         -0.3893799             -10.5956
        61                         -0.3769212             -10.2565
        62                         -0.3590418              -9.7700
        63                         -0.3456800              -9.4064
       ...                                ...                  ...
       101                          0.6583372              17.9143
      -------------------------------------------------------------
                  HL-Gap            0.0000476 Eh            0.0013 eV
             Fermi-level           -0.4261898 Eh          -11.5972 eV

     #   Z          covCN         q      C6AA      α(0)
     1   6 C        0.866     0.002    35.073     9.887
     2   8 O        1.703    -0.031    14.884     5.209
     3   6 C        2.854     0.159    24.562     8.123
     4   6 C        1.984    -0.052    32.447     9.199
     5   6 C        1.991    -0.013    31.392     9.048
     6   6 C        2.966     0.093    25.928     8.352
     7   6 C        1.977     0.041    30.010     8.847
     8   6 C        3.032     0.033    27.237     8.560
     9   6 C        3.043     0.290    22.072     7.706
    10   8 O        0.855    -0.354    20.788     6.113
    11   7 N        1.844    -0.172    25.526     7.488
    12   6 C        3.206     0.113    24.954     8.135
    13   6 C        1.983    -0.015    31.456     9.057
    14   6 C        2.024    -0.023    31.617     9.081
    15   6 C        2.884     0.135    25.057     8.206
    16  17 Cl       0.964    -0.036   100.301    15.322
    17   6 C        2.018    -0.092    33.554     9.355
    18   6 C        3.043     0.025    27.396     8.585
    19   6 C        1.994    -0.052    32.436     9.198
    20   6 C        2.953     0.060    26.657     8.468
    21   6 C        3.893     0.186    17.596     5.963
    22   6 C        0.983    -0.101    39.132    10.508
    23   6 C        0.985    -0.094    38.920    10.481
    24   6 C        0.983    -0.102    39.189    10.516

 Mol. C6AA /au·bohr⁶  :      17432.925391
 Mol. C8AA /au·bohr⁸  :     504246.393551
 Mol. α(0) /au        :        211.407632


Wiberg/Mayer (AO) data.
largest (>0.10) Wiberg bond orders for each atom

 ---------------------------------------------------------------------------
     #   Z sym  total        # sym  WBO       # sym  WBO       # sym  WBO
 ---------------------------------------------------------------------------
     1   6 C    2.292 --     2 O    1.532    19 C    0.214     4 C    0.164
     2   8 O    2.651 --     1 C    1.532     3 C    1.025
     3   6 C    3.851 --     4 C    1.331    20 C    1.209     2 O    1.025
     4   6 C    3.782 --     5 C    1.818     3 C    1.331    19 C    0.187
                             1 C    0.164
     5   6 C    3.762 --     4 C    1.818     6 C    1.284    19 C    0.236
                            20 C    0.101
     6   6 C    3.962 --    19 C    1.305     5 C    1.284     7 C    1.165
     7   6 C    3.708 --     8 C    1.881     6 C    1.165    10 O    0.130
                            11 N    0.127
     8   6 C    3.954 --     7 C    1.881    18 C    1.006     9 C    0.899
     9   6 C    3.920 --    10 O    1.524    11 N    1.385     8 C    0.899
    10   8 O    1.874 --     9 C    1.524     7 C    0.130
    11   7 N    2.922 --     9 C    1.385    12 C    1.190     7 C    0.127
    12   6 C    3.869 --    13 C    1.353    11 N    1.190    18 C    1.097
    13   6 C    3.477 --    14 C    1.768    12 C    1.353    17 C    0.220
    14   6 C    3.435 --    13 C    1.768    15 C    1.300    17 C    0.160
    15   6 C    3.790 --    17 C    1.348    14 C    1.300    16 Cl   1.023
    16  17 Cl   1.145 --    15 C    1.023
    17   6 C    3.477 --    18 C    1.515    15 C    1.348    13 C    0.220
                            14 C    0.160
    18   6 C    3.870 --    17 C    1.515    12 C    1.097     8 C    1.006
    19   6 C    3.735 --    20 C    1.465     6 C    1.305     5 C    0.236
                             1 C    0.214     4 C    0.187    23 C    0.110
    20   6 C    3.934 --    19 C    1.465     3 C    1.209    21 C    0.849
                             5 C    0.101
    21   6 C    3.960 --    22 C    1.044    24 C    1.040    23 C    0.981
                            20 C    0.849
    22   6 C    2.449 --    21 C    1.044    24 C    0.606    23 C    0.596
    23   6 C    2.437 --    21 C    0.981    24 C    0.596    22 C    0.596
                            19 C    0.110
    24   6 C    2.458 --    21 C    1.040    22 C    0.606    23 C    0.596
 ---------------------------------------------------------------------------

Topologies differ in total number of bonds
Writing topology from bond orders to xtbtopo.mol

molecular dipole:
                 x           y           z       tot (Debye)
 q only:        1.158      -0.581      -0.547
   full:        1.337      -0.481      -0.508       3.836
Note: The following floating-point exceptions are signalling: IEEE_UNDERFLOW_FLAG IEEE_DENORMAL
normal termination of xtb
molecular quadrupole (traceless):
                xx          xy          yy          xz          yz          zz
 q only:      -19.875      14.854      12.827      -5.538       0.260       7.048
  q+dip:      -19.562      21.015      10.665      -5.548      -2.293       8.897
   full:      -20.712      22.793       8.943      -5.756      -1.453      11.769


           -------------------------------------------------
          | TOTAL ENERGY              -56.980808293390 Eh   |
          | GRADIENT NORM               0.391872286785 Eh/α |
          | HOMO-LUMO GAP               0.001294387162 eV   |
           -------------------------------------------------

------------------------------------------------------------------------
 * finished run on 2026/07/23 at 16:39:19.565     
------------------------------------------------------------------------
 total:
 * wall-time:     0 d,  0 h,  0 min,  0.463 sec
 *  cpu-time:     0 d,  0 h,  0 min,  0.438 sec
 * ratio c/w:     0.945 speedup
 SCF:
 * wall-time:     0 d,  0 h,  0 min,  0.447 sec
 *  cpu-time:     0 d,  0 h,  0 min,  0.419 sec
 * ratio c/w:     0.937 speedup

