      -----------------------------------------------------------      
     |                   =====================                   |     
     |                           x T B                           |     
     |                   =====================                   |     
     |                         S. Grimme                         |     
     |          Mulliken Center for Theoretical Chemistry        |     
     |                    University of Bonn                     |     
      -----------------------------------------------------------      

   * xtb version 6.6.1 (unknown) compiled by 'builduser@buildhost' on 2023-08-07

   xtb is free software: you can redistribute it and/or modify it under
   the terms of the GNU Lesser General Public License as published by
   the Free Software Foundation, either version 3 of the License, or
   (at your option) any later version.
   
   xtb is distributed in the hope that it will be useful,
   but WITHOUT ANY WARRANTY; without even the implied warranty of
   MERCHANTABILITY or FITNESS FOR A PARTICULAR PURPOSE.  See the
   GNU Lesser General Public License for more details.
   
   Cite this work as:
   * C. Bannwarth, E. Caldeweyher, S. Ehlert, A. Hansen, P. Pracht,
     J. Seibert, S. Spicher, S. Grimme, WIREs Comput. Mol. Sci., 2020, 11,
     e01493. DOI: 10.1002/wcms.1493
   
   for GFN2-xTB:
   * C. Bannwarth, S. Ehlert and S. Grimme., J. Chem. Theory Comput., 2019,
     15, 1652-1671. DOI: 10.1021/acs.jctc.8b01176
   for GFN1-xTB:
   * S. Grimme, C. Bannwarth, P. Shushkov, J. Chem. Theory Comput., 2017,
     13, 1989-2009. DOI: 10.1021/acs.jctc.7b00118
   for GFN0-xTB:
   * P. Pracht, E. Caldeweyher, S. Ehlert, S. Grimme, ChemRxiv, 2019, preprint.
     DOI: 10.26434/chemrxiv.8326202.v1
   for GFN-FF:
   * S. Spicher and S. Grimme, Angew. Chem. Int. Ed., 2020, 59, 15665-15673.
     DOI: 10.1002/anie.202004239
   
   for ALPB and GBSA implicit solvation:
   * S. Ehlert, M. Stahn, S. Spicher, S. Grimme, J. Chem. Theory Comput.,
     2021, 17, 4250-4261. DOI: 10.1021/acs.jctc.1c00471
   
   for DFT-D4:
   * E. Caldeweyher, C. Bannwarth and S. Grimme, J. Chem. Phys., 2017,
     147, 034112. DOI: 10.1063/1.4993215
   * E. Caldeweyher, S. Ehlert, A. Hansen, H. Neugebauer, S. Spicher,
     C. Bannwarth and S. Grimme, J. Chem. Phys., 2019, 150, 154122.
     DOI: 10.1063/1.5090222
   * E. Caldeweyher, J.-M. Mewes, S. Ehlert and S. Grimme, Phys. Chem. Chem. Phys.
     2020, 22, 8499-8512. DOI: 10.1039/D0CP00502A
   
   for sTDA-xTB:
   * S. Grimme and C. Bannwarth, J. Chem. Phys., 2016, 145, 054103.
     DOI: 10.1063/1.4959605
   
   in the mass-spec context:
   * V. Asgeirsson, C. Bauer and S. Grimme, Chem. Sci., 2017, 8, 4879.
     DOI: 10.1039/c7sc00601b
   * J. Koopman and S. Grimme, ACS Omega 2019, 4, 12, 15120-15133.
     DOI: 10.1021/acsomega.9b02011
   
   for metadynamics refer to:
   * S. Grimme, J. Chem. Theory Comput., 2019, 155, 2847-2862
     DOI: 10.1021/acs.jctc.9b00143
   
   for SPH calculations refer to:
   * S. Spicher and S. Grimme, J. Chem. Theory Comput., 2021, 17, 1701-1714
     DOI: 10.1021/acs.jctc.0c01306
   
   with help from (in alphabetical order)
   P. Atkinson, C. Bannwarth, F. Bohle, G. Brandenburg, E. Caldeweyher
   M. Checinski, S. Dohm, S. Ehlert, S. Ehrlich, I. Gerasimov, C. Hölzer
   A. Katbashev, J. Koopman, C. Lavigne, S. Lehtola, F. März, M. Müller,
   F. Musil, H. Neugebauer, J. Pisarek, C. Plett, P. Pracht, F. Pultar,
   J. Seibert, P. Shushkov, S. Spicher, M. Stahn, M. Steiner, T. Strunk,
   J. Stückrath, T. Rose, and J. Unsleber
   
 * started run on 2026/07/23 at 16:41:53.404     

           -------------------------------------------------
          |                Calculation Setup                |
           -------------------------------------------------

          program call               : xtb /home/selva/covalent_quantum_benchmark/data/quantum/erbB_xyz/ERBB2__CHEMBL327838__state01.xyz --gfn2 --chrg 0 --uhf 0 --iterations 300
          coordinate file            : /home/selva/covalent_quantum_benchmark/data/quantum/erbB_xyz/ERBB2__CHEMBL327838__state01.xyz
          omp threads                :                    24

   ID    Z sym.   atoms
    1    6 C      1, 3, 4, 6-9, 12-15, 17, 19, 21-25, 27-29
    2    8 O      2, 5, 10
    3    7 N      11, 16, 18, 20
    4   35 Br     26

           -------------------------------------------------
          |                 G F N 2 - x T B                 |
           -------------------------------------------------

        Reference                      10.1021/acs.jctc.8b01176
      * Hamiltonian:
        H0-scaling (s, p, d)           1.850000    2.230000    2.230000
        zeta-weighting                 0.500000
      * Dispersion:
        s8                             2.700000
        a1                             0.520000
        a2                             5.000000
        s9                             5.000000
      * Repulsion:
        kExp                           1.500000    1.000000
        rExp                           1.000000
      * Coulomb:
        alpha                          2.000000
        third order                    shell-resolved
        anisotropic                    true
        a3                             3.000000
        a5                             4.000000
        cn-shift                       1.200000
        cn-exp                         4.000000
        max-rad                        5.000000


          ...................................................
          :                      SETUP                      :
          :.................................................:
          :  # basis functions                 122          :
          :  # atomic orbitals                 121          :
          :  # shells                           59          :
          :  # electrons                       129          :
          :  max. iterations                   300          :
          :  Hamiltonian                  GFN2-xTB          :
          :  restarted?                      false          :
          :  GBSA solvation                  false          :
          :  PC potential                    false          :
          :  electronic temp.          300.0000000     K    :
          :  accuracy                    1.0000000          :
          :  -> integral cutoff          0.2500000E+02      :
          :  -> integral neglect         0.1000000E-07      :
          :  -> SCF convergence          0.1000000E-05 Eh   :
          :  -> wf. convergence          0.1000000E-03 e    :
          :  Broyden damping             0.4000000          :
          ...................................................

 iter      E             dE          RMSdq      gap      omega  full diag
   1    -71.8884178 -0.718884E+02  0.853E+00    0.37       0.0  T
   2    -58.8494367  0.130390E+02  0.120E+01    0.12       1.0  T
   3    -58.8942576 -0.448209E-01  0.107E+01    0.02       1.0  T
   4    -62.0389876 -0.314473E+01  0.105E+01    0.11       1.0  T
   5    -66.7766250 -0.473764E+01  0.731E+00    0.39       1.0  T
   6    -68.7724076 -0.199578E+01  0.651E+00    0.27       1.0  T
   7    -71.6386454 -0.286624E+01  0.410E+00    0.66       1.0  T
   8    -71.0549742  0.583671E+00  0.433E+00    0.17       1.0  T
   9    -72.1066852 -0.105171E+01  0.294E+00    0.37       1.0  T
  10    -71.9729002  0.133785E+00  0.274E+00    0.16       1.0  T
  11    -72.0209667 -0.480665E-01  0.257E+00    0.21       1.0  T
  12    -71.9949657  0.260010E-01  0.251E+00    0.01       1.0  T
  13    -71.8881633  0.106802E+00  0.276E+00    0.04       1.0  T
  14    -70.0190614  0.186910E+01  0.537E+00    0.05       1.0  T
  15    -70.6907276 -0.671666E+00  0.459E+00    0.03       1.0  T
  16    -71.1257789 -0.435051E+00  0.416E+00    0.04       1.0  T
  17    -69.8307105  0.129507E+01  0.561E+00    0.10       1.0  T
  18    -69.7885487  0.421618E-01  0.565E+00    0.11       1.0  T
  19    -69.7774137  0.111350E-01  0.566E+00    0.11       1.0  T
  20    -69.8418255 -0.644118E-01  0.558E+00    0.12       1.0  T
  21    -70.9353624 -0.109354E+01  0.427E+00    0.12       1.0  T
  22    -71.1105171 -0.175155E+00  0.404E+00    0.11       1.0  T
  23    -71.3062090 -0.195692E+00  0.374E+00    0.10       1.0  T
  24    -71.3019959  0.421314E-02  0.375E+00    0.10       1.0  T
  25    -71.4230717 -0.121076E+00  0.349E+00    0.10       1.0  T
  26    -72.3905491 -0.967477E+00  0.960E-01    0.01       1.0  T
  27    -72.4433112 -0.527621E-01  0.758E-01    0.08       1.0  T
  28    -72.4502293 -0.691816E-02  0.639E-01    0.07       1.0  T
  29    -72.4548550 -0.462570E-02  0.536E-01    0.04       1.0  T
  30    -72.4360554  0.187997E-01  0.688E-01    0.09       1.0  T
  31    -72.3878873  0.481680E-01  0.974E-01    0.16       1.0  T
  32    -72.4076083 -0.197210E-01  0.836E-01    0.13       1.0  T
  33    -72.4166509 -0.904259E-02  0.763E-01    0.12       1.0  T
  34    -72.4238150 -0.716416E-02  0.703E-01    0.11       1.0  T
  35    -72.4349074 -0.110923E-01  0.603E-01    0.09       1.0  T
  36    -72.4486809 -0.137736E-01  0.467E-01    0.08       1.0  T
  37    -72.4512068 -0.252583E-02  0.433E-01    0.07       1.0  T
  38    -72.4518584 -0.651668E-03  0.422E-01    0.07       1.0  T
  39    -72.4571793 -0.532090E-02  0.334E-01    0.06       1.0  T
  40    -72.4650095 -0.783013E-02  0.147E-01    0.05       1.0  T
  41    -72.4647838  0.225648E-03  0.149E-01    0.05       1.0  T
  42    -72.4621961  0.258776E-02  0.240E-01    0.04       1.0  T
  43    -72.4644576 -0.226151E-02  0.159E-01    0.04       1.0  T
  44    -72.4627555  0.170205E-02  0.212E-01    0.04       1.0  T
  45    -72.4615328  0.122272E-02  0.244E-01    0.04       1.0  T
  46    -72.4627286 -0.119582E-02  0.205E-01    0.04       1.0  T
  47    -72.4646208 -0.189221E-02  0.115E-01    0.04       1.0  T
  48    -72.4649481 -0.327254E-03  0.877E-02    0.05       1.0  T
  49    -72.4653223 -0.374179E-03  0.379E-02    0.05       1.0  T
  50    -72.4653426 -0.203380E-04  0.300E-02    0.05       1.0  T
  51    -72.4653802 -0.376014E-04  0.144E-02    0.05       1.3  T
  52    -72.4653792  0.103342E-05  0.132E-02    0.05       1.4  T
  53    -72.4653865 -0.737280E-05  0.353E-03    0.05       5.3  T
  54    -72.4653862  0.384304E-06  0.320E-03    0.05       5.8  T
  55    -72.4653821  0.402114E-05  0.799E-03    0.05       2.3  T
  56    -72.4653867 -0.461249E-05  0.177E-03    0.05      10.5  T
  57    -72.4653868 -0.964689E-07  0.922E-04    0.05      20.1  T
  58    -72.4653868  0.396768E-07  0.113E-03    0.05      16.5  T
  59    -72.4653868 -0.470758E-07  0.102E-03    0.05      18.2  T
  60    -72.4653867  0.115720E-06  0.170E-03    0.05      10.9  T
  61    -72.4653867  0.148375E-07  0.156E-03    0.05      11.9  T
  62    -72.4653868 -0.642170E-07  0.111E-03    0.05      16.7  T
  63    -72.4653868 -0.540200E-07  0.539E-04    0.05      34.4  T

   *** convergence criteria satisfied after 63 iterations ***

         #    Occupation            Energy/Eh            Energy/eV
      -------------------------------------------------------------
         1        2.0000           -0.8640654             -23.5124
       ...           ...                  ...                  ...
        59        2.0000           -0.4318122             -11.7502
        60        2.0000           -0.4316102             -11.7447
        61        2.0000           -0.4253218             -11.5736
        62        1.9994           -0.4205062             -11.4426
        63        1.9595           -0.4165080             -11.3338
        64        1.3914           -0.4134550             -11.2507
        65        1.1789           -0.4129440             -11.2368 (HOMO)
        66        0.4327           -0.4111355             -11.1876 (LUMO)
        67        0.0381           -0.4085125             -11.1162
        68                         -0.3955372             -10.7631
        69                         -0.3916593             -10.6576
        70                         -0.3873610             -10.5406
       ...                                ...                  ...
       121                          1.3130067              35.7287
      -------------------------------------------------------------
                  HL-Gap            0.0018085 Eh            0.0492 eV
             Fermi-level           -0.4125401 Eh          -11.2258 eV

 SCC (total)                   0 d,  0 h,  0 min,  0.670 sec
 SCC setup                      ...        0 min,  0.000 sec (  0.057%)
 Dispersion                     ...        0 min,  0.001 sec (  0.110%)
 classical contributions        ...        0 min,  0.001 sec (  0.085%)
 integral evaluation            ...        0 min,  0.010 sec (  1.507%)
 iterations                     ...        0 min,  0.642 sec ( 95.732%)
 molecular gradient             ...        0 min,  0.012 sec (  1.856%)
 printout                       ...        0 min,  0.004 sec (  0.649%)

         :::::::::::::::::::::::::::::::::::::::::::::::::::::
         ::                     SUMMARY                     ::
         :::::::::::::::::::::::::::::::::::::::::::::::::::::
         :: total energy             -71.649499268269 Eh    ::
         :: gradient norm              0.450921579668 Eh/a0 ::
         :: HOMO-LUMO gap              0.049211618970 eV    ::
         ::.................................................::
         :: SCC energy               -72.465386835236 Eh    ::
         :: -> isotropic ES            0.042213886422 Eh    ::
         :: -> anisotropic ES          0.008728473469 Eh    ::
         :: -> anisotropic XC          0.035959937914 Eh    ::
         :: -> dispersion             -0.037714441589 Eh    ::
         :: repulsion energy           0.816237266719 Eh    ::
         :: add. restraining           0.000000000000 Eh    ::
         :: total charge               0.000000000001 e     ::
         :::::::::::::::::::::::::::::::::::::::::::::::::::::

           -------------------------------------------------
          |                Property Printout                |
           -------------------------------------------------

    * Orbital Energies and Occupations

         #    Occupation            Energy/Eh            Energy/eV
      -------------------------------------------------------------
         1        2.0000           -0.8640654             -23.5124
       ...           ...                  ...                  ...
        53        2.0000           -0.4523722             -12.3097
        54        2.0000           -0.4517932             -12.2939
        55        2.0000           -0.4470894             -12.1659
        56        2.0000           -0.4415928             -12.0164
        57        2.0000           -0.4403865             -11.9835
        58        2.0000           -0.4376192             -11.9082
        59        2.0000           -0.4318122             -11.7502
        60        2.0000           -0.4316102             -11.7447
        61        2.0000           -0.4253218             -11.5736
        62        1.9994           -0.4205062             -11.4426
        63        1.9595           -0.4165080             -11.3338
        64        1.3914           -0.4134550             -11.2507
        65        1.1789           -0.4129440             -11.2368 (HOMO)
        66        0.4327           -0.4111355             -11.1876 (LUMO)
        67        0.0381           -0.4085125             -11.1162
        68                         -0.3955372             -10.7631
        69                         -0.3916593             -10.6576
        70                         -0.3873610             -10.5406
        71                         -0.3710017             -10.0955
        72                         -0.3542130              -9.6386
        73                         -0.3460626              -9.4168
        74                         -0.3228028              -8.7839
        75                         -0.3180050              -8.6534
        76                         -0.3005098              -8.1773
       ...                                ...                  ...
       121                          1.3130067              35.7287
      -------------------------------------------------------------
                  HL-Gap            0.0018085 Eh            0.0492 eV
             Fermi-level           -0.4125401 Eh          -11.2258 eV

     #   Z          covCN         q      C6AA      α(0)
     1   6 C        0.871    -0.002    35.235     9.913
     2   8 O        1.697    -0.019    14.734     5.182
     3   6 C        1.845     0.016    30.727     8.955
     4   6 C        1.840     0.059    29.651     8.797
     5   8 O        1.698    -0.099    15.826     5.371
     6   6 C        1.845     0.068    29.437     8.765
     7   6 C        1.961     0.039    30.071     8.856
     8   6 C        1.974     0.034    30.194     8.874
     9   6 C        2.749     0.324    21.494     7.591
    10   8 O        0.860    -0.351    20.719     6.103
    11   7 N        1.838    -0.203    26.233     7.590
    12   6 C        2.896     0.150    24.746     8.156
    13   6 C        1.989    -0.019    31.559     9.072
    14   6 C        1.990    -0.020    31.583     9.076
    15   6 C        2.922     0.133    25.089     8.214
    16   7 N        1.831    -0.170    25.480     7.480
    17   6 C        1.908     0.168    27.069     8.403
    18   7 N        1.831    -0.192    25.981     7.553
    19   6 C        2.908     0.201    23.744     7.990
    20   7 N        1.839    -0.153    25.104     7.425
    21   6 C        2.934     0.131    25.135     8.222
    22   6 C        1.992     0.006    30.883     8.975
    23   6 C        1.986    -0.025    31.706     9.093
    24   6 C        2.061     0.007    30.769     8.960
    25   6 C        2.906     0.113    25.517     8.283
    26  35 Br       1.068    -0.069   186.915    22.044
    27   6 C        2.065    -0.084    33.248     9.314
    28   6 C        2.978     0.002    27.987     8.678
    29   6 C        1.995    -0.045    32.241     9.170

 Mol. C6AA /au·bohr⁶  :      25237.804892
 Mol. C8AA /au·bohr⁸  :     748083.945251
 Mol. α(0) /au        :        252.104296


Wiberg/Mayer (AO) data.
largest (>0.10) Wiberg bond orders for each atom

 ---------------------------------------------------------------------------
     #   Z sym  total        # sym  WBO       # sym  WBO       # sym  WBO
 ---------------------------------------------------------------------------
     1   6 C    2.019 --     2 O    1.563     3 C    0.228     4 C    0.103
     2   8 O    2.642 --     1 C    1.563     3 C    0.990
     3   6 C    3.367 --     4 C    1.919     2 O    0.990     1 C    0.228
                             5 O    0.118
     4   6 C    3.500 --     3 C    1.919     5 O    1.157     6 C    0.193
                             1 C    0.103
     5   8 O    2.498 --     4 C    1.157     6 C    1.118     3 C    0.118
     6   6 C    2.952 --     7 C    1.255     5 O    1.118     4 C    0.193
                             8 C    0.125
     7   6 C    3.949 --     8 C    2.526     6 C    1.255
     8   6 C    3.865 --     7 C    2.526     9 C    1.017     6 C    0.125
     9   6 C    3.927 --    10 O    1.650    11 N    1.195     8 C    1.017
    10   8 O    1.942 --     9 C    1.650    11 N    0.112
    11   7 N    2.913 --    12 C    1.270     9 C    1.195    14 C    0.122
                            10 O    0.112
    12   6 C    3.884 --    11 N    1.270    29 C    1.258    13 C    1.207
    13   6 C    3.678 --    14 C    1.752    12 C    1.207    29 C    0.229
                            17 C    0.124
    14   6 C    3.506 --    13 C    1.752    15 C    1.284    29 C    0.159
                            11 N    0.122
    15   6 C    3.866 --    14 C    1.284    16 N    1.173    28 C    1.169
    16   7 N    3.102 --    17 C    1.573    15 C    1.173
    17   6 C    3.833 --    18 N    1.725    16 N    1.573    20 N    0.134
                            13 C    0.124
    18   7 N    3.161 --    17 C    1.725    19 C    1.090
    19   6 C    3.949 --    20 N    1.597    18 N    1.090    28 C    1.053
    20   7 N    3.229 --    19 C    1.597    21 C    1.087    17 C    0.134
    21   6 C    3.954 --    27 C    1.357    22 C    1.322    20 N    1.087
                            24 C    0.101
    22   6 C    3.745 --    23 C    1.622    21 C    1.322    24 C    0.391
                            27 C    0.156    25 C    0.102
Note: The following floating-point exceptions are signalling: IEEE_UNDERFLOW_FLAG IEEE_DENORMAL
normal termination of xtb
    23   6 C    3.762 --    24 C    1.632    22 C    1.622    27 C    0.406
    24   6 C    3.745 --    23 C    1.632    25 C    1.366    22 C    0.391
                            27 C    0.155    21 C    0.101
    25   6 C    3.926 --    27 C    1.416    24 C    1.366    26 Br   0.992
                            22 C    0.102
    26  35 Br   1.194 --    25 C    0.992
    27   6 C    3.613 --    25 C    1.416    21 C    1.357    23 C    0.406
                            22 C    0.156    24 C    0.155
    28   6 C    3.940 --    29 C    1.456    15 C    1.169    19 C    1.053
    29   6 C    3.408 --    28 C    1.456    12 C    1.258    13 C    0.229
                            14 C    0.159
 ---------------------------------------------------------------------------

Topologies differ in total number of bonds
Writing topology from bond orders to xtbtopo.mol

molecular dipole:
                 x           y           z       tot (Debye)
 q only:        0.171       0.349      -0.729
   full:        0.813       0.363      -0.310       2.396
molecular quadrupole (traceless):
                xx          xy          yy          xz          yz          zz
 q only:        7.537       2.899     -12.690       5.108       7.887       5.153
  q+dip:       12.574       1.747     -29.602       9.498       1.744      17.028
   full:       16.128      -2.166     -31.061       6.534       1.771      14.933


           -------------------------------------------------
          | TOTAL ENERGY              -71.649499268269 Eh   |
          | GRADIENT NORM               0.450921579668 Eh/α |
          | HOMO-LUMO GAP               0.049211618970 eV   |
           -------------------------------------------------

------------------------------------------------------------------------
 * finished run on 2026/07/23 at 16:41:54.088     
------------------------------------------------------------------------
 total:
 * wall-time:     0 d,  0 h,  0 min,  0.684 sec
 *  cpu-time:     0 d,  0 h,  0 min,  0.651 sec
 * ratio c/w:     0.951 speedup
 SCF:
 * wall-time:     0 d,  0 h,  0 min,  0.671 sec
 *  cpu-time:     0 d,  0 h,  0 min,  0.628 sec
 * ratio c/w:     0.936 speedup

