      -----------------------------------------------------------      
     |                   =====================                   |     
     |                           x T B                           |     
     |                   =====================                   |     
     |                         S. Grimme                         |     
     |          Mulliken Center for Theoretical Chemistry        |     
     |                    University of Bonn                     |     
      -----------------------------------------------------------      

   * xtb version 6.6.1 (unknown) compiled by 'builduser@buildhost' on 2023-08-07

   xtb is free software: you can redistribute it and/or modify it under
   the terms of the GNU Lesser General Public License as published by
   the Free Software Foundation, either version 3 of the License, or
   (at your option) any later version.
   
   xtb is distributed in the hope that it will be useful,
   but WITHOUT ANY WARRANTY; without even the implied warranty of
   MERCHANTABILITY or FITNESS FOR A PARTICULAR PURPOSE.  See the
   GNU Lesser General Public License for more details.
   
   Cite this work as:
   * C. Bannwarth, E. Caldeweyher, S. Ehlert, A. Hansen, P. Pracht,
     J. Seibert, S. Spicher, S. Grimme, WIREs Comput. Mol. Sci., 2020, 11,
     e01493. DOI: 10.1002/wcms.1493
   
   for GFN2-xTB:
   * C. Bannwarth, S. Ehlert and S. Grimme., J. Chem. Theory Comput., 2019,
     15, 1652-1671. DOI: 10.1021/acs.jctc.8b01176
   for GFN1-xTB:
   * S. Grimme, C. Bannwarth, P. Shushkov, J. Chem. Theory Comput., 2017,
     13, 1989-2009. DOI: 10.1021/acs.jctc.7b00118
   for GFN0-xTB:
   * P. Pracht, E. Caldeweyher, S. Ehlert, S. Grimme, ChemRxiv, 2019, preprint.
     DOI: 10.26434/chemrxiv.8326202.v1
   for GFN-FF:
   * S. Spicher and S. Grimme, Angew. Chem. Int. Ed., 2020, 59, 15665-15673.
     DOI: 10.1002/anie.202004239
   
   for ALPB and GBSA implicit solvation:
   * S. Ehlert, M. Stahn, S. Spicher, S. Grimme, J. Chem. Theory Comput.,
     2021, 17, 4250-4261. DOI: 10.1021/acs.jctc.1c00471
   
   for DFT-D4:
   * E. Caldeweyher, C. Bannwarth and S. Grimme, J. Chem. Phys., 2017,
     147, 034112. DOI: 10.1063/1.4993215
   * E. Caldeweyher, S. Ehlert, A. Hansen, H. Neugebauer, S. Spicher,
     C. Bannwarth and S. Grimme, J. Chem. Phys., 2019, 150, 154122.
     DOI: 10.1063/1.5090222
   * E. Caldeweyher, J.-M. Mewes, S. Ehlert and S. Grimme, Phys. Chem. Chem. Phys.
     2020, 22, 8499-8512. DOI: 10.1039/D0CP00502A
   
   for sTDA-xTB:
   * S. Grimme and C. Bannwarth, J. Chem. Phys., 2016, 145, 054103.
     DOI: 10.1063/1.4959605
   
   in the mass-spec context:
   * V. Asgeirsson, C. Bauer and S. Grimme, Chem. Sci., 2017, 8, 4879.
     DOI: 10.1039/c7sc00601b
   * J. Koopman and S. Grimme, ACS Omega 2019, 4, 12, 15120-15133.
     DOI: 10.1021/acsomega.9b02011
   
   for metadynamics refer to:
   * S. Grimme, J. Chem. Theory Comput., 2019, 155, 2847-2862
     DOI: 10.1021/acs.jctc.9b00143
   
   for SPH calculations refer to:
   * S. Spicher and S. Grimme, J. Chem. Theory Comput., 2021, 17, 1701-1714
     DOI: 10.1021/acs.jctc.0c01306
   
   with help from (in alphabetical order)
   P. Atkinson, C. Bannwarth, F. Bohle, G. Brandenburg, E. Caldeweyher
   M. Checinski, S. Dohm, S. Ehlert, S. Ehrlich, I. Gerasimov, C. Hölzer
   A. Katbashev, J. Koopman, C. Lavigne, S. Lehtola, F. März, M. Müller,
   F. Musil, H. Neugebauer, J. Pisarek, C. Plett, P. Pracht, F. Pultar,
   J. Seibert, P. Shushkov, S. Spicher, M. Stahn, M. Steiner, T. Strunk,
   J. Stückrath, T. Rose, and J. Unsleber
   
 * started run on 2026/07/23 at 16:42:57.738     

           -------------------------------------------------
          |                Calculation Setup                |
           -------------------------------------------------

          program call               : xtb /home/selva/covalent_quantum_benchmark/data/quantum/erbB_xyz/ERBB2__CHEMBL437890__state02.xyz --gfn2 --chrg 0 --uhf 0 --iterations 300
          coordinate file            : /home/selva/covalent_quantum_benchmark/data/quantum/erbB_xyz/ERBB2__CHEMBL437890__state02.xyz
          omp threads                :                    24

   ID    Z sym.   atoms
    1    6 C      1, 3, 4, 6-10, 13-16, 18-21, 23, 25, 27, 29, 30, 32, 33
    2    7 N      2, 5, 12, 17, 26, 28, 31
    3    8 O      11
    4    9 F      22
    5   35 Br     24

           -------------------------------------------------
          |                 G F N 2 - x T B                 |
           -------------------------------------------------

        Reference                      10.1021/acs.jctc.8b01176
      * Hamiltonian:
        H0-scaling (s, p, d)           1.850000    2.230000    2.230000
        zeta-weighting                 0.500000
      * Dispersion:
        s8                             2.700000
        a1                             0.520000
        a2                             5.000000
        s9                             5.000000
      * Repulsion:
        kExp                           1.500000    1.000000
        rExp                           1.000000
      * Coulomb:
        alpha                          2.000000
        third order                    shell-resolved
        anisotropic                    true
        a3                             3.000000
        a5                             4.000000
        cn-shift                       1.200000
        cn-exp                         4.000000
        max-rad                        5.000000


          ...................................................
          :                      SETUP                      :
          :.................................................:
          :  # basis functions                 138          :
          :  # atomic orbitals                 137          :
          :  # shells                           67          :
          :  # electrons                       147          :
          :  max. iterations                   300          :
          :  Hamiltonian                  GFN2-xTB          :
          :  restarted?                      false          :
          :  GBSA solvation                  false          :
          :  PC potential                    false          :
          :  electronic temp.          300.0000000     K    :
          :  accuracy                    1.0000000          :
          :  -> integral cutoff          0.2500000E+02      :
          :  -> integral neglect         0.1000000E-07      :
          :  -> SCF convergence          0.1000000E-05 Eh   :
          :  -> wf. convergence          0.1000000E-03 e    :
          :  Broyden damping             0.4000000          :
          ...................................................

 iter      E             dE          RMSdq      gap      omega  full diag
   1    -81.2720268 -0.812720E+02  0.879E+00    0.69       0.0  T
   2    -74.2586077  0.701342E+01  0.110E+01    0.18       1.0  T
   3    -73.0667559  0.119185E+01  0.965E+00    0.01       1.0  T
   4    -70.2051919  0.286156E+01  0.922E+00    0.28       1.0  T
   5    -67.2054723  0.299972E+01  0.965E+00    0.04       1.0  T
   6    -77.9636482 -0.107582E+02  0.622E+00    0.04       1.0  T
   7    -81.0962477 -0.313260E+01  0.433E+00    0.05       1.0  T
   8    -81.4239037 -0.327656E+00  0.344E+00    0.15       1.0  T
   9    -81.5729964 -0.149093E+00  0.284E+00    0.10       1.0  T
  10    -81.4070987  0.165898E+00  0.278E+00    0.08       1.0  T
  11    -81.7106254 -0.303527E+00  0.229E+00    0.12       1.0  T
  12    -81.5375003  0.173125E+00  0.252E+00    0.08       1.0  T
  13    -81.6305460 -0.930456E-01  0.200E+00    0.08       1.0  T
  14    -81.8211990 -0.190653E+00  0.165E+00    0.12       1.0  T
  15    -81.7009648  0.120234E+00  0.210E+00    0.12       1.0  T
  16    -81.8778328 -0.176868E+00  0.152E+00    0.04       1.0  T
  17    -81.8612487  0.165841E-01  0.157E+00    0.04       1.0  T
  18    -81.9634057 -0.102157E+00  0.114E+00    0.03       1.0  T
  19    -81.8462077  0.117198E+00  0.129E+00    0.08       1.0  T
  20    -81.9650414 -0.118834E+00  0.921E-01    0.06       1.0  T
  21    -81.9783410 -0.132996E-01  0.728E-01    0.06       1.0  T
  22    -81.9349875  0.433534E-01  0.934E-01    0.08       1.0  T
  23    -81.9510328 -0.160453E-01  0.824E-01    0.08       1.0  T
  24    -81.9755685 -0.245357E-01  0.641E-01    0.08       1.0  T
  25    -81.9876608 -0.120923E-01  0.500E-01    0.07       1.0  T
  26    -82.0032407 -0.155799E-01  0.283E-01    0.07       1.0  T
  27    -82.0015265  0.171424E-02  0.319E-01    0.05       1.0  T
  28    -82.0082487 -0.672220E-02  0.167E-01    0.06       1.0  T
  29    -82.0096436 -0.139499E-02  0.723E-02    0.06       1.0  T
  30    -82.0093193  0.324342E-03  0.972E-02    0.06       1.0  T
  31    -82.0096055 -0.286195E-03  0.634E-02    0.06       1.0  T
  32    -82.0082005  0.140497E-02  0.143E-01    0.06       1.0  T
  33    -82.0093633 -0.116281E-02  0.851E-02    0.06       1.0  T
  34    -82.0097440 -0.380688E-03  0.519E-02    0.06       1.0  T
  35    -82.0099697 -0.225690E-03  0.138E-02    0.06       1.3  T
  36    -82.0099252  0.445650E-04  0.248E-02    0.06       1.0  T
  37    -82.0099512 -0.260639E-04  0.182E-02    0.06       1.0  T
  38    -82.0099782 -0.269406E-04  0.756E-03    0.06       2.3  T
  39    -82.0099818 -0.365842E-05  0.456E-03    0.06       3.8  T
  40    -82.0099828 -0.984816E-06  0.309E-03    0.06       5.6  T
  41    -82.0099832 -0.380269E-06  0.173E-03    0.06      10.1  T
  42    -82.0099833 -0.724107E-07  0.134E-03    0.06      13.0  T
  43    -82.0099833 -0.469116E-07  0.108E-03    0.06      16.1  T
  44    -82.0099833  0.200188E-07  0.117E-03    0.06      14.8  T
  45    -82.0099834 -0.981847E-07  0.506E-04    0.06      34.4  T
  46    -82.0099834 -0.201354E-07  0.198E-04    0.06      87.9  T

   *** convergence criteria satisfied after 46 iterations ***

         #    Occupation            Energy/Eh            Energy/eV
      -------------------------------------------------------------
         1        2.0000           -0.8628825             -23.4802
       ...           ...                  ...                  ...
        68        2.0000           -0.4374891             -11.9047
        69        2.0000           -0.4356384             -11.8543
        70        1.9997           -0.4275883             -11.6353
        71        1.9918           -0.4245661             -11.5530
        72        1.9645           -0.4231515             -11.5145
        73        1.5007           -0.4202365             -11.4352
        74        1.1871           -0.4194217             -11.4130 (HOMO)
        75        0.3563           -0.4172605             -11.3542 (LUMO)
        76        0.0000           -0.4049330             -11.0188
        77                         -0.4007986             -10.9063
        78                         -0.3990615             -10.8590
        79                         -0.3890801             -10.5874
       ...                                ...                  ...
       137                          1.3080540              35.5940
      -------------------------------------------------------------
                  HL-Gap            0.0021613 Eh            0.0588 eV
             Fermi-level           -0.4189778 Eh          -11.4010 eV

 SCC (total)                   0 d,  0 h,  0 min,  0.588 sec
 SCC setup                      ...        0 min,  0.000 sec (  0.045%)
 Dispersion                     ...        0 min,  0.001 sec (  0.232%)
 classical contributions        ...        0 min,  0.002 sec (  0.410%)
 integral evaluation            ...        0 min,  0.006 sec (  0.999%)
 iterations                     ...        0 min,  0.549 sec ( 93.254%)
 molecular gradient             ...        0 min,  0.022 sec (  3.714%)
 printout                       ...        0 min,  0.008 sec (  1.341%)

         :::::::::::::::::::::::::::::::::::::::::::::::::::::
         ::                     SUMMARY                     ::
         :::::::::::::::::::::::::::::::::::::::::::::::::::::
         :: total energy             -81.131218672160 Eh    ::
         :: gradient norm              0.461957593461 Eh/a0 ::
         :: HOMO-LUMO gap              0.058810836685 eV    ::
         ::.................................................::
         :: SCC energy               -82.009983396921 Eh    ::
         :: -> isotropic ES            0.030609921654 Eh    ::
         :: -> anisotropic ES          0.011259454663 Eh    ::
         :: -> anisotropic XC          0.044729271773 Eh    ::
         :: -> dispersion             -0.049184325269 Eh    ::
         :: repulsion energy           0.878415613829 Eh    ::
         :: add. restraining           0.000000000000 Eh    ::
         :: total charge              -0.000000000015 e     ::
         :::::::::::::::::::::::::::::::::::::::::::::::::::::

           -------------------------------------------------
          |                Property Printout                |
           -------------------------------------------------

    * Orbital Energies and Occupations

         #    Occupation            Energy/Eh            Energy/eV
      -------------------------------------------------------------
         1        2.0000           -0.8628825             -23.4802
       ...           ...                  ...                  ...
        62        2.0000           -0.4576870             -12.4543
        63        2.0000           -0.4489718             -12.2171
        64        2.0000           -0.4451400             -12.1129
        65        2.0000           -0.4421411             -12.0313
        66        2.0000           -0.4418237             -12.0226
        67        2.0000           -0.4389378             -11.9441
        68        2.0000           -0.4374891             -11.9047
        69        2.0000           -0.4356384             -11.8543
        70        1.9997           -0.4275883             -11.6353
        71        1.9918           -0.4245661             -11.5530
        72        1.9645           -0.4231515             -11.5145
        73        1.5007           -0.4202365             -11.4352
        74        1.1871           -0.4194217             -11.4130 (HOMO)
        75        0.3563           -0.4172605             -11.3542 (LUMO)
        76        0.0000           -0.4049330             -11.0188
        77                         -0.4007986             -10.9063
        78                         -0.3990615             -10.8590
        79                         -0.3890801             -10.5874
        80                         -0.3743761             -10.1873
        81                         -0.3738316             -10.1725
        82                         -0.3627212              -9.8701
        83                         -0.3581370              -9.7454
        84                         -0.3385885              -9.2135
        85                         -0.3151107              -8.5746
       ...                                ...                  ...
       137                          1.3080540              35.5940
      -------------------------------------------------------------
                  HL-Gap            0.0021613 Eh            0.0588 eV
             Fermi-level           -0.4189778 Eh          -11.4010 eV

     #   Z          covCN         q      C6AA      α(0)
     1   6 C        0.932    -0.065    37.592    10.272
     2   7 N        2.721     0.124    19.122     6.495
     3   6 C        1.905    -0.056    32.619     9.224
     4   6 C        1.894    -0.040    32.189     9.163
     5   7 N        2.719     0.088    19.716     6.595
     6   6 C        1.894     0.024    30.510     8.921
     7   6 C        1.952    -0.012    31.394     9.048
     8   6 C        1.962     0.041    30.016     8.848
     9   6 C        1.969    -0.003    31.149     9.013
    10   6 C        2.807     0.331    21.384     7.576
    11   8 O        0.860    -0.337    20.465     6.065
    12   7 N        1.842    -0.161    25.285     7.452
    13   6 C        2.881     0.199    23.771     7.993
    14   6 C        1.974    -0.085    33.392     9.332
    15   6 C        2.971     0.016    27.655     8.626
    16   6 C        2.898     0.197    23.815     8.001
    17   7 N        1.837    -0.111    24.196     7.290
    18   6 C        2.932     0.129    25.181     8.230
    19   6 C        1.993    -0.042    32.164     9.159
    20   6 C        1.987    -0.027    31.769     9.102
    21   6 C        2.841     0.182    24.101     8.046
    22   9 F        0.787    -0.170    10.928     3.905
    23   6 C        2.906     0.074    26.345     8.416
    24  35 Br       1.063    -0.061   186.688    22.030
    25   6 C        2.068    -0.072    32.912     9.267
    26   7 N        1.832    -0.165    25.368     7.464
    27   6 C        1.896     0.169    27.055     8.401
    28   7 N        1.834    -0.148    24.996     7.409
    29   6 C        2.907     0.135    25.043     8.206
    30   6 C        1.923     0.021    30.557     8.927
    31   7 N        1.845    -0.112    24.216     7.293
    32   6 C        1.895    -0.029    31.895     9.121
    33   6 C        1.907    -0.033    31.981     9.133

 Mol. C6AA /au·bohr⁶  :      32098.927007
 Mol. C8AA /au·bohr⁸  :     936675.591365
 Mol. α(0) /au        :        284.021925


Wiberg/Mayer (AO) data.
largest (>0.10) Wiberg bond orders for each atom

 ---------------------------------------------------------------------------
     #   Z sym  total        # sym  WBO       # sym  WBO       # sym  WBO
 ---------------------------------------------------------------------------
     1   6 C    2.638 --     2 N    1.503     4 C    0.456    32 C    0.305
                             3 C    0.107
     2   7 N    3.660 --     1 C    1.503     3 C    1.058    33 C    1.018
     3   6 C    3.244 --     4 C    1.443     2 N    1.058    33 C    0.276
                            32 C    0.170     1 C    0.107
     4   6 C    3.333 --     3 C    1.443     5 N    1.109     1 C    0.456
     5   7 N    3.639 --    32 C    1.155     4 C    1.109     6 C    1.096
     6   6 C    3.537 --     7 C    1.860     5 N    1.096    33 C    0.133
                             9 C    0.131
     7   6 C    3.454 --     6 C    1.860     8 C    1.207
     8   6 C    3.959 --     9 C    2.559     7 C    1.207
     9   6 C    3.926 --     8 C    2.559    10 C    1.006     6 C    0.131
    10   6 C    3.947 --    11 O    1.730    12 N    1.137     9 C    1.006
    11   8 O    2.064 --    10 C    1.730    12 N    0.132
    12   7 N    3.053 --    13 C    1.531    10 C    1.137    11 O    0.132
    13   6 C    3.930 --    12 N    1.531    31 N    1.162    14 C    1.073
    14   6 C    3.569 --    15 C    1.694    13 C    1.073    30 C    0.372
                            31 N    0.111
    15   6 C    3.964 --    14 C    1.694    16 C    1.010    29 C    1.009
    16   6 C    3.944 --    17 N    1.652    26 N    1.079    15 C    1.010
    17   7 N    3.350 --    16 C    1.652    18 C    1.089    27 C    0.212
    18   6 C    3.939 --    25 C    1.335    19 C    1.300    17 N    1.089
    19   6 C    3.714 --    20 C    1.716    18 C    1.300    25 C    0.344
                            23 C    0.112
    20   6 C    3.429 --    19 C    1.716    21 C    1.377    25 C    0.161
    21   6 C    3.836 --    20 C    1.377    23 C    1.281    22 F    0.990
    22   9 F    1.149 --    21 C    0.990
    23   6 C    3.913 --    25 C    1.439    21 C    1.281    24 Br   1.000
                            19 C    0.112
    24  35 Br   1.195 --    23 C    1.000
    25   6 C    3.474 --    23 C    1.439    18 C    1.335    19 C    0.344
                            20 C    0.161
    26   7 N    3.180 --    27 C    1.755    16 C    1.079
    27   6 C    3.792 --    26 N    1.755    28 N    1.517    17 N    0.212
    28   7 N    3.149 --    27 C    1.517    29 C    1.257
    29   6 C    3.825 --    30 C    1.367    28 N    1.257    15 C    1.009
    30   6 C    3.686 --    31 N    1.701    29 C    1.367    14 C    0.372
    31   7 N    3.261 --    30 C    1.701    13 C    1.162    14 C    0.111
    32   6 C    3.342 --    33 C    1.434     5 N    1.155     1 C    0.305
                             3 C    0.170
    33   6 C    3.120 --    32 C    1.434     2 N    1.018     3 C    0.276
                             6 C    0.133
 ---------------------------------------------------------------------------

Topologies differ in total number of bonds
Writing topology from bond orders to xtbtopo.mol
Note: The following floating-point exceptions are signalling: IEEE_UNDERFLOW_FLAG IEEE_DENORMAL
normal termination of xtb

molecular dipole:
                 x           y           z       tot (Debye)
 q only:       -0.649       0.346      -1.050
   full:       -0.219       0.004      -1.110       2.876
molecular quadrupole (traceless):
                xx          xy          yy          xz          yz          zz
 q only:        2.681     -15.175      -5.216     -12.891      -2.118       2.534
  q+dip:       10.865     -24.877     -14.251     -18.587      -3.914       3.385
   full:        7.086     -24.399     -10.464     -18.170      -5.349       3.378


           -------------------------------------------------
          | TOTAL ENERGY              -81.131218672160 Eh   |
          | GRADIENT NORM               0.461957593461 Eh/α |
          | HOMO-LUMO GAP               0.058810836685 eV   |
           -------------------------------------------------

------------------------------------------------------------------------
 * finished run on 2026/07/23 at 16:42:58.341     
------------------------------------------------------------------------
 total:
 * wall-time:     0 d,  0 h,  0 min,  0.603 sec
 *  cpu-time:     0 d,  0 h,  0 min,  0.602 sec
 * ratio c/w:     0.999 speedup
 SCF:
 * wall-time:     0 d,  0 h,  0 min,  0.589 sec
 *  cpu-time:     0 d,  0 h,  0 min,  0.582 sec
 * ratio c/w:     0.988 speedup

