      -----------------------------------------------------------      
     |                   =====================                   |     
     |                           x T B                           |     
     |                   =====================                   |     
     |                         S. Grimme                         |     
     |          Mulliken Center for Theoretical Chemistry        |     
     |                    University of Bonn                     |     
      -----------------------------------------------------------      

   * xtb version 6.6.1 (unknown) compiled by 'builduser@buildhost' on 2023-08-07

   xtb is free software: you can redistribute it and/or modify it under
   the terms of the GNU Lesser General Public License as published by
   the Free Software Foundation, either version 3 of the License, or
   (at your option) any later version.
   
   xtb is distributed in the hope that it will be useful,
   but WITHOUT ANY WARRANTY; without even the implied warranty of
   MERCHANTABILITY or FITNESS FOR A PARTICULAR PURPOSE.  See the
   GNU Lesser General Public License for more details.
   
   Cite this work as:
   * C. Bannwarth, E. Caldeweyher, S. Ehlert, A. Hansen, P. Pracht,
     J. Seibert, S. Spicher, S. Grimme, WIREs Comput. Mol. Sci., 2020, 11,
     e01493. DOI: 10.1002/wcms.1493
   
   for GFN2-xTB:
   * C. Bannwarth, S. Ehlert and S. Grimme., J. Chem. Theory Comput., 2019,
     15, 1652-1671. DOI: 10.1021/acs.jctc.8b01176
   for GFN1-xTB:
   * S. Grimme, C. Bannwarth, P. Shushkov, J. Chem. Theory Comput., 2017,
     13, 1989-2009. DOI: 10.1021/acs.jctc.7b00118
   for GFN0-xTB:
   * P. Pracht, E. Caldeweyher, S. Ehlert, S. Grimme, ChemRxiv, 2019, preprint.
     DOI: 10.26434/chemrxiv.8326202.v1
   for GFN-FF:
   * S. Spicher and S. Grimme, Angew. Chem. Int. Ed., 2020, 59, 15665-15673.
     DOI: 10.1002/anie.202004239
   
   for ALPB and GBSA implicit solvation:
   * S. Ehlert, M. Stahn, S. Spicher, S. Grimme, J. Chem. Theory Comput.,
     2021, 17, 4250-4261. DOI: 10.1021/acs.jctc.1c00471
   
   for DFT-D4:
   * E. Caldeweyher, C. Bannwarth and S. Grimme, J. Chem. Phys., 2017,
     147, 034112. DOI: 10.1063/1.4993215
   * E. Caldeweyher, S. Ehlert, A. Hansen, H. Neugebauer, S. Spicher,
     C. Bannwarth and S. Grimme, J. Chem. Phys., 2019, 150, 154122.
     DOI: 10.1063/1.5090222
   * E. Caldeweyher, J.-M. Mewes, S. Ehlert and S. Grimme, Phys. Chem. Chem. Phys.
     2020, 22, 8499-8512. DOI: 10.1039/D0CP00502A
   
   for sTDA-xTB:
   * S. Grimme and C. Bannwarth, J. Chem. Phys., 2016, 145, 054103.
     DOI: 10.1063/1.4959605
   
   in the mass-spec context:
   * V. Asgeirsson, C. Bauer and S. Grimme, Chem. Sci., 2017, 8, 4879.
     DOI: 10.1039/c7sc00601b
   * J. Koopman and S. Grimme, ACS Omega 2019, 4, 12, 15120-15133.
     DOI: 10.1021/acsomega.9b02011
   
   for metadynamics refer to:
   * S. Grimme, J. Chem. Theory Comput., 2019, 155, 2847-2862
     DOI: 10.1021/acs.jctc.9b00143
   
   for SPH calculations refer to:
   * S. Spicher and S. Grimme, J. Chem. Theory Comput., 2021, 17, 1701-1714
     DOI: 10.1021/acs.jctc.0c01306
   
   with help from (in alphabetical order)
   P. Atkinson, C. Bannwarth, F. Bohle, G. Brandenburg, E. Caldeweyher
   M. Checinski, S. Dohm, S. Ehlert, S. Ehrlich, I. Gerasimov, C. Hölzer
   A. Katbashev, J. Koopman, C. Lavigne, S. Lehtola, F. März, M. Müller,
   F. Musil, H. Neugebauer, J. Pisarek, C. Plett, P. Pracht, F. Pultar,
   J. Seibert, P. Shushkov, S. Spicher, M. Stahn, M. Steiner, T. Strunk,
   J. Stückrath, T. Rose, and J. Unsleber
   
 * started run on 2026/07/23 at 16:39:15.562     

           -------------------------------------------------
          |                Calculation Setup                |
           -------------------------------------------------

          program call               : xtb /home/selva/covalent_quantum_benchmark/data/quantum/erbB_xyz/EGFR__CHEMBL69964__state01.xyz --gfn2 --chrg 0 --uhf 0 --iterations 300
          coordinate file            : /home/selva/covalent_quantum_benchmark/data/quantum/erbB_xyz/EGFR__CHEMBL69964__state01.xyz
          omp threads                :                    24

   ID    Z sym.   atoms
    1    6 C      1-7, 10, 12, 14, 16-19, 21, 23, 24, 26, 27, 30, 31, 33-35
    2    8 O      8, 28
    3    7 N      9, 11, 13, 15, 25, 29, 32
    4    9 F      20
    5   17 Cl     22

           -------------------------------------------------
          |                 G F N 2 - x T B                 |
           -------------------------------------------------

        Reference                      10.1021/acs.jctc.8b01176
      * Hamiltonian:
        H0-scaling (s, p, d)           1.850000    2.230000    2.230000
        zeta-weighting                 0.500000
      * Dispersion:
        s8                             2.700000
        a1                             0.520000
        a2                             5.000000
        s9                             5.000000
      * Repulsion:
        kExp                           1.500000    1.000000
        rExp                           1.000000
      * Coulomb:
        alpha                          2.000000
        third order                    shell-resolved
        anisotropic                    true
        a3                             3.000000
        a5                             4.000000
        cn-shift                       1.200000
        cn-exp                         4.000000
        max-rad                        5.000000


          ...................................................
          :                      SETUP                      :
          :.................................................:
          :  # basis functions                 146          :
          :  # atomic orbitals                 145          :
          :  # shells                           71          :
          :  # electrons                       157          :
          :  max. iterations                   300          :
          :  Hamiltonian                  GFN2-xTB          :
          :  restarted?                      false          :
          :  GBSA solvation                  false          :
          :  PC potential                    false          :
          :  electronic temp.          300.0000000     K    :
          :  accuracy                    1.0000000          :
          :  -> integral cutoff          0.2500000E+02      :
          :  -> integral neglect         0.1000000E-07      :
          :  -> SCF convergence          0.1000000E-05 Eh   :
          :  -> wf. convergence          0.1000000E-03 e    :
          :  Broyden damping             0.4000000          :
          ...................................................

 iter      E             dE          RMSdq      gap      omega  full diag
   1    -87.8683381 -0.878683E+02  0.816E+00    0.07       0.0  T
   2    -77.1972183  0.106711E+02  0.110E+01    0.02       1.0  T
   3    -63.8251855  0.133720E+02  0.120E+01    0.58       1.0  T
   4    -69.0000425 -0.517486E+01  0.117E+01    0.22       1.0  T
   5    -80.8187384 -0.118187E+02  0.882E+00    0.14       1.0  T
   6    -86.7162133 -0.589747E+01  0.511E+00    0.05       1.0  T
   7    -87.6939149 -0.977702E+00  0.418E+00    0.06       1.0  T
   8    -87.4647549  0.229160E+00  0.438E+00    0.14       1.0  T
   9    -88.0442441 -0.579489E+00  0.341E+00    0.12       1.0  T
  10    -87.7632722  0.280972E+00  0.344E+00    0.06       1.0  T
  11    -88.0860037 -0.322731E+00  0.306E+00    0.08       1.0  T
  12    -88.2729252 -0.186922E+00  0.253E+00    0.15       1.0  T
  13    -88.3474866 -0.745614E-01  0.240E+00    0.07       1.0  T
  14    -88.3826162 -0.351296E-01  0.207E+00    0.08       1.0  T
  15    -88.3113991  0.712171E-01  0.225E+00    0.06       1.0  T
  16    -88.4939088 -0.182510E+00  0.166E+00    0.02       1.0  T
  17    -88.4904685  0.344026E-02  0.169E+00    0.03       1.0  T
  18    -88.4875752  0.289332E-02  0.169E+00    0.03       1.0  T
  19    -88.5201157 -0.325405E-01  0.150E+00    0.03       1.0  T
  20    -88.5636551 -0.435394E-01  0.115E+00    0.07       1.0  T
  21    -88.5820176 -0.183625E-01  0.112E+00    0.01       1.0  T
  22    -88.5361044  0.459132E-01  0.114E+00    0.08       1.0  T
  23    -88.5674624 -0.313580E-01  0.124E+00    0.04       1.0  T
  24    -88.6062188 -0.387564E-01  0.806E-01    0.04       1.0  T
  25    -88.6420146 -0.357958E-01  0.556E-01    0.02       1.0  T
  26    -88.6575327 -0.155180E-01  0.298E-01    0.02       1.0  T
  27    -88.6568130  0.719606E-03  0.323E-01    0.02       1.0  T
  28    -88.6418864  0.149266E-01  0.455E-01    0.01       1.0  T
  29    -88.6606816 -0.187952E-01  0.176E-01    0.02       1.0  T
  30    -88.6598830  0.798533E-03  0.193E-01    0.02       1.0  T
  31    -88.6606293 -0.746218E-03  0.159E-01    0.02       1.0  T
  32    -88.6622183 -0.158903E-02  0.679E-02    0.02       1.0  T
  33    -88.6615643  0.653947E-03  0.100E-01    0.02       1.0  T
  34    -88.6619803 -0.415997E-03  0.762E-02    0.02       1.0  T
  35    -88.6623461 -0.365798E-03  0.398E-02    0.02       1.0  T
  36    -88.6621679  0.178195E-03  0.583E-02    0.02       1.0  T
  37    -88.6624291 -0.261141E-03  0.169E-02    0.02       1.0  T
  38    -88.6623981  0.309574E-04  0.233E-02    0.02       1.0  T
  39    -88.6624365 -0.383335E-04  0.997E-03    0.02       1.7  T
  40    -88.6624380 -0.157412E-05  0.856E-03    0.02       2.0  T
  41    -88.6624401 -0.210253E-05  0.713E-03    0.02       2.4  T
  42    -88.6624372  0.296446E-05  0.902E-03    0.02       1.9  T
  43    -88.6624402 -0.307582E-05  0.694E-03    0.02       2.4  T
  44    -88.6624431 -0.285911E-05  0.322E-03    0.02       5.2  T
  45    -88.6624437 -0.547420E-06  0.164E-03    0.02      10.3  T
  46    -88.6624438 -0.147483E-06  0.625E-04    0.02      27.0  T
  47    -88.6624438 -0.223546E-07  0.293E-04    0.02      57.6  T

   *** convergence criteria satisfied after 47 iterations ***

         #    Occupation            Energy/Eh            Energy/eV
      -------------------------------------------------------------
         1        2.0000           -1.1055045             -30.0823
       ...           ...                  ...                  ...
        73        2.0000           -0.4460994             -12.1390
        74        2.0000           -0.4421162             -12.0306
        75        1.9997           -0.4400112             -11.9733
        76        1.9980           -0.4382458             -11.9253
        77        1.7092           -0.4333021             -11.7908
        78        1.5469           -0.4327576             -11.7759
        79        0.9608           -0.4314040             -11.7391 (HOMO)
        80        0.6512           -0.4307266             -11.7207 (LUMO)
        81        0.1342           -0.4288266             -11.6690
        82        0.0001           -0.4215876             -11.4720
        83        0.0000           -0.4163159             -11.3285
        84                         -0.4150965             -11.2954
       ...                                ...                  ...
       145                          0.6076342              16.5346
      -------------------------------------------------------------
                  HL-Gap            0.0006775 Eh            0.0184 eV
             Fermi-level           -0.4314863 Eh          -11.7413 eV

 SCC (total)                   0 d,  0 h,  0 min,  0.502 sec
 SCC setup                      ...        0 min,  0.000 sec (  0.051%)
 Dispersion                     ...        0 min,  0.004 sec (  0.812%)
 classical contributions        ...        0 min,  0.001 sec (  0.128%)
 integral evaluation            ...        0 min,  0.007 sec (  1.487%)
 iterations                     ...        0 min,  0.460 sec ( 91.651%)
 molecular gradient             ...        0 min,  0.023 sec (  4.642%)
 printout                       ...        0 min,  0.006 sec (  1.222%)

         :::::::::::::::::::::::::::::::::::::::::::::::::::::
         ::                     SUMMARY                     ::
         :::::::::::::::::::::::::::::::::::::::::::::::::::::
         :: total energy             -87.777405395353 Eh    ::
         :: gradient norm              0.472724267450 Eh/a0 ::
         :: HOMO-LUMO gap              0.018434968149 eV    ::
         ::.................................................::
         :: SCC energy               -88.662443824702 Eh    ::
         :: -> isotropic ES            0.046960207949 Eh    ::
         :: -> anisotropic ES          0.009344784439 Eh    ::
         :: -> anisotropic XC          0.043290900538 Eh    ::
         :: -> dispersion             -0.059363245675 Eh    ::
         :: repulsion energy           0.882763499056 Eh    ::
         :: add. restraining           0.000000000000 Eh    ::
         :: total charge              -0.000000000000 e     ::
         :::::::::::::::::::::::::::::::::::::::::::::::::::::

           -------------------------------------------------
          |                Property Printout                |
           -------------------------------------------------

    * Orbital Energies and Occupations

         #    Occupation            Energy/Eh            Energy/eV
      -------------------------------------------------------------
         1        2.0000           -1.1055045             -30.0823
       ...           ...                  ...                  ...
        67        2.0000           -0.4724971             -12.8573
        68        2.0000           -0.4718710             -12.8403
        69        2.0000           -0.4626934             -12.5905
        70        2.0000           -0.4559331             -12.4066
        71        2.0000           -0.4513388             -12.2816
        72        2.0000           -0.4479619             -12.1897
        73        2.0000           -0.4460994             -12.1390
        74        2.0000           -0.4421162             -12.0306
        75        1.9997           -0.4400112             -11.9733
        76        1.9980           -0.4382458             -11.9253
        77        1.7092           -0.4333021             -11.7908
        78        1.5469           -0.4327576             -11.7759
        79        0.9608           -0.4314040             -11.7391 (HOMO)
        80        0.6512           -0.4307266             -11.7207 (LUMO)
        81        0.1342           -0.4288266             -11.6690
        82        0.0001           -0.4215876             -11.4720
        83        0.0000           -0.4163159             -11.3285
        84                         -0.4150965             -11.2954
        85                         -0.3996323             -10.8745
        86                         -0.3951833             -10.7535
        87                         -0.3863509             -10.5131
        88                         -0.3833286             -10.4309
        89                         -0.3698208             -10.0633
        90                         -0.3484529              -9.4819
       ...                                ...                  ...
       145                          0.6076342              16.5346
      -------------------------------------------------------------
                  HL-Gap            0.0006775 Eh            0.0184 eV
             Fermi-level           -0.4314863 Eh          -11.7413 eV

     #   Z          covCN         q      C6AA      α(0)
     1   6 C        0.980    -0.062    37.834    10.331
     2   6 C        3.019     0.082    26.161     8.390
     3   6 C        2.185    -0.034    31.432     9.069
     4   6 C        3.200     0.125    24.752     8.108
     5   6 C        1.974     0.014    30.708     8.949
     6   6 C        2.969     0.015    27.668     8.628
     7   6 C        2.832     0.307    21.789     7.649
     8   8 O        0.856    -0.293    19.654     5.944
     9   7 N        1.872    -0.220    26.640     7.651
    10   6 C        3.047     0.197    23.771     7.996
    11   7 N        1.830    -0.132    24.643     7.356
    12   6 C        1.986     0.166    27.068     8.402
    13   7 N        1.839    -0.145    24.932     7.400
    14   6 C        2.896     0.189    23.963     8.026
    15   7 N        1.833    -0.135    24.711     7.367
    16   6 C        2.896     0.135    25.060     8.208
    17   6 C        1.993    -0.025    31.723     9.096
    18   6 C        1.987    -0.031    31.873     9.117
    19   6 C        2.806     0.196    23.822     7.996
    20   9 F        0.787    -0.148    10.712     3.866
    21   6 C        2.878     0.087    26.058     8.368
    22  17 Cl       0.962    -0.085   101.804    15.436
    23   6 C        2.029    -0.104    33.870     9.399
    24   6 C        3.025    -0.007    28.166     8.705
    25   7 N        1.871    -0.193    26.007     7.559
    26   6 C        3.316     0.126    23.368     7.705
    27   6 C        2.758     0.287    22.133     7.704
    28   8 O        0.858    -0.302    19.817     5.968
    29   7 N        2.726     0.034    20.650     6.749
    30   6 C        1.897    -0.015    31.519     9.067
    31   6 C        1.907    -0.023    31.722     9.096
    32   7 N        2.719     0.151    18.698     6.422
    33   6 C        0.928    -0.066    37.612    10.273
    34   6 C        1.908    -0.034    32.024     9.139
    35   6 C        1.889    -0.056    32.639     9.227

 Mol. C6AA /au·bohr⁶  :      33831.682023
 Mol. C8AA /au·bohr⁸  :     931653.899291
 Mol. α(0) /au        :        290.368501


Wiberg/Mayer (AO) data.
largest (>0.10) Wiberg bond orders for each atom

 ---------------------------------------------------------------------------
     #   Z sym  total        # sym  WBO       # sym  WBO       # sym  WBO
 ---------------------------------------------------------------------------
     1   6 C    2.296 --     2 C    1.589     3 C    0.332    25 N    0.128
                            26 C    0.110
     2   6 C    3.968 --     1 C    1.589     3 C    1.339    26 C    0.948
     3   6 C    3.209 --     2 C    1.339     4 C    1.158     1 C    0.332
     4   6 C    3.935 --     5 C    1.541     3 C    1.158    25 N    1.081
     5   6 C    3.773 --     6 C    1.561     4 C    1.541     9 N    0.112
                            26 C    0.104
     6   6 C    3.799 --     5 C    1.561    24 C    1.071     7 C    0.836
     7   6 C    3.935 --     8 O    1.748     9 N    1.216     6 C    0.836
     8   8 O    2.140 --     7 C    1.748     9 N    0.132
     9   7 N    3.061 --    10 C    1.266     7 C    1.216     8 O    0.132
                             5 C    0.112
    10   6 C    3.933 --     9 N    1.266    11 N    1.245    24 C    1.200
    11   7 N    3.163 --    12 C    1.590    10 C    1.245
    12   6 C    3.638 --    13 N    1.627    11 N    1.590    15 N    0.158
    13   7 N    3.179 --    12 C    1.627    14 C    1.199    15 N    0.105
    14   6 C    3.945 --    24 C    1.304    15 N    1.226    13 N    1.199
    15   7 N    3.071 --    16 C    1.268    14 C    1.226    12 C    0.158
                            13 N    0.105
    16   6 C    3.902 --    15 N    1.268    23 C    1.247    17 C    1.215
    17   6 C    3.612 --    18 C    1.774    16 C    1.215    23 C    0.337
    18   6 C    3.451 --    17 C    1.774    19 C    1.353    23 C    0.161
    19   6 C    3.781 --    18 C    1.353    21 C    1.245    20 F    1.011
    20   9 F    1.160 --    19 C    1.011
    21   6 C    3.897 --    23 C    1.469    19 C    1.245    22 Cl   1.000
    22  17 Cl   1.180 --    21 C    1.000
    23   6 C    3.416 --    21 C    1.469    16 C    1.247    17 C    0.337
                            18 C    0.161
    24   6 C    3.905 --    14 C    1.304    10 C    1.200     6 C    1.071
    25   7 N    3.082 --    26 C    1.658     4 C    1.081     1 C    0.128
    26   6 C    3.940 --    25 N    1.658    27 C    0.951     2 C    0.948
                             1 C    0.110     5 C    0.104
    27   6 C    3.933 --    28 O    1.771    29 N    1.093    26 C    0.951
    28   8 O    2.083 --    27 C    1.771    29 N    0.105
    29   7 N    3.587 --    30 C    1.118    35 C    1.115    27 C    1.093
                            28 O    0.105
    30   6 C    3.113 --    31 C    1.489    29 N    1.118    33 C    0.146
                            35 C    0.133    34 C    0.127
    31   6 C    3.114 --    30 C    1.489    32 N    0.985    33 C    0.276
                            34 C    0.168    35 C    0.121
Note: The following floating-point exceptions are signalling: IEEE_UNDERFLOW_FLAG IEEE_DENORMAL
normal termination of xtb
    32   7 N    3.631 --    33 C    1.535    34 C    0.985    31 C    0.985
    33   6 C    2.400 --    32 N    1.535    31 C    0.276    34 C    0.274
                            30 C    0.146    35 C    0.144
    34   6 C    3.102 --    35 C    1.472    32 N    0.985    33 C    0.274
                            31 C    0.168    30 C    0.127
    35   6 C    3.109 --    34 C    1.472    29 N    1.115    33 C    0.144
                            30 C    0.133    31 C    0.121
 ---------------------------------------------------------------------------

Topologies differ in total number of bonds
Writing topology from bond orders to xtbtopo.mol

molecular dipole:
                 x           y           z       tot (Debye)
 q only:        1.337      -0.444       0.894
   full:        1.218       0.006       1.402       4.719
molecular quadrupole (traceless):
                xx          xy          yy          xz          yz          zz
 q only:        3.181       3.080       9.426      -7.269      -5.701     -12.608
  q+dip:        3.758       6.736       8.621     -10.032      -1.979     -12.379
   full:        2.930       6.656       8.569      -7.299      -1.507     -11.498


           -------------------------------------------------
          | TOTAL ENERGY              -87.777405395353 Eh   |
          | GRADIENT NORM               0.472724267450 Eh/α |
          | HOMO-LUMO GAP               0.018434968149 eV   |
           -------------------------------------------------

------------------------------------------------------------------------
 * finished run on 2026/07/23 at 16:39:16.082     
------------------------------------------------------------------------
 total:
 * wall-time:     0 d,  0 h,  0 min,  0.519 sec
 *  cpu-time:     0 d,  0 h,  0 min,  0.527 sec
 * ratio c/w:     1.014 speedup
 SCF:
 * wall-time:     0 d,  0 h,  0 min,  0.503 sec
 *  cpu-time:     0 d,  0 h,  0 min,  0.508 sec
 * ratio c/w:     1.010 speedup

