      -----------------------------------------------------------      
     |                   =====================                   |     
     |                           x T B                           |     
     |                   =====================                   |     
     |                         S. Grimme                         |     
     |          Mulliken Center for Theoretical Chemistry        |     
     |                    University of Bonn                     |     
      -----------------------------------------------------------      

   * xtb version 6.6.1 (unknown) compiled by 'builduser@buildhost' on 2023-08-07

   xtb is free software: you can redistribute it and/or modify it under
   the terms of the GNU Lesser General Public License as published by
   the Free Software Foundation, either version 3 of the License, or
   (at your option) any later version.
   
   xtb is distributed in the hope that it will be useful,
   but WITHOUT ANY WARRANTY; without even the implied warranty of
   MERCHANTABILITY or FITNESS FOR A PARTICULAR PURPOSE.  See the
   GNU Lesser General Public License for more details.
   
   Cite this work as:
   * C. Bannwarth, E. Caldeweyher, S. Ehlert, A. Hansen, P. Pracht,
     J. Seibert, S. Spicher, S. Grimme, WIREs Comput. Mol. Sci., 2020, 11,
     e01493. DOI: 10.1002/wcms.1493
   
   for GFN2-xTB:
   * C. Bannwarth, S. Ehlert and S. Grimme., J. Chem. Theory Comput., 2019,
     15, 1652-1671. DOI: 10.1021/acs.jctc.8b01176
   for GFN1-xTB:
   * S. Grimme, C. Bannwarth, P. Shushkov, J. Chem. Theory Comput., 2017,
     13, 1989-2009. DOI: 10.1021/acs.jctc.7b00118
   for GFN0-xTB:
   * P. Pracht, E. Caldeweyher, S. Ehlert, S. Grimme, ChemRxiv, 2019, preprint.
     DOI: 10.26434/chemrxiv.8326202.v1
   for GFN-FF:
   * S. Spicher and S. Grimme, Angew. Chem. Int. Ed., 2020, 59, 15665-15673.
     DOI: 10.1002/anie.202004239
   
   for ALPB and GBSA implicit solvation:
   * S. Ehlert, M. Stahn, S. Spicher, S. Grimme, J. Chem. Theory Comput.,
     2021, 17, 4250-4261. DOI: 10.1021/acs.jctc.1c00471
   
   for DFT-D4:
   * E. Caldeweyher, C. Bannwarth and S. Grimme, J. Chem. Phys., 2017,
     147, 034112. DOI: 10.1063/1.4993215
   * E. Caldeweyher, S. Ehlert, A. Hansen, H. Neugebauer, S. Spicher,
     C. Bannwarth and S. Grimme, J. Chem. Phys., 2019, 150, 154122.
     DOI: 10.1063/1.5090222
   * E. Caldeweyher, J.-M. Mewes, S. Ehlert and S. Grimme, Phys. Chem. Chem. Phys.
     2020, 22, 8499-8512. DOI: 10.1039/D0CP00502A
   
   for sTDA-xTB:
   * S. Grimme and C. Bannwarth, J. Chem. Phys., 2016, 145, 054103.
     DOI: 10.1063/1.4959605
   
   in the mass-spec context:
   * V. Asgeirsson, C. Bauer and S. Grimme, Chem. Sci., 2017, 8, 4879.
     DOI: 10.1039/c7sc00601b
   * J. Koopman and S. Grimme, ACS Omega 2019, 4, 12, 15120-15133.
     DOI: 10.1021/acsomega.9b02011
   
   for metadynamics refer to:
   * S. Grimme, J. Chem. Theory Comput., 2019, 155, 2847-2862
     DOI: 10.1021/acs.jctc.9b00143
   
   for SPH calculations refer to:
   * S. Spicher and S. Grimme, J. Chem. Theory Comput., 2021, 17, 1701-1714
     DOI: 10.1021/acs.jctc.0c01306
   
   with help from (in alphabetical order)
   P. Atkinson, C. Bannwarth, F. Bohle, G. Brandenburg, E. Caldeweyher
   M. Checinski, S. Dohm, S. Ehlert, S. Ehrlich, I. Gerasimov, C. Hölzer
   A. Katbashev, J. Koopman, C. Lavigne, S. Lehtola, F. März, M. Müller,
   F. Musil, H. Neugebauer, J. Pisarek, C. Plett, P. Pracht, F. Pultar,
   J. Seibert, P. Shushkov, S. Spicher, M. Stahn, M. Steiner, T. Strunk,
   J. Stückrath, T. Rose, and J. Unsleber
   
 * started run on 2026/07/23 at 16:38:56.075     

           -------------------------------------------------
          |                Calculation Setup                |
           -------------------------------------------------

          program call               : xtb /home/selva/covalent_quantum_benchmark/data/quantum/erbB_xyz/EGFR__CHEMBL51659__state00.xyz --gfn2 --chrg 0 --uhf 0 --iterations 300
          coordinate file            : /home/selva/covalent_quantum_benchmark/data/quantum/erbB_xyz/EGFR__CHEMBL51659__state00.xyz
          omp threads                :                    24

   ID    Z sym.   atoms
    1    6 C      1-3, 6-9, 11-15, 17, 19, 21, 22
    2    8 O      4
    3    7 N      5, 10, 18, 20, 23
    4   35 Br     16

           -------------------------------------------------
          |                 G F N 2 - x T B                 |
           -------------------------------------------------

        Reference                      10.1021/acs.jctc.8b01176
      * Hamiltonian:
        H0-scaling (s, p, d)           1.850000    2.230000    2.230000
        zeta-weighting                 0.500000
      * Dispersion:
        s8                             2.700000
        a1                             0.520000
        a2                             5.000000
        s9                             5.000000
      * Repulsion:
        kExp                           1.500000    1.000000
        rExp                           1.000000
      * Coulomb:
        alpha                          2.000000
        third order                    shell-resolved
        anisotropic                    true
        a3                             3.000000
        a5                             4.000000
        cn-shift                       1.200000
        cn-exp                         4.000000
        max-rad                        5.000000


          ...................................................
          :                      SETUP                      :
          :.................................................:
          :  # basis functions                  98          :
          :  # atomic orbitals                  97          :
          :  # shells                           47          :
          :  # electrons                       102          :
          :  max. iterations                   300          :
          :  Hamiltonian                  GFN2-xTB          :
          :  restarted?                      false          :
          :  GBSA solvation                  false          :
          :  PC potential                    false          :
          :  electronic temp.          300.0000000     K    :
          :  accuracy                    1.0000000          :
          :  -> integral cutoff          0.2500000E+02      :
          :  -> integral neglect         0.1000000E-07      :
          :  -> SCF convergence          0.1000000E-05 Eh   :
          :  -> wf. convergence          0.1000000E-03 e    :
          :  Broyden damping             0.4000000          :
          ...................................................

 iter      E             dE          RMSdq      gap      omega  full diag
   1    -56.1512398 -0.561512E+02  0.815E+00    0.51       0.0  T
   2    -38.0132578  0.181380E+02  0.131E+01    0.80       1.0  T
   3    -45.9045956 -0.789134E+01  0.117E+01    0.16       1.0  T
   4    -54.5854994 -0.868090E+01  0.635E+00    0.05       1.0  T
   5    -53.2646781  0.132082E+01  0.708E+00    0.03       1.0  T
   6    -56.0127878 -0.274811E+01  0.446E+00    0.07       1.0  T
   7    -56.0541800 -0.413922E-01  0.371E+00    0.06       1.0  T
   8    -56.2269993 -0.172819E+00  0.321E+00    0.02       1.0  T
   9    -56.6587543 -0.431755E+00  0.216E+00    0.02       1.0  T
  10    -56.7686590 -0.109905E+00  0.197E+00    0.01       1.0  T
  11    -56.2553523  0.513307E+00  0.298E+00    0.08       1.0  T
  12    -56.7101373 -0.454785E+00  0.229E+00    0.03       1.0  T
  13    -56.6752734  0.348639E-01  0.266E+00    0.06       1.0  T
  14    -56.6596346  0.156388E-01  0.238E+00    0.12       1.0  T
  15    -56.5318223  0.127812E+00  0.223E+00    0.02       1.0  T
  16    -56.8203858 -0.288563E+00  0.609E-01    0.00       1.0  T
  17    -56.8304824 -0.100966E-01  0.404E-01    0.02       1.0  T
  18    -56.8197350  0.107474E-01  0.640E-01    0.00       1.0  T
  19    -56.8306163 -0.108813E-01  0.376E-01    0.02       1.0  T
  20    -56.8339942 -0.337791E-02  0.211E-01    0.02       1.0  T
  21    -56.8318299  0.216434E-02  0.249E-01    0.04       1.0  T
  22    -56.8258059  0.602393E-02  0.409E-01    0.05       1.0  T
  23    -56.8307342 -0.492826E-02  0.263E-01    0.04       1.0  T
  24    -56.8346708 -0.393657E-02  0.119E-01    0.03       1.0  T
  25    -56.8310641  0.360662E-02  0.304E-01    0.01       1.0  T
  26    -56.8333631 -0.229894E-02  0.202E-01    0.02       1.0  T
  27    -56.8351320 -0.176893E-02  0.941E-02    0.03       1.0  T
  28    -56.8348391  0.292888E-03  0.126E-01    0.03       1.0  T
  29    -56.8355006 -0.661504E-03  0.333E-02    0.03       1.0  T
  30    -56.8354976  0.307557E-05  0.358E-02    0.02       1.0  T
  31    -56.8353875  0.110092E-03  0.632E-02    0.02       1.0  T
  32    -56.8354868 -0.993534E-04  0.373E-02    0.02       1.0  T
  33    -56.8355364 -0.496044E-04  0.851E-03    0.03       2.4  T
  34    -56.8355236  0.127944E-04  0.179E-02    0.03       1.2  T
  35    -56.8355380 -0.143902E-04  0.679E-03    0.03       3.1  T
  36    -56.8355391 -0.111228E-05  0.418E-03    0.03       5.0  T
  37    -56.8355397 -0.615430E-06  0.176E-03    0.03      11.9  T
  38    -56.8355398 -0.104997E-06  0.732E-04    0.03      28.5  T
  39    -56.8355399 -0.101363E-07  0.409E-04    0.03      51.0  T

   *** convergence criteria satisfied after 39 iterations ***

         #    Occupation            Energy/Eh            Energy/eV
      -------------------------------------------------------------
         1        2.0000           -0.8679419             -23.6179
       ...           ...                  ...                  ...
        45        2.0000           -0.4426956             -12.0464
        46        2.0000           -0.4376784             -11.9098
        47        2.0000           -0.4354095             -11.8481
        48        1.9974           -0.4266362             -11.6094
        49        1.9779           -0.4246039             -11.5541
        50        1.9423           -0.4236732             -11.5287
        51        1.2796           -0.4208788             -11.4527 (HOMO)
        52        0.8028           -0.4199534             -11.4275 (LUMO)
        53        0.0000           -0.4097217             -11.1491
        54                         -0.3981099             -10.8331
        55                         -0.3734816             -10.1630
        56                         -0.3618032              -9.8452
       ...                                ...                  ...
        97                          0.6266249              17.0513
      -------------------------------------------------------------
                  HL-Gap            0.0009254 Eh            0.0252 eV
             Fermi-level           -0.4203330 Eh          -11.4378 eV

 SCC (total)                   0 d,  0 h,  0 min,  0.260 sec
 SCC setup                      ...        0 min,  0.000 sec (  0.117%)
 Dispersion                     ...        0 min,  0.001 sec (  0.281%)
 classical contributions        ...        0 min,  0.002 sec (  0.820%)
 integral evaluation            ...        0 min,  0.004 sec (  1.490%)
 iterations                     ...        0 min,  0.242 sec ( 93.072%)
 molecular gradient             ...        0 min,  0.010 sec (  3.970%)
 printout                       ...        0 min,  0.001 sec (  0.236%)

         :::::::::::::::::::::::::::::::::::::::::::::::::::::
         ::                     SUMMARY                     ::
         :::::::::::::::::::::::::::::::::::::::::::::::::::::
         :: total energy             -56.163197170042 Eh    ::
         :: gradient norm              0.416701564150 Eh/a0 ::
         :: HOMO-LUMO gap              0.025181485205 eV    ::
         ::.................................................::
         :: SCC energy               -56.835539858587 Eh    ::
         :: -> isotropic ES            0.050173944505 Eh    ::
         :: -> anisotropic ES          0.009300070564 Eh    ::
         :: -> anisotropic XC          0.031362432728 Eh    ::
         :: -> dispersion             -0.031117860684 Eh    ::
         :: repulsion energy           0.672613920413 Eh    ::
         :: add. restraining           0.000000000000 Eh    ::
         :: total charge               0.000000000006 e     ::
         :::::::::::::::::::::::::::::::::::::::::::::::::::::

           -------------------------------------------------
          |                Property Printout                |
           -------------------------------------------------

    * Orbital Energies and Occupations

         #    Occupation            Energy/Eh            Energy/eV
      -------------------------------------------------------------
         1        2.0000           -0.8679419             -23.6179
       ...           ...                  ...                  ...
        39        2.0000           -0.4787251             -13.0268
        40        2.0000           -0.4755141             -12.9394
        41        2.0000           -0.4587510             -12.4833
        42        2.0000           -0.4578305             -12.4582
        43        2.0000           -0.4551406             -12.3850
        44        2.0000           -0.4457728             -12.1301
        45        2.0000           -0.4426956             -12.0464
        46        2.0000           -0.4376784             -11.9098
        47        2.0000           -0.4354095             -11.8481
        48        1.9974           -0.4266362             -11.6094
        49        1.9779           -0.4246039             -11.5541
        50        1.9423           -0.4236732             -11.5287
        51        1.2796           -0.4208788             -11.4527 (HOMO)
        52        0.8028           -0.4199534             -11.4275 (LUMO)
        53        0.0000           -0.4097217             -11.1491
        54                         -0.3981099             -10.8331
        55                         -0.3734816             -10.1630
        56                         -0.3618032              -9.8452
        57                         -0.3515374              -9.5658
        58                         -0.3247173              -8.8360
        59                         -0.3059619              -8.3256
        60                         -0.2964516              -8.0669
        61                         -0.2950689              -8.0292
        62                         -0.2849617              -7.7542
       ...                                ...                  ...
        97                          0.6266249              17.0513
      -------------------------------------------------------------
                  HL-Gap            0.0009254 Eh            0.0252 eV
             Fermi-level           -0.4203330 Eh          -11.4378 eV

     #   Z          covCN         q      C6AA      α(0)
     1   6 C        0.988    -0.036    37.052    10.227
     2   6 C        1.968     0.010    30.800     8.962
     3   6 C        2.755     0.331    21.382     7.572
     4   8 O        0.857    -0.346    20.634     6.090
     5   7 N        1.844    -0.203    26.228     7.590
     6   6 C        2.868     0.198    23.799     7.997
     7   6 C        1.985    -0.049    32.375     9.189
     8   6 C        2.996     0.024    27.464     8.597
     9   6 C        2.889     0.196    23.831     8.003
    10   7 N        1.830    -0.163    25.331     7.458
    11   6 C        2.891     0.135    25.060     8.207
    12   6 C        1.991     0.009    30.821     8.966
    13   6 C        1.986    -0.022    31.624     9.082
    14   6 C        2.062     0.016    30.542     8.927
    15   6 C        2.905     0.113    25.499     8.280
    16  35 Br       1.068    -0.056   186.562    22.023
    17   6 C        2.066    -0.062    32.610     9.224
    18   7 N        1.832    -0.169    25.463     7.478
    19   6 C        1.954     0.157    27.275     8.434
    20   7 N        1.838    -0.138    24.778     7.377
    21   6 C        2.982     0.131    25.130     8.223
    22   6 C        1.980     0.011    30.765     8.957
    23   7 N        1.843    -0.087    23.687     7.213

 Mol. C6AA /au·bohr⁶  :      16457.442952
 Mol. C8AA /au·bohr⁸  :     495693.659516
 Mol. α(0) /au        :        204.075855


Wiberg/Mayer (AO) data.
largest (>0.10) Wiberg bond orders for each atom

 ---------------------------------------------------------------------------
Note: The following floating-point exceptions are signalling: IEEE_UNDERFLOW_FLAG IEEE_DENORMAL
normal termination of xtb
     #   Z sym  total        # sym  WBO       # sym  WBO       # sym  WBO
 ---------------------------------------------------------------------------
     1   6 C    2.899 --     2 C    2.593     4 O    0.134
     2   6 C    3.578 --     1 C    2.593     3 C    0.895
     3   6 C    3.909 --     4 O    1.690     5 N    1.217     2 C    0.895
     4   8 O    2.049 --     3 C    1.690     1 C    0.134
     5   7 N    2.868 --     6 C    1.236     3 C    1.217
     6   6 C    3.923 --     7 C    1.323     5 N    1.236    23 N    1.197
     7   6 C    3.658 --     8 C    1.431     6 C    1.323    22 C    0.420
     8   6 C    3.967 --     7 C    1.431    21 C    1.131     9 C    1.130
     9   6 C    3.953 --    10 N    1.373    18 N    1.216     8 C    1.130
    10   7 N    3.202 --     9 C    1.373    11 C    1.177    19 C    0.193
    11   6 C    3.946 --    17 C    1.316    12 C    1.283    10 N    1.177
    12   6 C    3.722 --    13 C    1.624    11 C    1.283    14 C    0.397
                            17 C    0.158
    13   6 C    3.735 --    12 C    1.624    14 C    1.619    17 C    0.376
    14   6 C    3.707 --    13 C    1.619    15 C    1.360    12 C    0.397
                            17 C    0.152
    15   6 C    3.930 --    17 C    1.427    14 C    1.360    16 Br   0.996
    16  35 Br   1.200 --    15 C    0.996
    17   6 C    3.546 --    15 C    1.427    11 C    1.316    13 C    0.376
                            12 C    0.158    14 C    0.152
    18   7 N    3.148 --    19 C    1.595     9 C    1.216
    19   6 C    3.717 --    20 N    1.600    18 N    1.595    10 N    0.193
    20   7 N    3.163 --    19 C    1.600    21 C    1.225
    21   6 C    3.882 --    22 C    1.287    20 N    1.225     8 C    1.131
    22   6 C    3.687 --    23 N    1.728    21 C    1.287     7 C    0.420
    23   7 N    3.321 --    22 C    1.728     6 C    1.197
 ---------------------------------------------------------------------------

Topologies differ in total number of bonds
Writing topology from bond orders to xtbtopo.mol

molecular dipole:
                 x           y           z       tot (Debye)
 q only:        0.778      -1.076      -0.891
   full:        1.119      -1.804      -1.167       6.157
molecular quadrupole (traceless):
                xx          xy          yy          xz          yz          zz
 q only:        0.404       3.171      -5.924       1.190      -1.462       5.520
  q+dip:        5.832       3.756     -11.684      -1.717       9.435       5.852
   full:        9.892       7.933     -11.993      -0.845      10.212       2.101


           -------------------------------------------------
          | TOTAL ENERGY              -56.163197170042 Eh   |
          | GRADIENT NORM               0.416701564150 Eh/α |
          | HOMO-LUMO GAP               0.025181485205 eV   |
           -------------------------------------------------

------------------------------------------------------------------------
 * finished run on 2026/07/23 at 16:38:56.349     
------------------------------------------------------------------------
 total:
 * wall-time:     0 d,  0 h,  0 min,  0.273 sec
 *  cpu-time:     0 d,  0 h,  0 min,  0.235 sec
 * ratio c/w:     0.861 speedup
 SCF:
 * wall-time:     0 d,  0 h,  0 min,  0.260 sec
 *  cpu-time:     0 d,  0 h,  0 min,  0.223 sec
 * ratio c/w:     0.856 speedup

