      -----------------------------------------------------------      
     |                   =====================                   |     
     |                           x T B                           |     
     |                   =====================                   |     
     |                         S. Grimme                         |     
     |          Mulliken Center for Theoretical Chemistry        |     
     |                    University of Bonn                     |     
      -----------------------------------------------------------      

   * xtb version 6.6.1 (unknown) compiled by 'builduser@buildhost' on 2023-08-07

   xtb is free software: you can redistribute it and/or modify it under
   the terms of the GNU Lesser General Public License as published by
   the Free Software Foundation, either version 3 of the License, or
   (at your option) any later version.
   
   xtb is distributed in the hope that it will be useful,
   but WITHOUT ANY WARRANTY; without even the implied warranty of
   MERCHANTABILITY or FITNESS FOR A PARTICULAR PURPOSE.  See the
   GNU Lesser General Public License for more details.
   
   Cite this work as:
   * C. Bannwarth, E. Caldeweyher, S. Ehlert, A. Hansen, P. Pracht,
     J. Seibert, S. Spicher, S. Grimme, WIREs Comput. Mol. Sci., 2020, 11,
     e01493. DOI: 10.1002/wcms.1493
   
   for GFN2-xTB:
   * C. Bannwarth, S. Ehlert and S. Grimme., J. Chem. Theory Comput., 2019,
     15, 1652-1671. DOI: 10.1021/acs.jctc.8b01176
   for GFN1-xTB:
   * S. Grimme, C. Bannwarth, P. Shushkov, J. Chem. Theory Comput., 2017,
     13, 1989-2009. DOI: 10.1021/acs.jctc.7b00118
   for GFN0-xTB:
   * P. Pracht, E. Caldeweyher, S. Ehlert, S. Grimme, ChemRxiv, 2019, preprint.
     DOI: 10.26434/chemrxiv.8326202.v1
   for GFN-FF:
   * S. Spicher and S. Grimme, Angew. Chem. Int. Ed., 2020, 59, 15665-15673.
     DOI: 10.1002/anie.202004239
   
   for ALPB and GBSA implicit solvation:
   * S. Ehlert, M. Stahn, S. Spicher, S. Grimme, J. Chem. Theory Comput.,
     2021, 17, 4250-4261. DOI: 10.1021/acs.jctc.1c00471
   
   for DFT-D4:
   * E. Caldeweyher, C. Bannwarth and S. Grimme, J. Chem. Phys., 2017,
     147, 034112. DOI: 10.1063/1.4993215
   * E. Caldeweyher, S. Ehlert, A. Hansen, H. Neugebauer, S. Spicher,
     C. Bannwarth and S. Grimme, J. Chem. Phys., 2019, 150, 154122.
     DOI: 10.1063/1.5090222
   * E. Caldeweyher, J.-M. Mewes, S. Ehlert and S. Grimme, Phys. Chem. Chem. Phys.
     2020, 22, 8499-8512. DOI: 10.1039/D0CP00502A
   
   for sTDA-xTB:
   * S. Grimme and C. Bannwarth, J. Chem. Phys., 2016, 145, 054103.
     DOI: 10.1063/1.4959605
   
   in the mass-spec context:
   * V. Asgeirsson, C. Bauer and S. Grimme, Chem. Sci., 2017, 8, 4879.
     DOI: 10.1039/c7sc00601b
   * J. Koopman and S. Grimme, ACS Omega 2019, 4, 12, 15120-15133.
     DOI: 10.1021/acsomega.9b02011
   
   for metadynamics refer to:
   * S. Grimme, J. Chem. Theory Comput., 2019, 155, 2847-2862
     DOI: 10.1021/acs.jctc.9b00143
   
   for SPH calculations refer to:
   * S. Spicher and S. Grimme, J. Chem. Theory Comput., 2021, 17, 1701-1714
     DOI: 10.1021/acs.jctc.0c01306
   
   with help from (in alphabetical order)
   P. Atkinson, C. Bannwarth, F. Bohle, G. Brandenburg, E. Caldeweyher
   M. Checinski, S. Dohm, S. Ehlert, S. Ehrlich, I. Gerasimov, C. Hölzer
   A. Katbashev, J. Koopman, C. Lavigne, S. Lehtola, F. März, M. Müller,
   F. Musil, H. Neugebauer, J. Pisarek, C. Plett, P. Pracht, F. Pultar,
   J. Seibert, P. Shushkov, S. Spicher, M. Stahn, M. Steiner, T. Strunk,
   J. Stückrath, T. Rose, and J. Unsleber
   
 * started run on 2026/07/23 at 16:42:22.192     

           -------------------------------------------------
          |                Calculation Setup                |
           -------------------------------------------------

          program call               : xtb /home/selva/covalent_quantum_benchmark/data/quantum/erbB_xyz/ERBB2__CHEMBL361343__state00.xyz --gfn2 --chrg 0 --uhf 0 --iterations 300
          coordinate file            : /home/selva/covalent_quantum_benchmark/data/quantum/erbB_xyz/ERBB2__CHEMBL361343__state00.xyz
          omp threads                :                    24

   ID    Z sym.   atoms
    1    6 C      1, 2, 4-6, 8-10, 12, 14-17, 19-26, 28-31, 33, 35-37, 39-41
    2    8 O      3, 18, 34, 42
    3    7 N      7, 11, 13, 32, 38
    4   17 Cl     27

           -------------------------------------------------
          |                 G F N 2 - x T B                 |
           -------------------------------------------------

        Reference                      10.1021/acs.jctc.8b01176
      * Hamiltonian:
        H0-scaling (s, p, d)           1.850000    2.230000    2.230000
        zeta-weighting                 0.500000
      * Dispersion:
        s8                             2.700000
        a1                             0.520000
        a2                             5.000000
        s9                             5.000000
      * Repulsion:
        kExp                           1.500000    1.000000
        rExp                           1.000000
      * Coulomb:
        alpha                          2.000000
        third order                    shell-resolved
        anisotropic                    true
        a3                             3.000000
        a5                             4.000000
        cn-shift                       1.200000
        cn-exp                         4.000000
        max-rad                        5.000000


          ...................................................
          :                      SETUP                      :
          :.................................................:
          :  # basis functions                 174          :
          :  # atomic orbitals                 173          :
          :  # shells                           85          :
          :  # electrons                       184          :
          :  max. iterations                   300          :
          :  Hamiltonian                  GFN2-xTB          :
          :  restarted?                      false          :
          :  GBSA solvation                  false          :
          :  PC potential                    false          :
          :  electronic temp.          300.0000000     K    :
          :  accuracy                    1.0000000          :
          :  -> integral cutoff          0.2500000E+02      :
          :  -> integral neglect         0.1000000E-07      :
          :  -> SCF convergence          0.1000000E-05 Eh   :
          :  -> wf. convergence          0.1000000E-03 e    :
          :  Broyden damping             0.4000000          :
          ...................................................

 iter      E             dE          RMSdq      gap      omega  full diag
   1   -102.2451888 -0.102245E+03  0.836E+00    0.04       0.0  T
   2    -85.2950730  0.169501E+02  0.109E+01    0.02       1.0  T
   3    -52.6407064  0.326544E+02  0.140E+01    0.06       1.0  T
   4    -69.3881506 -0.167474E+02  0.124E+01    0.17       1.0  T
   5    -96.5605929 -0.271724E+02  0.762E+00    0.04       1.0  T
   6    -93.7824770  0.277812E+01  0.765E+00    0.13       1.0  T
   7    -99.8898577 -0.610738E+01  0.545E+00    0.05       1.0  T
   8    -99.9837086 -0.938509E-01  0.528E+00    0.18       1.0  T
   9   -101.5137040 -0.153000E+01  0.410E+00    0.09       1.0  T
  10   -102.2174372 -0.703733E+00  0.365E+00    0.10       1.0  T
  11   -101.9706252  0.246812E+00  0.351E+00    0.37       1.0  T
  12   -102.0866370 -0.116012E+00  0.320E+00    0.16       1.0  T
  13   -102.1519574 -0.653205E-01  0.313E+00    0.13       1.0  T
  14   -102.4566991 -0.304742E+00  0.282E+00    0.04       1.0  T
  15   -102.6365170 -0.179818E+00  0.250E+00    0.09       1.0  T
  16   -102.7188629 -0.823459E-01  0.223E+00    0.10       1.0  T
  17   -102.7111869  0.767602E-02  0.218E+00    0.02       1.0  T
  18   -102.8145797 -0.103393E+00  0.176E+00    0.12       1.0  T
  19   -102.5145809  0.299999E+00  0.214E+00    0.00       1.0  T
  20   -102.8823084 -0.367728E+00  0.141E+00    0.07       1.0  T
  21   -102.6688262  0.213482E+00  0.175E+00    0.03       1.0  T
  22   -102.7344437 -0.656175E-01  0.167E+00    0.03       1.0  T
  23   -102.9024813 -0.168038E+00  0.113E+00    0.06       1.0  T
  24   -102.9385417 -0.360603E-01  0.870E-01    0.05       1.0  T
  25   -102.9402523 -0.171063E-02  0.705E-01    0.05       1.0  T
  26   -102.9611600 -0.209077E-01  0.511E-01    0.04       1.0  T
  27   -102.9607968  0.363271E-03  0.520E-01    0.03       1.0  T
  28   -102.9221894  0.386074E-01  0.657E-01    0.04       1.0  T
  29   -102.9544424 -0.322530E-01  0.503E-01    0.03       1.0  T
  30   -102.9568866 -0.244421E-02  0.464E-01    0.03       1.0  T
  31   -102.9656233 -0.873674E-02  0.258E-01    0.05       1.0  T
  32   -102.9666837 -0.106043E-02  0.239E-01    0.05       1.0  T
  33   -102.9670109 -0.327168E-03  0.229E-01    0.05       1.0  T
  34   -102.9666939  0.317023E-03  0.268E-01    0.04       1.0  T
  35   -102.9706188 -0.392495E-02  0.183E-01    0.04       1.0  T
  36   -102.9718129 -0.119404E-02  0.131E-01    0.04       1.0  T
  37   -102.9720249 -0.212047E-03  0.120E-01    0.04       1.0  T
  38   -102.9709622  0.106274E-02  0.154E-01    0.04       1.0  T
  39   -102.9732811 -0.231892E-02  0.275E-02    0.05       1.0  T
  40   -102.9732649  0.161772E-04  0.274E-02    0.05       1.0  T
  41   -102.9731526  0.112289E-03  0.454E-02    0.05       1.0  T
  42   -102.9732041 -0.514833E-04  0.393E-02    0.05       1.0  T
  43   -102.9731758  0.283282E-04  0.397E-02    0.05       1.0  T
  44   -102.9732654 -0.896167E-04  0.254E-02    0.05       1.0  T
  45   -102.9733186 -0.531936E-04  0.990E-03    0.05       1.6  T
  46   -102.9733273 -0.873154E-05  0.330E-03    0.05       4.7  T
  47   -102.9733275 -0.224397E-06  0.328E-03    0.05       4.7  T
  48   -102.9733274  0.114663E-06  0.257E-03    0.05       6.0  T
  49   -102.9733269  0.482178E-06  0.325E-03    0.05       4.7  T
  50   -102.9733280 -0.109512E-05  0.115E-03    0.05      13.4  T
  51   -102.9733281 -0.701077E-07  0.882E-04    0.05      17.5  T
  52   -102.9733281 -0.210970E-07  0.741E-04    0.05      20.8  T

   *** convergence criteria satisfied after 52 iterations ***

         #    Occupation            Energy/Eh            Energy/eV
      -------------------------------------------------------------
         1        2.0000           -1.0900912             -29.6629
       ...           ...                  ...                  ...
        86        1.9999           -0.4286920             -11.6653
        87        1.9989           -0.4259427             -11.5905
        88        1.9838           -0.4233779             -11.5207
        89        1.9252           -0.4218935             -11.4803
        90        1.8914           -0.4215219             -11.4702
        91        1.7075           -0.4204837             -11.4419
        92        1.5571           -0.4200019             -11.4288 (HOMO)
        93        0.7430           -0.4183081             -11.3827 (LUMO)
        94        0.1895           -0.4166635             -11.3380
        95        0.0036           -0.4128127             -11.2332
        96        0.0000           -0.4036993             -10.9852
        97                         -0.4006478             -10.9022
       ...                                ...                  ...
       173                          1.0490417              28.5459
      -------------------------------------------------------------
                  HL-Gap            0.0016938 Eh            0.0461 eV
             Fermi-level           -0.4188076 Eh          -11.3963 eV

 SCC (total)                   0 d,  0 h,  0 min,  1.068 sec
 SCC setup                      ...        0 min,  0.000 sec (  0.034%)
 Dispersion                     ...        0 min,  0.004 sec (  0.384%)
 classical contributions        ...        0 min,  0.001 sec (  0.119%)
 integral evaluation            ...        0 min,  0.012 sec (  1.167%)
 iterations                     ...        0 min,  1.009 sec ( 94.460%)
 molecular gradient             ...        0 min,  0.037 sec (  3.452%)
 printout                       ...        0 min,  0.004 sec (  0.380%)

         :::::::::::::::::::::::::::::::::::::::::::::::::::::
         ::                     SUMMARY                     ::
         :::::::::::::::::::::::::::::::::::::::::::::::::::::
         :: total energy            -101.853924399068 Eh    ::
         :: gradient norm              0.623771336023 Eh/a0 ::
         :: HOMO-LUMO gap              0.046090862705 eV    ::
         ::.................................................::
         :: SCC energy              -102.973328130621 Eh    ::
         :: -> isotropic ES            0.041749094381 Eh    ::
         :: -> anisotropic ES          0.005215898766 Eh    ::
         :: -> anisotropic XC          0.064342567311 Eh    ::
         :: -> dispersion             -0.059207783275 Eh    ::
         :: repulsion energy           1.119131442295 Eh    ::
         :: add. restraining           0.000000000000 Eh    ::
         :: total charge               0.000000000042 e     ::
         :::::::::::::::::::::::::::::::::::::::::::::::::::::

           -------------------------------------------------
          |                Property Printout                |
           -------------------------------------------------

    * Orbital Energies and Occupations

         #    Occupation            Energy/Eh            Energy/eV
      -------------------------------------------------------------
         1        2.0000           -1.0900912             -29.6629
       ...           ...                  ...                  ...
        80        2.0000           -0.4517675             -12.2932
        81        2.0000           -0.4466363             -12.1536
        82        2.0000           -0.4411938             -12.0055
        83        2.0000           -0.4376192             -11.9082
        84        2.0000           -0.4361289             -11.8677
        85        2.0000           -0.4328607             -11.7787
        86        1.9999           -0.4286920             -11.6653
        87        1.9989           -0.4259427             -11.5905
        88        1.9838           -0.4233779             -11.5207
        89        1.9252           -0.4218935             -11.4803
        90        1.8914           -0.4215219             -11.4702
        91        1.7075           -0.4204837             -11.4419
        92        1.5571           -0.4200019             -11.4288 (HOMO)
        93        0.7430           -0.4183081             -11.3827 (LUMO)
        94        0.1895           -0.4166635             -11.3380
        95        0.0036           -0.4128127             -11.2332
        96        0.0000           -0.4036993             -10.9852
        97                         -0.4006478             -10.9022
        98                         -0.3929790             -10.6935
        99                         -0.3891335             -10.5889
       100                         -0.3839228             -10.4471
       101                         -0.3703638             -10.0781
       102                         -0.3678658             -10.0101
       103                         -0.3599167              -9.7938
       ...                                ...                  ...
       173                          1.0490417              28.5459
      -------------------------------------------------------------
                  HL-Gap            0.0016938 Eh            0.0461 eV
             Fermi-level           -0.4188076 Eh          -11.3963 eV

     #   Z          covCN         q      C6AA      α(0)
     1   6 C        0.976    -0.094    38.857    10.467
     2   6 C        1.837     0.101    28.640     8.646
     3   8 O        1.703    -0.093    15.733     5.355
     4   6 C        2.856     0.164    24.454     8.105
     5   6 C        2.002    -0.089    33.473     9.343
     6   6 C        2.951     0.121    25.343     8.257
     7   7 N        1.845    -0.112    24.206     7.291
     8   6 C        1.970     0.065    29.434     8.761
     9   6 C        2.958     0.034    27.248     8.562
    10   6 C        1.907     0.122    28.099     8.561
    11   7 N        0.911    -0.178    24.856     7.211
    12   6 C        2.910     0.131    25.133     8.221
    13   7 N        1.827    -0.142    24.863     7.389
    14   6 C        2.891     0.145    24.847     8.172
    15   6 C        1.990    -0.061    32.707     9.236
    16   6 C        1.986    -0.067    32.876     9.260
    17   6 C        2.886     0.176    24.215     8.068
    18   8 O        1.702    -0.133    16.310     5.453
    19   6 C        1.851     0.052    29.833     8.823
    20   6 C        2.958     0.075    26.328     8.416
    21   6 C        1.989    -0.029    31.816     9.109
    22   6 C        1.985    -0.007    31.238     9.026
    23   6 C        1.987     0.036    30.120     8.863
    24   6 C        1.985    -0.006    31.201     9.021
    25   6 C        1.990    -0.020    31.570     9.074
    26   6 C        2.877     0.093    25.936     8.349
    27  17 Cl       0.959    -0.058   100.959    15.372
    28   6 C        2.033    -0.060    32.634     9.226
    29   6 C        2.978     0.022    27.508     8.603
    30   6 C        1.990    -0.051    32.418     9.195
    31   6 C        2.895     0.115    25.459     8.273
    32   7 N        1.836    -0.226    26.775     7.668
    33   6 C        2.753     0.322    21.526     7.597
    34   8 O        0.857    -0.347    20.645     6.092
    35   6 C        1.971     0.001    31.030     8.996
    36   6 C        1.965     0.042    29.991     8.844
    37   6 C        1.911    -0.026    31.785     9.105
    38   7 N        2.719     0.157    18.593     6.404
    39   6 C        0.930    -0.082    38.125    10.344
    40   6 C        1.902    -0.013    31.468     9.060
    41   6 C        1.823     0.165    27.190     8.425
    42   8 O        0.849    -0.248    18.874     5.824

 Mol. C6AA /au·bohr⁶  :      50300.057180
 Mol. C8AA /au·bohr⁸  :    1405799.867750
 Mol. α(0) /au        :        356.067128


Wiberg/Mayer (AO) data.
largest (>0.10) Wiberg bond orders for each atom

 ---------------------------------------------------------------------------
     #   Z sym  total        # sym  WBO       # sym  WBO       # sym  WBO
 ---------------------------------------------------------------------------
     1   6 C    2.476 --     2 C    2.168     3 O    0.115
     2   6 C    3.489 --     1 C    2.168     3 O    1.129
     3   8 O    2.476 --     2 C    1.129     4 C    1.107     1 C    0.115
     4   6 C    3.897 --     5 C    1.466     3 O    1.107    31 C    1.055
     5   6 C    3.689 --     4 C    1.466     6 C    1.396    30 C    0.513
     6   6 C    3.917 --     5 C    1.396     7 N    1.240    29 C    1.061
     7   7 N    3.265 --     8 C    1.672     6 C    1.240
     8   6 C    3.526 --     7 N    1.672     9 C    1.375    13 N    0.169
     9   6 C    3.929 --     8 C    1.375    12 C    1.237    10 C    1.082
    10   6 C    3.944 --    11 N    2.815     9 C    1.082
    11   7 N    2.996 --    10 C    2.815
    12   6 C    3.945 --    13 N    1.244     9 C    1.237    29 C    1.185
    13   7 N    3.116 --    14 C    1.289    12 C    1.244     8 C    0.169
    14   6 C    3.900 --    13 N    1.289    28 C    1.256    15 C    1.188
    15   6 C    3.639 --    16 C    1.779    14 C    1.188    28 C    0.325
    16   6 C    3.470 --    15 C    1.779    17 C    1.301    28 C    0.158
    17   6 C    3.839 --    16 C    1.301    26 C    1.189    18 O    1.072
    18   8 O    2.400 --    19 C    1.111    17 C    1.072
    19   6 C    2.929 --    20 C    1.204    18 O    1.111
    20   6 C    3.900 --    25 C    1.254    21 C    1.253    19 C    1.204
    21   6 C    3.490 --    22 C    1.610    20 C    1.253    24 C    0.256
                            23 C    0.190
    22   6 C    3.638 --    21 C    1.610    23 C    1.578    25 C    0.228
    23   6 C    3.755 --    24 C    1.602    22 C    1.578    25 C    0.198
                            21 C    0.190
    24   6 C    3.619 --    25 C    1.627    23 C    1.602    21 C    0.256
    25   6 C    3.509 --    24 C    1.627    20 C    1.254    22 C    0.228
                            23 C    0.198
    26   6 C    3.882 --    28 C    1.505    17 C    1.189    27 Cl   1.012
    27  17 Cl   1.194 --    26 C    1.012
Note: The following floating-point exceptions are signalling: IEEE_UNDERFLOW_FLAG IEEE_DENORMAL
normal termination of xtb
    28   6 C    3.463 --    26 C    1.505    14 C    1.256    15 C    0.325
                            16 C    0.158
    29   6 C    3.945 --    30 C    1.447    12 C    1.185     6 C    1.061
    30   6 C    3.724 --    29 C    1.447    31 C    1.385     5 C    0.513
    31   6 C    3.938 --    30 C    1.385    32 N    1.289     4 C    1.055
    32   7 N    2.993 --    31 C    1.289    33 C    1.196    34 O    0.110
    33   6 C    3.921 --    34 O    1.654    32 N    1.196    35 C    0.986
    34   8 O    2.017 --    33 C    1.654    32 N    0.110
    35   6 C    3.786 --    36 C    2.403    33 C    0.986    37 C    0.103
    36   6 C    3.849 --    35 C    2.403    37 C    1.244
    37   6 C    3.069 --    36 C    1.244    38 N    1.055    39 C    0.409
                            35 C    0.103
    38   7 N    3.680 --    39 C    1.399    40 C    1.111    37 C    1.055
    39   6 C    2.503 --    38 N    1.399    37 C    0.409    40 C    0.318
                            41 C    0.135    42 O    0.133
    40   6 C    3.103 --    41 C    1.425    38 N    1.111    39 C    0.318
                            42 O    0.122
    41   6 C    3.583 --    42 O    1.887    40 C    1.425    39 C    0.135
    42   8 O    2.255 --    41 C    1.887    39 C    0.133    40 C    0.122
 ---------------------------------------------------------------------------

Topologies differ in total number of bonds
Writing topology from bond orders to xtbtopo.mol

molecular dipole:
                 x           y           z       tot (Debye)
 q only:       -0.682      -1.242       0.108
   full:       -0.308      -1.498       0.590       4.167
molecular quadrupole (traceless):
                xx          xy          yy          xz          yz          zz
 q only:       13.447       0.451      -0.618      -1.498     -17.584     -12.829
  q+dip:        5.818      -4.328      -0.053      -8.488     -19.071      -5.764
   full:        4.577      -3.137       1.927     -10.743     -23.186      -6.504


           -------------------------------------------------
          | TOTAL ENERGY             -101.853924399068 Eh   |
          | GRADIENT NORM               0.623771336023 Eh/α |
          | HOMO-LUMO GAP               0.046090862705 eV   |
           -------------------------------------------------

------------------------------------------------------------------------
 * finished run on 2026/07/23 at 16:42:23.285     
------------------------------------------------------------------------
 total:
 * wall-time:     0 d,  0 h,  0 min,  1.093 sec
 *  cpu-time:     0 d,  0 h,  0 min,  1.032 sec
 * ratio c/w:     0.944 speedup
 SCF:
 * wall-time:     0 d,  0 h,  0 min,  1.069 sec
 *  cpu-time:     0 d,  0 h,  0 min,  1.001 sec
 * ratio c/w:     0.937 speedup

