      -----------------------------------------------------------      
     |                   =====================                   |     
     |                           x T B                           |     
     |                   =====================                   |     
     |                         S. Grimme                         |     
     |          Mulliken Center for Theoretical Chemistry        |     
     |                    University of Bonn                     |     
      -----------------------------------------------------------      

   * xtb version 6.6.1 (unknown) compiled by 'builduser@buildhost' on 2023-08-07

   xtb is free software: you can redistribute it and/or modify it under
   the terms of the GNU Lesser General Public License as published by
   the Free Software Foundation, either version 3 of the License, or
   (at your option) any later version.
   
   xtb is distributed in the hope that it will be useful,
   but WITHOUT ANY WARRANTY; without even the implied warranty of
   MERCHANTABILITY or FITNESS FOR A PARTICULAR PURPOSE.  See the
   GNU Lesser General Public License for more details.
   
   Cite this work as:
   * C. Bannwarth, E. Caldeweyher, S. Ehlert, A. Hansen, P. Pracht,
     J. Seibert, S. Spicher, S. Grimme, WIREs Comput. Mol. Sci., 2020, 11,
     e01493. DOI: 10.1002/wcms.1493
   
   for GFN2-xTB:
   * C. Bannwarth, S. Ehlert and S. Grimme., J. Chem. Theory Comput., 2019,
     15, 1652-1671. DOI: 10.1021/acs.jctc.8b01176
   for GFN1-xTB:
   * S. Grimme, C. Bannwarth, P. Shushkov, J. Chem. Theory Comput., 2017,
     13, 1989-2009. DOI: 10.1021/acs.jctc.7b00118
   for GFN0-xTB:
   * P. Pracht, E. Caldeweyher, S. Ehlert, S. Grimme, ChemRxiv, 2019, preprint.
     DOI: 10.26434/chemrxiv.8326202.v1
   for GFN-FF:
   * S. Spicher and S. Grimme, Angew. Chem. Int. Ed., 2020, 59, 15665-15673.
     DOI: 10.1002/anie.202004239
   
   for ALPB and GBSA implicit solvation:
   * S. Ehlert, M. Stahn, S. Spicher, S. Grimme, J. Chem. Theory Comput.,
     2021, 17, 4250-4261. DOI: 10.1021/acs.jctc.1c00471
   
   for DFT-D4:
   * E. Caldeweyher, C. Bannwarth and S. Grimme, J. Chem. Phys., 2017,
     147, 034112. DOI: 10.1063/1.4993215
   * E. Caldeweyher, S. Ehlert, A. Hansen, H. Neugebauer, S. Spicher,
     C. Bannwarth and S. Grimme, J. Chem. Phys., 2019, 150, 154122.
     DOI: 10.1063/1.5090222
   * E. Caldeweyher, J.-M. Mewes, S. Ehlert and S. Grimme, Phys. Chem. Chem. Phys.
     2020, 22, 8499-8512. DOI: 10.1039/D0CP00502A
   
   for sTDA-xTB:
   * S. Grimme and C. Bannwarth, J. Chem. Phys., 2016, 145, 054103.
     DOI: 10.1063/1.4959605
   
   in the mass-spec context:
   * V. Asgeirsson, C. Bauer and S. Grimme, Chem. Sci., 2017, 8, 4879.
     DOI: 10.1039/c7sc00601b
   * J. Koopman and S. Grimme, ACS Omega 2019, 4, 12, 15120-15133.
     DOI: 10.1021/acsomega.9b02011
   
   for metadynamics refer to:
   * S. Grimme, J. Chem. Theory Comput., 2019, 155, 2847-2862
     DOI: 10.1021/acs.jctc.9b00143
   
   for SPH calculations refer to:
   * S. Spicher and S. Grimme, J. Chem. Theory Comput., 2021, 17, 1701-1714
     DOI: 10.1021/acs.jctc.0c01306
   
   with help from (in alphabetical order)
   P. Atkinson, C. Bannwarth, F. Bohle, G. Brandenburg, E. Caldeweyher
   M. Checinski, S. Dohm, S. Ehlert, S. Ehrlich, I. Gerasimov, C. Hölzer
   A. Katbashev, J. Koopman, C. Lavigne, S. Lehtola, F. März, M. Müller,
   F. Musil, H. Neugebauer, J. Pisarek, C. Plett, P. Pracht, F. Pultar,
   J. Seibert, P. Shushkov, S. Spicher, M. Stahn, M. Steiner, T. Strunk,
   J. Stückrath, T. Rose, and J. Unsleber
   
 * started run on 2026/07/23 at 16:37:48.989     

           -------------------------------------------------
          |                Calculation Setup                |
           -------------------------------------------------

          program call               : xtb /home/selva/covalent_quantum_benchmark/data/quantum/erbB_xyz/EGFR__CHEMBL281467__state03.xyz --gfn2 --chrg 0 --uhf 0 --iterations 300
          coordinate file            : /home/selva/covalent_quantum_benchmark/data/quantum/erbB_xyz/EGFR__CHEMBL281467__state03.xyz
          omp threads                :                    24

   ID    Z sym.   atoms
    1    6 C      1-3, 6, 7, 9, 11-13, 15, 17-21, 23-25
    2    8 O      4
    3    7 N      5, 8, 10, 14, 16
    4   35 Br     22

           -------------------------------------------------
          |                 G F N 2 - x T B                 |
           -------------------------------------------------

        Reference                      10.1021/acs.jctc.8b01176
      * Hamiltonian:
        H0-scaling (s, p, d)           1.850000    2.230000    2.230000
        zeta-weighting                 0.500000
      * Dispersion:
        s8                             2.700000
        a1                             0.520000
        a2                             5.000000
        s9                             5.000000
      * Repulsion:
        kExp                           1.500000    1.000000
        rExp                           1.000000
      * Coulomb:
        alpha                          2.000000
        third order                    shell-resolved
        anisotropic                    true
        a3                             3.000000
        a5                             4.000000
        cn-shift                       1.200000
        cn-exp                         4.000000
        max-rad                        5.000000


          ...................................................
          :                      SETUP                      :
          :.................................................:
          :  # basis functions                 106          :
          :  # atomic orbitals                 105          :
          :  # shells                           51          :
          :  # electrons                       110          :
          :  max. iterations                   300          :
          :  Hamiltonian                  GFN2-xTB          :
          :  restarted?                      false          :
          :  GBSA solvation                  false          :
          :  PC potential                    false          :
          :  electronic temp.          300.0000000     K    :
          :  accuracy                    1.0000000          :
          :  -> integral cutoff          0.2500000E+02      :
          :  -> integral neglect         0.1000000E-07      :
          :  -> SCF convergence          0.1000000E-05 Eh   :
          :  -> wf. convergence          0.1000000E-03 e    :
          :  Broyden damping             0.4000000          :
          ...................................................

 iter      E             dE          RMSdq      gap      omega  full diag
   1    -60.5408922 -0.605409E+02  0.858E+00    0.66       0.0  T
   2    -46.4358588  0.141050E+02  0.121E+01    0.12       1.0  T
   3    -45.5707992  0.865060E+00  0.124E+01    0.66       1.0  T
   4    -54.5888123 -0.901801E+01  0.909E+00    0.45       1.0  T
   5    -59.7492501 -0.516044E+01  0.555E+00    0.11       1.0  T
   6    -60.4841706 -0.734920E+00  0.435E+00    0.53       1.0  T
   7    -60.2005375  0.283633E+00  0.395E+00    0.13       1.0  T
   8    -60.9326956 -0.732158E+00  0.284E+00    0.27       1.0  T
   9    -60.9233287  0.936686E-02  0.224E+00    0.16       1.0  T
  10    -61.0426966 -0.119368E+00  0.255E+00    0.18       1.0  T
  11    -61.0485595 -0.586291E-02  0.251E+00    0.17       1.0  T
  12    -61.0010490  0.475105E-01  0.265E+00    0.18       1.0  T
  13    -61.0940052 -0.929562E-01  0.175E+00    0.03       1.0  T
  14    -61.0658282  0.281770E-01  0.219E+00    0.17       1.0  T
  15    -61.0686173 -0.278915E-02  0.204E+00    0.16       1.0  T
  16    -60.0244003  0.104422E+01  0.457E+00    0.20       1.0  T
  17    -60.0659689 -0.415687E-01  0.450E+00    0.17       1.0  T
  18    -60.4005391 -0.334570E+00  0.398E+00    0.08       1.0  T
  19    -60.7822353 -0.381696E+00  0.347E+00    0.05       1.0  T
  20    -60.7693653  0.128700E-01  0.344E+00    0.05       1.0  T
  21    -60.8471922 -0.778270E-01  0.364E+00    0.13       1.0  T
  22    -60.8458475  0.134478E-02  0.365E+00    0.13       1.0  T
  23    -60.8582079 -0.123604E-01  0.357E+00    0.13       1.0  T
  24    -61.1710518 -0.312844E+00  0.124E+00    0.12       1.0  T
  25    -61.1697761  0.127563E-02  0.132E+00    0.15       1.0  T
  26    -61.1790631 -0.928693E-02  0.972E-01    0.13       1.0  T
  27    -61.2010530 -0.219900E-01  0.517E-01    0.09       1.0  T
  28    -61.2027233 -0.167028E-02  0.355E-01    0.10       1.0  T
  29    -61.2029432 -0.219917E-03  0.347E-01    0.09       1.0  T
  30    -61.1454134  0.575299E-01  0.147E+00    0.05       1.0  T
  31    -61.1805485 -0.351351E-01  0.910E-01    0.10       1.0  T
  32    -61.1864498 -0.590133E-02  0.915E-01    0.14       1.0  T
  33    -61.2007205 -0.142707E-01  0.326E-01    0.10       1.0  T
  34    -61.2023620 -0.164152E-02  0.219E-01    0.07       1.0  T
  35    -61.2034485 -0.108651E-02  0.136E-01    0.08       1.0  T
  36    -61.2023731  0.107537E-02  0.258E-01    0.07       1.0  T
  37    -61.2033679 -0.994709E-03  0.175E-01    0.08       1.0  T
  38    -61.2040227 -0.654821E-03  0.942E-02    0.09       1.0  T
  39    -61.2041026 -0.799247E-04  0.716E-02    0.08       1.0  T
  40    -61.2040833  0.192560E-04  0.794E-02    0.08       1.0  T
  41    -61.2041308 -0.474954E-04  0.671E-02    0.08       1.0  T
  42    -61.2041580 -0.271184E-04  0.572E-02    0.08       1.0  T
  43    -61.2041931 -0.351722E-04  0.398E-02    0.08       1.0  T
  44    -61.2042230 -0.299023E-04  0.193E-02    0.08       1.0  T
  45    -61.2042238 -0.752308E-06  0.231E-02    0.08       1.0  T
  46    -61.2042321 -0.831731E-05  0.160E-02    0.08       1.2  T
  47    -61.2042364 -0.433447E-05  0.139E-02    0.08       1.4  T
  48    -61.2042423 -0.584573E-05  0.522E-03    0.08       3.8  T
  49    -61.2042426 -0.287926E-06  0.243E-03    0.08       8.2  T
  50    -61.2042428 -0.256188E-06  0.623E-04    0.08      32.1  T
  51    -61.2042428 -0.122657E-07  0.385E-04    0.08      51.9  T

   *** convergence criteria satisfied after 51 iterations ***

         #    Occupation            Energy/Eh            Energy/eV
      -------------------------------------------------------------
         1        2.0000           -0.8733975             -23.7664
       ...           ...                  ...                  ...
        49        2.0000           -0.4522530             -12.3064
        50        2.0000           -0.4508324             -12.2678
        51        2.0000           -0.4438484             -12.0777
        52        2.0000           -0.4432204             -12.0606
        53        2.0000           -0.4417501             -12.0206
        54        1.9788           -0.4303803             -11.7112
        55        1.6857           -0.4276671             -11.6374 (HOMO)
        56        0.3351           -0.4245485             -11.5526 (LUMO)
        57        0.0005           -0.4181560             -11.3786
        58                         -0.4046396             -11.0108
        59                         -0.3854165             -10.4877
        60                         -0.3701803             -10.0731
       ...                                ...                  ...
       105                          1.0333243              28.1182
      -------------------------------------------------------------
                  HL-Gap            0.0031186 Eh            0.0849 eV
             Fermi-level           -0.4260716 Eh          -11.5940 eV

 SCC (total)                   0 d,  0 h,  0 min,  0.386 sec
 SCC setup                      ...        0 min,  0.001 sec (  0.148%)
 Dispersion                     ...        0 min,  0.001 sec (  0.217%)
 classical contributions        ...        0 min,  0.001 sec (  0.220%)
 integral evaluation            ...        0 min,  0.003 sec (  0.897%)
 iterations                     ...        0 min,  0.366 sec ( 94.696%)
 molecular gradient             ...        0 min,  0.014 sec (  3.572%)
 printout                       ...        0 min,  0.001 sec (  0.239%)

         :::::::::::::::::::::::::::::::::::::::::::::::::::::
         ::                     SUMMARY                     ::
         :::::::::::::::::::::::::::::::::::::::::::::::::::::
         :: total energy             -60.398133416148 Eh    ::
         :: gradient norm              0.419324034388 Eh/a0 ::
         :: HOMO-LUMO gap              0.084860330783 eV    ::
         ::.................................................::
         :: SCC energy               -61.204242840973 Eh    ::
         :: -> isotropic ES            0.051912926780 Eh    ::
         :: -> anisotropic ES          0.008975830769 Eh    ::
         :: -> anisotropic XC          0.041349790049 Eh    ::
         :: -> dispersion             -0.036928825919 Eh    ::
         :: repulsion energy           0.806160677585 Eh    ::
         :: add. restraining           0.000000000000 Eh    ::
         :: total charge               0.000000000005 e     ::
         :::::::::::::::::::::::::::::::::::::::::::::::::::::

           -------------------------------------------------
          |                Property Printout                |
           -------------------------------------------------

    * Orbital Energies and Occupations

         #    Occupation            Energy/Eh            Energy/eV
      -------------------------------------------------------------
         1        2.0000           -0.8733975             -23.7664
       ...           ...                  ...                  ...
        43        2.0000           -0.4846248             -13.1873
        44        2.0000           -0.4828070             -13.1378
        45        2.0000           -0.4769894             -12.9795
        46        2.0000           -0.4678729             -12.7315
        47        2.0000           -0.4614205             -12.5559
        48        2.0000           -0.4570526             -12.4370
        49        2.0000           -0.4522530             -12.3064
        50        2.0000           -0.4508324             -12.2678
        51        2.0000           -0.4438484             -12.0777
        52        2.0000           -0.4432204             -12.0606
        53        2.0000           -0.4417501             -12.0206
        54        1.9788           -0.4303803             -11.7112
        55        1.6857           -0.4276671             -11.6374 (HOMO)
        56        0.3351           -0.4245485             -11.5526 (LUMO)
        57        0.0005           -0.4181560             -11.3786
        58                         -0.4046396             -11.0108
        59                         -0.3854165             -10.4877
        60                         -0.3701803             -10.0731
        61                         -0.3551807              -9.6650
        62                         -0.3325814              -9.0500
        63                         -0.3087822              -8.4024
        64                         -0.3081086              -8.3841
        65                         -0.3049035              -8.2968
        66                         -0.2926601              -7.9637
       ...                                ...                  ...
       105                          1.0333243              28.1182
      -------------------------------------------------------------
                  HL-Gap            0.0031186 Eh            0.0849 eV
             Fermi-level           -0.4260716 Eh          -11.5940 eV

     #   Z          covCN         q      C6AA      α(0)
     1   6 C        0.985    -0.030    36.859    10.199
     2   6 C        1.961    -0.009    31.316     9.037
     3   6 C        2.821     0.300    21.922     7.672
     4   8 O        0.860    -0.358    20.862     6.124
     5   7 N        1.837    -0.121    24.403     7.321
     6   6 C        2.960     0.131    25.125     8.222
     7   6 C        1.926     0.037    30.146     8.867
     8   7 N        1.839    -0.134    24.679     7.362
     9   6 C        2.886     0.181    24.119     8.052
    10   7 N        1.835    -0.107    24.104     7.276
    11   6 C        1.984     0.089    28.834     8.672
    12   6 C        2.945     0.013    27.723     8.636
    13   6 C        1.916     0.121    28.134     8.566
    14   7 N        0.911    -0.189    25.104     7.247
    15   6 C        2.900     0.134    25.074     8.210
    16   7 N        1.837    -0.123    24.439     7.326
    17   6 C        2.918     0.120    25.366     8.259
    18   6 C        1.992     0.002    31.002     8.992
    19   6 C        1.987    -0.017    31.495     9.063
    20   6 C        2.061     0.024    30.349     8.899
    21   6 C        2.907     0.116    25.452     8.272
    22  35 Br       1.068    -0.053   186.463    22.017
    23   6 C        2.066    -0.093    33.488     9.348
    24   6 C        2.958     0.001    28.010     8.681
    25   6 C        1.994    -0.034    31.959     9.130

 Mol. C6AA /au·bohr⁶  :      19331.488501
 Mol. C8AA /au·bohr⁸  :     580698.883316
 Mol. α(0) /au        :        221.446948


Wiberg/Mayer (AO) data.
largest (>0.10) Wiberg bond orders for each atom

 ---------------------------------------------------------------------------
     #   Z sym  total        # sym  WBO       # sym  WBO       # sym  WBO
 ---------------------------------------------------------------------------
     1   6 C    3.072 --     2 C    2.610     5 N    0.215     4 O    0.103
     2   6 C    3.622 --     1 C    2.610     3 C    0.915
     3   6 C    3.925 --     5 N    1.470     4 O    1.426     2 C    0.915
     4   8 O    1.818 --     3 C    1.426     5 N    0.194     1 C    0.103
     5   7 N    3.242 --     3 C    1.470     6 C    1.205     1 C    0.215
                             4 O    0.194
     6   6 C    3.952 --     7 C    1.368     5 N    1.205    25 C    1.180
     7   6 C    3.706 --     8 N    1.600     6 C    1.368    25 C    0.304
     8   7 N    3.295 --     7 C    1.600     9 C    1.292    25 C    0.211
     9   6 C    3.898 --    10 N    1.359     8 N    1.292    24 C    1.005
    10   7 N    3.289 --    11 C    1.539     9 C    1.359
    11   6 C    3.824 --    12 C    1.607    10 N    1.539    16 N    0.170
                            14 N    0.101
    12   6 C    3.919 --    11 C    1.607    13 C    1.094    15 C    0.972
    13   6 C    3.944 --    14 N    2.789    12 C    1.094
    14   7 N    2.993 --    13 C    2.789    11 C    0.101
    15   6 C    3.953 --    16 N    1.645    24 C    1.082    12 C    0.972
    16   7 N    3.317 --    15 C    1.645    17 C    1.105    11 C    0.170
    17   6 C    3.954 --    23 C    1.346    18 C    1.308    16 N    1.105
    18   6 C    3.748 --    19 C    1.623    17 C    1.308    20 C    0.397
                            23 C    0.161    21 C    0.102
    19   6 C    3.802 --    20 C    1.646    18 C    1.623    23 C    0.435
    20   6 C    3.743 --    19 C    1.646    21 C    1.369    18 C    0.397
                            23 C    0.142
    21   6 C    3.931 --    23 C    1.411    20 C    1.369    22 Br   0.998
                            18 C    0.102
    22  35 Br   1.208 --    21 C    0.998
    23   6 C    3.629 --    21 C    1.411    17 C    1.346    19 C    0.435
                            18 C    0.161    20 C    0.142
    24   6 C    3.953 --    25 C    1.619    15 C    1.082     9 C    1.005
    25   6 C    3.692 --    24 C    1.619     6 C    1.180     7 C    0.304
                             8 N    0.211
 ---------------------------------------------------------------------------

Topologies differ in total number of bonds
Writing topology from bond orders to xtbtopo.mol

molecular dipole:
                 x           y           z       tot (Debye)
 q only:        1.451      -1.295       0.287
   full:        1.747      -1.405      -0.213       5.724
molecular quadrupole (traceless):
                xx          xy          yy          xz          yz          zz
 q only:       -5.703      16.735      -0.288      -4.735       5.241       5.991
  q+dip:       -1.923      20.399       1.572      -3.796      13.875       0.352
   full:       -1.476      20.737      -1.633      -4.414      16.083       3.109


           -------------------------------------------------
          | TOTAL ENERGY              -60.398133416148 Eh   |
          | GRADIENT NORM               0.419324034388 Eh/α |
Note: The following floating-point exceptions are signalling: IEEE_UNDERFLOW_FLAG IEEE_DENORMAL
normal termination of xtb
          | HOMO-LUMO GAP               0.084860330783 eV   |
           -------------------------------------------------

------------------------------------------------------------------------
 * finished run on 2026/07/23 at 16:37:49.394     
------------------------------------------------------------------------
 total:
 * wall-time:     0 d,  0 h,  0 min,  0.404 sec
 *  cpu-time:     0 d,  0 h,  0 min,  0.416 sec
 * ratio c/w:     1.030 speedup
 SCF:
 * wall-time:     0 d,  0 h,  0 min,  0.387 sec
 *  cpu-time:     0 d,  0 h,  0 min,  0.394 sec
 * ratio c/w:     1.018 speedup

