      -----------------------------------------------------------      
     |                   =====================                   |     
     |                           x T B                           |     
     |                   =====================                   |     
     |                         S. Grimme                         |     
     |          Mulliken Center for Theoretical Chemistry        |     
     |                    University of Bonn                     |     
      -----------------------------------------------------------      

   * xtb version 6.6.1 (unknown) compiled by 'builduser@buildhost' on 2023-08-07

   xtb is free software: you can redistribute it and/or modify it under
   the terms of the GNU Lesser General Public License as published by
   the Free Software Foundation, either version 3 of the License, or
   (at your option) any later version.
   
   xtb is distributed in the hope that it will be useful,
   but WITHOUT ANY WARRANTY; without even the implied warranty of
   MERCHANTABILITY or FITNESS FOR A PARTICULAR PURPOSE.  See the
   GNU Lesser General Public License for more details.
   
   Cite this work as:
   * C. Bannwarth, E. Caldeweyher, S. Ehlert, A. Hansen, P. Pracht,
     J. Seibert, S. Spicher, S. Grimme, WIREs Comput. Mol. Sci., 2020, 11,
     e01493. DOI: 10.1002/wcms.1493
   
   for GFN2-xTB:
   * C. Bannwarth, S. Ehlert and S. Grimme., J. Chem. Theory Comput., 2019,
     15, 1652-1671. DOI: 10.1021/acs.jctc.8b01176
   for GFN1-xTB:
   * S. Grimme, C. Bannwarth, P. Shushkov, J. Chem. Theory Comput., 2017,
     13, 1989-2009. DOI: 10.1021/acs.jctc.7b00118
   for GFN0-xTB:
   * P. Pracht, E. Caldeweyher, S. Ehlert, S. Grimme, ChemRxiv, 2019, preprint.
     DOI: 10.26434/chemrxiv.8326202.v1
   for GFN-FF:
   * S. Spicher and S. Grimme, Angew. Chem. Int. Ed., 2020, 59, 15665-15673.
     DOI: 10.1002/anie.202004239
   
   for ALPB and GBSA implicit solvation:
   * S. Ehlert, M. Stahn, S. Spicher, S. Grimme, J. Chem. Theory Comput.,
     2021, 17, 4250-4261. DOI: 10.1021/acs.jctc.1c00471
   
   for DFT-D4:
   * E. Caldeweyher, C. Bannwarth and S. Grimme, J. Chem. Phys., 2017,
     147, 034112. DOI: 10.1063/1.4993215
   * E. Caldeweyher, S. Ehlert, A. Hansen, H. Neugebauer, S. Spicher,
     C. Bannwarth and S. Grimme, J. Chem. Phys., 2019, 150, 154122.
     DOI: 10.1063/1.5090222
   * E. Caldeweyher, J.-M. Mewes, S. Ehlert and S. Grimme, Phys. Chem. Chem. Phys.
     2020, 22, 8499-8512. DOI: 10.1039/D0CP00502A
   
   for sTDA-xTB:
   * S. Grimme and C. Bannwarth, J. Chem. Phys., 2016, 145, 054103.
     DOI: 10.1063/1.4959605
   
   in the mass-spec context:
   * V. Asgeirsson, C. Bauer and S. Grimme, Chem. Sci., 2017, 8, 4879.
     DOI: 10.1039/c7sc00601b
   * J. Koopman and S. Grimme, ACS Omega 2019, 4, 12, 15120-15133.
     DOI: 10.1021/acsomega.9b02011
   
   for metadynamics refer to:
   * S. Grimme, J. Chem. Theory Comput., 2019, 155, 2847-2862
     DOI: 10.1021/acs.jctc.9b00143
   
   for SPH calculations refer to:
   * S. Spicher and S. Grimme, J. Chem. Theory Comput., 2021, 17, 1701-1714
     DOI: 10.1021/acs.jctc.0c01306
   
   with help from (in alphabetical order)
   P. Atkinson, C. Bannwarth, F. Bohle, G. Brandenburg, E. Caldeweyher
   M. Checinski, S. Dohm, S. Ehlert, S. Ehrlich, I. Gerasimov, C. Hölzer
   A. Katbashev, J. Koopman, C. Lavigne, S. Lehtola, F. März, M. Müller,
   F. Musil, H. Neugebauer, J. Pisarek, C. Plett, P. Pracht, F. Pultar,
   J. Seibert, P. Shushkov, S. Spicher, M. Stahn, M. Steiner, T. Strunk,
   J. Stückrath, T. Rose, and J. Unsleber
   
 * started run on 2026/07/23 at 16:37:53.985     

           -------------------------------------------------
          |                Calculation Setup                |
           -------------------------------------------------

          program call               : xtb /home/selva/covalent_quantum_benchmark/data/quantum/erbB_xyz/EGFR__CHEMBL290389__state00.xyz --gfn2 --chrg 0 --uhf 0 --iterations 300
          coordinate file            : /home/selva/covalent_quantum_benchmark/data/quantum/erbB_xyz/EGFR__CHEMBL290389__state00.xyz
          omp threads                :                    24

   ID    Z sym.   atoms
    1    6 C      1, 3-8, 10, 13, 14, 16, 18-23, 25
    2    8 O      2, 12, 26
    3    7 N      9, 11, 17
    4   16 S      15, 24

           -------------------------------------------------
          |                 G F N 2 - x T B                 |
           -------------------------------------------------

        Reference                      10.1021/acs.jctc.8b01176
      * Hamiltonian:
        H0-scaling (s, p, d)           1.850000    2.230000    2.230000
        zeta-weighting                 0.500000
      * Dispersion:
        s8                             2.700000
        a1                             0.520000
        a2                             5.000000
        s9                             5.000000
      * Repulsion:
        kExp                           1.500000    1.000000
        rExp                           1.000000
      * Coulomb:
        alpha                          2.000000
        third order                    shell-resolved
        anisotropic                    true
        a3                             3.000000
        a5                             4.000000
        cn-shift                       1.200000
        cn-exp                         4.000000
        max-rad                        5.000000


          ...................................................
          :                      SETUP                      :
          :.................................................:
          :  # basis functions                 116          :
          :  # atomic orbitals                 114          :
          :  # shells                           54          :
          :  # electrons                       117          :
          :  max. iterations                   300          :
          :  Hamiltonian                  GFN2-xTB          :
          :  restarted?                      false          :
          :  GBSA solvation                  false          :
          :  PC potential                    false          :
          :  electronic temp.          300.0000000     K    :
          :  accuracy                    1.0000000          :
          :  -> integral cutoff          0.2500000E+02      :
          :  -> integral neglect         0.1000000E-07      :
          :  -> SCF convergence          0.1000000E-05 Eh   :
          :  -> wf. convergence          0.1000000E-03 e    :
          :  Broyden damping             0.4000000          :
          ...................................................

 iter      E             dE          RMSdq      gap      omega  full diag
   1    -65.1969377 -0.651969E+02  0.855E+00    0.28       0.0  T
   2    -61.4424305  0.375451E+01  0.100E+01    0.25       1.0  T
   3    -56.7501001  0.469233E+01  0.101E+01    0.05       1.0  T
   4    -52.9578365  0.379226E+01  0.103E+01    0.12       1.0  T
   5    -62.3520348 -0.939420E+01  0.725E+00    0.15       1.0  T
   6    -64.9939424 -0.264191E+01  0.490E+00    0.25       1.0  T
   7    -64.0140666  0.979876E+00  0.577E+00    0.14       1.0  T
   8    -64.9642922 -0.950226E+00  0.407E+00    0.17       1.0  T
   9    -64.8405027  0.123790E+00  0.371E+00    0.02       1.0  T
  10    -65.1548387 -0.314336E+00  0.345E+00    0.14       1.0  T
  11    -64.5252410  0.629598E+00  0.468E+00    0.13       1.0  T
  12    -65.5395993 -0.101436E+01  0.315E+00    0.21       1.0  T
  13    -65.5833245 -0.437252E-01  0.247E+00    0.15       1.0  T
  14    -65.6809816 -0.976571E-01  0.206E+00    0.02       1.0  T
  15    -65.6831383 -0.215667E-02  0.198E+00    0.04       1.0  T
  16    -65.6737668  0.937144E-02  0.175E+00    0.06       1.0  T
  17    -65.5048257  0.168941E+00  0.313E+00    0.32       1.0  T
  18    -65.4897807  0.150450E-01  0.318E+00    0.33       1.0  T
  19    -65.4888920  0.888691E-03  0.319E+00    0.33       1.0  T
  20    -65.5472514 -0.583594E-01  0.228E+00    0.31       1.0  T
  21    -65.6302795 -0.830280E-01  0.147E+00    0.04       1.0  T
  22    -65.6804663 -0.501868E-01  0.114E+00    0.02       1.0  T
  23    -65.6547628  0.257035E-01  0.164E+00    0.12       1.0  T
  24    -65.6177522  0.370105E-01  0.168E+00    0.17       1.0  T
  25    -65.7192314 -0.101479E+00  0.103E+00    0.06       1.0  T
  26    -65.7038594  0.153720E-01  0.125E+00    0.09       1.0  T
  27    -65.7083616 -0.450215E-02  0.896E-01    0.08       1.0  T
  28    -65.7112249 -0.286334E-02  0.650E-01    0.01       1.0  T
  29    -65.7334135 -0.221886E-01  0.219E-01    0.04       1.0  T
  30    -65.7174884  0.159251E-01  0.605E-01    0.04       1.0  T
  31    -65.7228231 -0.533469E-02  0.519E-01    0.01       1.0  T
  32    -65.7241703 -0.134715E-02  0.476E-01    0.04       1.0  T
  33    -65.7281469 -0.397660E-02  0.366E-01    0.04       1.0  T
  34    -65.7324620 -0.431517E-02  0.223E-01    0.04       1.0  T
  35    -65.7340934 -0.163139E-02  0.166E-01    0.04       1.0  T
  36    -65.7351812 -0.108782E-02  0.270E-02    0.03       1.0  T
  37    -65.7351167  0.645518E-04  0.518E-02    0.03       1.0  T
  38    -65.7352165 -0.998530E-04  0.120E-02    0.03       1.6  T
  39    -65.7352072  0.936901E-05  0.158E-02    0.03       1.2  T
  40    -65.7352191 -0.119712E-04  0.117E-02    0.03       1.7  T
  41    -65.7352186  0.508047E-06  0.987E-03    0.03       2.0  T
  42    -65.7352192 -0.597565E-06  0.760E-03    0.03       2.6  T
  43    -65.7352208 -0.160663E-05  0.447E-03    0.03       4.4  T
  44    -65.7352221 -0.128703E-05  0.917E-04    0.03      21.4  T
  45    -65.7352221  0.183969E-07  0.810E-04    0.03      24.2  T
  46    -65.7352221  0.519927E-07  0.113E-03    0.03      17.3  T
  47    -65.7352221 -0.739903E-07  0.341E-04    0.03      57.6  T

   *** convergence criteria satisfied after 47 iterations ***

         #    Occupation            Energy/Eh            Energy/eV
      -------------------------------------------------------------
         1        2.0000           -0.8158312             -22.1999
       ...           ...                  ...                  ...
        53        2.0000           -0.4549036             -12.3786
        54        2.0000           -0.4425250             -12.0417
        55        1.9997           -0.4325248             -11.7696
        56        1.9877           -0.4289889             -11.6734
        57        1.8686           -0.4266436             -11.6096
        58        1.7777           -0.4260691             -11.5939
        59        0.9101           -0.4235578             -11.5256 (HOMO)
        60        0.4561           -0.4223731             -11.4934 (LUMO)
        61        0.0002           -0.4145774             -11.2812
        62                         -0.4054444             -11.0327
        63                         -0.3999601             -10.8835
        64                         -0.3907143             -10.6319
       ...                                ...                  ...
       114                          1.0408536              28.3231
      -------------------------------------------------------------
                  HL-Gap            0.0011847 Eh            0.0322 eV
             Fermi-level           -0.4237719 Eh          -11.5314 eV

 SCC (total)                   0 d,  0 h,  0 min,  0.432 sec
 SCC setup                      ...        0 min,  0.000 sec (  0.114%)
 Dispersion                     ...        0 min,  0.001 sec (  0.274%)
 classical contributions        ...        0 min,  0.001 sec (  0.196%)
 integral evaluation            ...        0 min,  0.008 sec (  1.955%)
 iterations                     ...        0 min,  0.394 sec ( 91.194%)
 molecular gradient             ...        0 min,  0.023 sec (  5.217%)
 printout                       ...        0 min,  0.004 sec (  1.038%)

         :::::::::::::::::::::::::::::::::::::::::::::::::::::
         ::                     SUMMARY                     ::
         :::::::::::::::::::::::::::::::::::::::::::::::::::::
         :: total energy             -64.977675742763 Eh    ::
         :: gradient norm              0.406107458809 Eh/a0 ::
         :: HOMO-LUMO gap              0.032237352355 eV    ::
         ::.................................................::
         :: SCC energy               -65.735222126937 Eh    ::
         :: -> isotropic ES            0.070485149432 Eh    ::
         :: -> anisotropic ES          0.008044082067 Eh    ::
         :: -> anisotropic XC          0.043627736531 Eh    ::
         :: -> dispersion             -0.038929355291 Eh    ::
         :: repulsion energy           0.757407602694 Eh    ::
         :: add. restraining           0.000000000000 Eh    ::
         :: total charge               0.000000000004 e     ::
         :::::::::::::::::::::::::::::::::::::::::::::::::::::

           -------------------------------------------------
          |                Property Printout                |
           -------------------------------------------------

    * Orbital Energies and Occupations

         #    Occupation            Energy/Eh            Energy/eV
      -------------------------------------------------------------
         1        2.0000           -0.8158312             -22.1999
       ...           ...                  ...                  ...
        47        2.0000           -0.4849722             -13.1968
        48        2.0000           -0.4781209             -13.0103
        49        2.0000           -0.4722588             -12.8508
        50        2.0000           -0.4675229             -12.7219
        51        2.0000           -0.4603282             -12.5262
        52        2.0000           -0.4583754             -12.4730
        53        2.0000           -0.4549036             -12.3786
        54        2.0000           -0.4425250             -12.0417
        55        1.9997           -0.4325248             -11.7696
        56        1.9877           -0.4289889             -11.6734
        57        1.8686           -0.4266436             -11.6096
        58        1.7777           -0.4260691             -11.5939
        59        0.9101           -0.4235578             -11.5256 (HOMO)
        60        0.4561           -0.4223731             -11.4934 (LUMO)
        61        0.0002           -0.4145774             -11.2812
        62                         -0.4054444             -11.0327
        63                         -0.3999601             -10.8835
        64                         -0.3907143             -10.6319
        65                         -0.3635839              -9.8936
        66                         -0.3450761              -9.3900
        67                         -0.3292892              -8.9604
        68                         -0.3135407              -8.5319
        69                         -0.2939220              -7.9980
        70                         -0.2888319              -7.8595
       ...                                ...                  ...
       114                          1.0408536              28.3231
      -------------------------------------------------------------
                  HL-Gap            0.0011847 Eh            0.0322 eV
             Fermi-level           -0.4237719 Eh          -11.5314 eV

     #   Z          covCN         q      C6AA      α(0)
     1   6 C        0.870    -0.002    35.229     9.911
     2   8 O        1.703    -0.012    14.633     5.165
     3   6 C        2.856     0.142    24.902     8.179
     4   6 C        1.992    -0.055    32.532     9.211
     5   6 C        2.965     0.074    26.341     8.418
     6   6 C        1.991     0.050    29.779     8.813
     7   6 C        2.945     0.040    27.096     8.537
     8   6 C        1.903     0.138    27.747     8.507
     9   7 N        0.911    -0.141    24.050     7.093
    10   6 C        2.757     0.308    21.772     7.641
    11   7 N        0.916    -0.213    25.607     7.316
    12   8 O        0.859    -0.330    20.330     6.045
    13   6 C        2.029    -0.030    31.792     9.106
    14   6 C        2.952     0.044    27.022     8.526
    15  16 S        2.153     0.045   139.248    19.861
    16   6 C        3.007     0.134    25.051     8.210
    17   7 N        1.967    -0.221    26.646     7.655
    18   6 C        3.225     0.102    25.041     8.132
    19   6 C        1.988    -0.040    32.124     9.153
    20   6 C        1.983     0.037    30.110     8.861
    21   6 C        1.988     0.041    30.015     8.848
    22   6 C        1.998    -0.054    32.499     9.207
    23   6 C        2.988     0.034    27.224     8.559
    24  16 S        2.373     0.105   136.855    19.689
    25   6 C        2.867     0.189    23.974     8.026
    26   8 O        0.854    -0.383    21.351     6.195

 Mol. C6AA /au·bohr⁶  :      21586.125086
 Mol. C8AA /au·bohr⁸  :     650537.828754
 Mol. α(0) /au        :        234.865097


Wiberg/Mayer (AO) data.
largest (>0.10) Wiberg bond orders for each atom

 ---------------------------------------------------------------------------
     #   Z sym  total        # sym  WBO       # sym  WBO       # sym  WBO
 ---------------------------------------------------------------------------
     1   6 C    1.956 --     2 O    1.544     4 C    0.101
     2   8 O    2.653 --     1 C    1.544     3 C    1.035
     3   6 C    3.867 --     4 C    1.437    25 C    1.120     2 O    1.035
     4   6 C    3.675 --     3 C    1.437     5 C    1.302    13 C    0.439
                            26 O    0.134     1 C    0.101
     5   6 C    3.961 --     4 C    1.302    13 C    1.245     6 C    1.234
     6   6 C    3.770 --     7 C    1.862     5 C    1.234    11 N    0.219
                             9 N    0.165
     7   6 C    3.943 --     6 C    1.862     8 C    1.052    10 C    0.857
     8   6 C    3.932 --     9 N    2.789     7 C    1.052
     9   7 N    3.083 --     8 C    2.789     6 C    0.165
    10   6 C    3.915 --    12 O    1.555    11 N    1.433     7 C    0.857
    11   7 N    1.953 --    10 C    1.433    12 O    0.242     6 C    0.219
    12   8 O    1.957 --    10 C    1.555    11 N    0.242
    13   6 C    3.725 --    14 C    1.553     5 C    1.245     4 C    0.439
                            26 O    0.189
    14   6 C    3.940 --    13 C    1.553    25 C    1.160    15 S    0.979
    15  16 S    2.296 --    16 C    1.055    14 C    0.979
    16   6 C    3.949 --    17 N    1.562    24 S    1.169    15 S    1.055
    17   7 N    3.101 --    16 C    1.562    18 C    1.197    24 S    0.160
    18   6 C    3.956 --    19 C    1.316    23 C    1.199    17 N    1.197
    19   6 C    3.693 --    20 C    1.708    18 C    1.316    22 C    0.403
                            21 C    0.147
    20   6 C    3.888 --    21 C    1.820    19 C    1.708    22 C    0.129
                            23 C    0.102
    21   6 C    3.872 --    20 C    1.820    22 C    1.682    19 C    0.147
    22   6 C    3.675 --    21 C    1.682    23 C    1.370    19 C    0.403
                            20 C    0.129
    23   6 C    3.934 --    22 C    1.370    18 C    1.199    24 S    1.114
                            20 C    0.102
    24  16 S    2.680 --    16 C    1.169    23 C    1.114    17 N    0.160
    25   6 C    3.941 --    26 O    1.466    14 C    1.160     3 C    1.120
    26   8 O    2.006 --    25 C    1.466    13 C    0.189     4 C    0.134
 ---------------------------------------------------------------------------

Topologies differ in total number of bonds
Writing topology from bond orders to xtbtopo.mol

molecular dipole:
                 x           y           z       tot (Debye)
 q only:        1.835      -1.581       1.068
   full:        1.858      -2.118       1.952       8.712
molecular quadrupole (traceless):
                xx          xy          yy          xz          yz          zz
 q only:      -20.444      -4.240      23.459     -20.350       3.141      -3.016
  q+dip:      -19.713      -1.302      27.185     -19.309      -3.364      -7.473
   full:      -22.656      -0.421      30.648     -19.577      -2.293      -7.992


           -------------------------------------------------
          | TOTAL ENERGY              -64.977675742763 Eh   |
          | GRADIENT NORM               0.406107458809 Eh/α |
          | HOMO-LUMO GAP               0.032237352355 eV   |
           -------------------------------------------------

------------------------------------------------------------------------
Note: The following floating-point exceptions are signalling: IEEE_UNDERFLOW_FLAG IEEE_DENORMAL
normal termination of xtb
 * finished run on 2026/07/23 at 16:37:54.432     
------------------------------------------------------------------------
 total:
 * wall-time:     0 d,  0 h,  0 min,  0.447 sec
 *  cpu-time:     0 d,  0 h,  0 min,  0.439 sec
 * ratio c/w:     0.982 speedup
 SCF:
 * wall-time:     0 d,  0 h,  0 min,  0.432 sec
 *  cpu-time:     0 d,  0 h,  0 min,  0.421 sec
 * ratio c/w:     0.974 speedup

