      -----------------------------------------------------------      
     |                   =====================                   |     
     |                           x T B                           |     
     |                   =====================                   |     
     |                         S. Grimme                         |     
     |          Mulliken Center for Theoretical Chemistry        |     
     |                    University of Bonn                     |     
      -----------------------------------------------------------      

   * xtb version 6.6.1 (unknown) compiled by 'builduser@buildhost' on 2023-08-07

   xtb is free software: you can redistribute it and/or modify it under
   the terms of the GNU Lesser General Public License as published by
   the Free Software Foundation, either version 3 of the License, or
   (at your option) any later version.
   
   xtb is distributed in the hope that it will be useful,
   but WITHOUT ANY WARRANTY; without even the implied warranty of
   MERCHANTABILITY or FITNESS FOR A PARTICULAR PURPOSE.  See the
   GNU Lesser General Public License for more details.
   
   Cite this work as:
   * C. Bannwarth, E. Caldeweyher, S. Ehlert, A. Hansen, P. Pracht,
     J. Seibert, S. Spicher, S. Grimme, WIREs Comput. Mol. Sci., 2020, 11,
     e01493. DOI: 10.1002/wcms.1493
   
   for GFN2-xTB:
   * C. Bannwarth, S. Ehlert and S. Grimme., J. Chem. Theory Comput., 2019,
     15, 1652-1671. DOI: 10.1021/acs.jctc.8b01176
   for GFN1-xTB:
   * S. Grimme, C. Bannwarth, P. Shushkov, J. Chem. Theory Comput., 2017,
     13, 1989-2009. DOI: 10.1021/acs.jctc.7b00118
   for GFN0-xTB:
   * P. Pracht, E. Caldeweyher, S. Ehlert, S. Grimme, ChemRxiv, 2019, preprint.
     DOI: 10.26434/chemrxiv.8326202.v1
   for GFN-FF:
   * S. Spicher and S. Grimme, Angew. Chem. Int. Ed., 2020, 59, 15665-15673.
     DOI: 10.1002/anie.202004239
   
   for ALPB and GBSA implicit solvation:
   * S. Ehlert, M. Stahn, S. Spicher, S. Grimme, J. Chem. Theory Comput.,
     2021, 17, 4250-4261. DOI: 10.1021/acs.jctc.1c00471
   
   for DFT-D4:
   * E. Caldeweyher, C. Bannwarth and S. Grimme, J. Chem. Phys., 2017,
     147, 034112. DOI: 10.1063/1.4993215
   * E. Caldeweyher, S. Ehlert, A. Hansen, H. Neugebauer, S. Spicher,
     C. Bannwarth and S. Grimme, J. Chem. Phys., 2019, 150, 154122.
     DOI: 10.1063/1.5090222
   * E. Caldeweyher, J.-M. Mewes, S. Ehlert and S. Grimme, Phys. Chem. Chem. Phys.
     2020, 22, 8499-8512. DOI: 10.1039/D0CP00502A
   
   for sTDA-xTB:
   * S. Grimme and C. Bannwarth, J. Chem. Phys., 2016, 145, 054103.
     DOI: 10.1063/1.4959605
   
   in the mass-spec context:
   * V. Asgeirsson, C. Bauer and S. Grimme, Chem. Sci., 2017, 8, 4879.
     DOI: 10.1039/c7sc00601b
   * J. Koopman and S. Grimme, ACS Omega 2019, 4, 12, 15120-15133.
     DOI: 10.1021/acsomega.9b02011
   
   for metadynamics refer to:
   * S. Grimme, J. Chem. Theory Comput., 2019, 155, 2847-2862
     DOI: 10.1021/acs.jctc.9b00143
   
   for SPH calculations refer to:
   * S. Spicher and S. Grimme, J. Chem. Theory Comput., 2021, 17, 1701-1714
     DOI: 10.1021/acs.jctc.0c01306
   
   with help from (in alphabetical order)
   P. Atkinson, C. Bannwarth, F. Bohle, G. Brandenburg, E. Caldeweyher
   M. Checinski, S. Dohm, S. Ehlert, S. Ehrlich, I. Gerasimov, C. Hölzer
   A. Katbashev, J. Koopman, C. Lavigne, S. Lehtola, F. März, M. Müller,
   F. Musil, H. Neugebauer, J. Pisarek, C. Plett, P. Pracht, F. Pultar,
   J. Seibert, P. Shushkov, S. Spicher, M. Stahn, M. Steiner, T. Strunk,
   J. Stückrath, T. Rose, and J. Unsleber
   
 * started run on 2026/07/23 at 16:37:43.712     

           -------------------------------------------------
          |                Calculation Setup                |
           -------------------------------------------------

          program call               : xtb /home/selva/covalent_quantum_benchmark/data/quantum/erbB_xyz/EGFR__CHEMBL264382__state03.xyz --gfn2 --chrg 0 --uhf 0 --iterations 300
          coordinate file            : /home/selva/covalent_quantum_benchmark/data/quantum/erbB_xyz/EGFR__CHEMBL264382__state03.xyz
          omp threads                :                    24

   ID    Z sym.   atoms
    1    6 C      1-5, 8, 9, 11, 12, 14, 15, 17-20, 23, 25, 27, 29-35, 37-45
    2    8 O      6, 13, 21
    3    7 N      7, 10, 16, 22, 24, 26, 28, 36

           -------------------------------------------------
          |                 G F N 2 - x T B                 |
           -------------------------------------------------

        Reference                      10.1021/acs.jctc.8b01176
      * Hamiltonian:
        H0-scaling (s, p, d)           1.850000    2.230000    2.230000
        zeta-weighting                 0.500000
      * Dispersion:
        s8                             2.700000
        a1                             0.520000
        a2                             5.000000
        s9                             5.000000
      * Repulsion:
        kExp                           1.500000    1.000000
        rExp                           1.000000
      * Coulomb:
        alpha                          2.000000
        third order                    shell-resolved
        anisotropic                    true
        a3                             3.000000
        a5                             4.000000
        cn-shift                       1.200000
        cn-exp                         4.000000
        max-rad                        5.000000


          ...................................................
          :                      SETUP                      :
          :.................................................:
          :  # basis functions                 180          :
          :  # atomic orbitals                 180          :
          :  # shells                           90          :
          :  # electrons                       194          :
          :  max. iterations                   300          :
          :  Hamiltonian                  GFN2-xTB          :
          :  restarted?                      false          :
          :  GBSA solvation                  false          :
          :  PC potential                    false          :
          :  electronic temp.          300.0000000     K    :
          :  accuracy                    1.0000000          :
          :  -> integral cutoff          0.2500000E+02      :
          :  -> integral neglect         0.1000000E-07      :
          :  -> SCF convergence          0.1000000E-05 Eh   :
          :  -> wf. convergence          0.1000000E-03 e    :
          :  Broyden damping             0.4000000          :
          ...................................................

 iter      E             dE          RMSdq      gap      omega  full diag
   1   -105.9740030 -0.105974E+03  0.832E+00    0.02       0.0  T
   2    -82.0760869  0.238979E+02  0.130E+01    0.17       1.0  T
   3    -43.7097054  0.383664E+02  0.143E+01    0.05       1.0  T
   4    -63.5951883 -0.198855E+02  0.127E+01    0.09       1.0  T
   5    -96.8406041 -0.332454E+02  0.840E+00    0.02       1.0  T
   6    -99.3664296 -0.252583E+01  0.747E+00    0.09       1.0  T
   7    -98.0830848  0.128334E+01  0.732E+00    0.04       1.0  T
   8   -103.6268451 -0.554376E+01  0.579E+00    0.09       1.0  T
   9   -104.4048915 -0.778046E+00  0.504E+00    0.03       1.0  T
  10   -105.5949274 -0.119004E+01  0.458E+00    0.02       1.0  T
  11   -105.9744528 -0.379525E+00  0.402E+00    0.04       1.0  T
  12   -105.7057228  0.268730E+00  0.392E+00    0.02       1.0  T
  13   -106.3043733 -0.598650E+00  0.353E+00    0.11       1.0  T
  14   -106.9515094 -0.647136E+00  0.278E+00    0.02       1.0  T
  15   -107.0810664 -0.129557E+00  0.254E+00    0.08       1.0  T
  16   -107.1153972 -0.343308E-01  0.228E+00    0.00       1.0  T
  17   -107.0254774  0.899198E-01  0.235E+00    0.07       1.0  T
  18   -106.7145137  0.310964E+00  0.218E+00    0.01       1.0  T
  19   -107.0259491 -0.311435E+00  0.186E+00    0.03       1.0  T
  20   -107.2096482 -0.183699E+00  0.128E+00    0.04       1.0  T
  21   -106.9112543  0.298394E+00  0.195E+00    0.06       1.0  T
  22   -107.1952849 -0.284031E+00  0.125E+00    0.02       1.0  T
  23   -107.1386310  0.566539E-01  0.138E+00    0.01       1.0  T
  24   -107.0860946  0.525363E-01  0.148E+00    0.02       1.0  T
  25   -107.1536724 -0.675777E-01  0.126E+00    0.02       1.0  T
  26   -107.2588022 -0.105130E+00  0.867E-01    0.01       1.0  T
  27   -107.3053077 -0.465056E-01  0.640E-01    0.02       1.0  T
  28   -107.1547291  0.150579E+00  0.117E+00    0.00       1.0  T
  29   -107.2366712 -0.819421E-01  0.868E-01    0.02       1.0  T
  30   -107.2868748 -0.502036E-01  0.636E-01    0.01       1.0  T
  31   -107.3116161 -0.247413E-01  0.437E-01    0.02       1.0  T
  32   -107.3215528 -0.993663E-02  0.328E-01    0.02       1.0  T
  33   -107.3256117 -0.405890E-02  0.290E-01    0.02       1.0  T
  34   -107.3273757 -0.176400E-02  0.226E-01    0.02       1.0  T
  35   -107.3308115 -0.343582E-02  0.151E-01    0.02       1.0  T
  36   -107.3270440  0.376750E-02  0.214E-01    0.02       1.0  T
  37   -107.3314151 -0.437112E-02  0.121E-01    0.02       1.0  T
  38   -107.3300389  0.137624E-02  0.157E-01    0.02       1.0  T
  39   -107.3327699 -0.273100E-02  0.765E-02    0.01       1.0  T
  40   -107.3331472 -0.377351E-03  0.538E-02    0.01       1.0  T
  41   -107.3325268  0.620424E-03  0.867E-02    0.01       1.0  T
  42   -107.3327414 -0.214625E-03  0.748E-02    0.01       1.0  T
  43   -107.3333082 -0.566749E-03  0.318E-02    0.01       1.0  T
  44   -107.3333378 -0.296378E-04  0.279E-02    0.01       1.0  T
  45   -107.3333617 -0.238669E-04  0.237E-02    0.01       1.0  T
  46   -107.3334250 -0.633418E-04  0.934E-03    0.01       1.6  T
  47   -107.3334315 -0.645550E-05  0.542E-03    0.01       2.7  T
  48   -107.3334340 -0.257855E-05  0.302E-03    0.01       4.9  T
  49   -107.3334338  0.278219E-06  0.325E-03    0.01       4.6  T
  50   -107.3334345 -0.774159E-06  0.193E-03    0.01       7.7  T
  51   -107.3334346 -0.260376E-07  0.174E-03    0.01       8.6  T
  52   -107.3334348 -0.223241E-06  0.902E-04    0.01      16.5  T
  53   -107.3334348 -0.784027E-08  0.708E-04    0.01      21.0  T

   *** convergence criteria satisfied after 53 iterations ***

         #    Occupation            Energy/Eh            Energy/eV
      -------------------------------------------------------------
         1        2.0000           -0.7677432             -20.8914
       ...           ...                  ...                  ...
        91        1.9999           -0.4314308             -11.7398
        92        1.9974           -0.4278528             -11.6425
        93        1.9382           -0.4248168             -11.5599
        94        1.8191           -0.4237354             -11.5304
        95        1.7647           -0.4234571             -11.5229
        96        1.6152           -0.4229054             -11.5078
        97        1.4118           -0.4223745             -11.4934 (HOMO)
        98        1.2426           -0.4220131             -11.4836 (LUMO)
        99        0.1921           -0.4194130             -11.4128
       100        0.0156           -0.4169414             -11.3456
       101        0.0025           -0.4151850             -11.2978
       102        0.0008           -0.4140621             -11.2672
       ...           ...                  ...                  ...
       180                          0.6341697              17.2566
      -------------------------------------------------------------
                  HL-Gap            0.0003614 Eh            0.0098 eV
             Fermi-level           -0.4215427 Eh          -11.4708 eV

 SCC (total)                   0 d,  0 h,  0 min,  1.459 sec
 SCC setup                      ...        0 min,  0.000 sec (  0.027%)
 Dispersion                     ...        0 min,  0.002 sec (  0.136%)
 classical contributions        ...        0 min,  0.001 sec (  0.055%)
 integral evaluation            ...        0 min,  0.011 sec (  0.781%)
 iterations                     ...        0 min,  1.393 sec ( 95.475%)
 molecular gradient             ...        0 min,  0.047 sec (  3.212%)
 printout                       ...        0 min,  0.005 sec (  0.310%)

         :::::::::::::::::::::::::::::::::::::::::::::::::::::
         ::                     SUMMARY                     ::
         :::::::::::::::::::::::::::::::::::::::::::::::::::::
         :: total energy            -106.131014756458 Eh    ::
         :: gradient norm              0.581221925910 Eh/a0 ::
         :: HOMO-LUMO gap              0.009834802977 eV    ::
         ::.................................................::
         :: SCC energy              -107.333434800951 Eh    ::
         :: -> isotropic ES            0.055962215201 Eh    ::
         :: -> anisotropic ES          0.012260362621 Eh    ::
         :: -> anisotropic XC          0.063327680806 Eh    ::
         :: -> dispersion             -0.071621885901 Eh    ::
         :: repulsion energy           1.199895618530 Eh    ::
         :: add. restraining           0.000000000000 Eh    ::
         :: total charge               0.000000000001 e     ::
         :::::::::::::::::::::::::::::::::::::::::::::::::::::

           -------------------------------------------------
          |                Property Printout                |
           -------------------------------------------------

    * Orbital Energies and Occupations

         #    Occupation            Energy/Eh            Energy/eV
      -------------------------------------------------------------
         1        2.0000           -0.7677432             -20.8914
       ...           ...                  ...                  ...
        85        2.0000           -0.4443325             -12.0909
        86        2.0000           -0.4409073             -11.9977
        87        2.0000           -0.4390197             -11.9463
        88        2.0000           -0.4376188             -11.9082
        89        2.0000           -0.4373148             -11.8999
        90        2.0000           -0.4333555             -11.7922
        91        1.9999           -0.4314308             -11.7398
        92        1.9974           -0.4278528             -11.6425
        93        1.9382           -0.4248168             -11.5599
        94        1.8191           -0.4237354             -11.5304
        95        1.7647           -0.4234571             -11.5229
        96        1.6152           -0.4229054             -11.5078
        97        1.4118           -0.4223745             -11.4934 (HOMO)
        98        1.2426           -0.4220131             -11.4836 (LUMO)
        99        0.1921           -0.4194130             -11.4128
       100        0.0156           -0.4169414             -11.3456
       101        0.0025           -0.4151850             -11.2978
       102        0.0008           -0.4140621             -11.2672
       103        0.0000           -0.4084240             -11.1138
       104        0.0000           -0.4082771             -11.1098
       105        0.0000           -0.4066989             -11.0668
       106                         -0.3973814             -10.8133
       107                         -0.3867477             -10.5239
       108                         -0.3685930             -10.0299
       ...                                ...                  ...
       180                          0.6341697              17.2566
      -------------------------------------------------------------
                  HL-Gap            0.0003614 Eh            0.0098 eV
             Fermi-level           -0.4215427 Eh          -11.4708 eV

     #   Z          covCN         q      C6AA      α(0)
     1   6 C        0.981    -0.066    37.961    10.349
     2   6 C        3.161     0.087    25.753     8.295
     3   6 C        2.041    -0.046    32.228     9.169
     4   6 C        3.327     0.105    23.577     7.711
     5   6 C        2.750     0.304    21.841     7.653
     6   8 O        0.857    -0.318    20.117     6.014
     7   7 N        1.827    -0.126    24.508     7.336
     8   6 C        1.888     0.074    29.252     8.735
     9   6 C        1.900    -0.005    31.237     9.026
    10   7 N        2.721     0.094    19.619     6.578
    11   6 C        1.903    -0.056    32.629     9.225
    12   6 C        1.841     0.056    29.722     8.807
    13   8 O        1.695    -0.118    16.093     5.416
    14   6 C        1.840     0.031    30.357     8.901
    15   6 C        1.896    -0.037    32.102     9.151
    16   7 N        1.870    -0.174    25.573     7.496
    17   6 C        3.201     0.136    24.518     8.069
    18   6 C        1.977     0.003    30.993     8.990
    19   6 C        2.968     0.010    27.800     8.648
    20   6 C        2.836     0.306    21.814     7.654
    21   8 O        0.856    -0.300    19.790     5.964
    22   7 N        1.875    -0.242    27.172     7.727
    23   6 C        3.046     0.199    23.731     7.990
    24   7 N        1.830    -0.142    24.848     7.387
    25   6 C        1.988     0.166    27.052     8.400
    26   7 N        1.839    -0.158    25.211     7.441
    27   6 C        2.898     0.192    23.910     8.017
    28   7 N        1.832    -0.166    25.389     7.467
    29   6 C        2.892     0.139    24.976     8.194
    30   6 C        1.991    -0.040    32.105     9.150
    31   6 C        1.979    -0.048    32.361     9.187
    32   6 C        3.058     0.066    26.474     8.438
    33   6 C        3.096     0.041    26.961     8.510
    34   6 C        2.093    -0.014    31.262     9.033
    35   6 C        2.062    -0.017    31.408     9.053
    36   7 N        2.839     0.087    19.730     6.597
    37   6 C        1.894    -0.001    31.143     9.013
    38   6 C        2.960     0.072    26.382     8.425
    39   6 C        1.990    -0.026    31.745     9.099
    40   6 C        1.985    -0.004    31.164     9.015
    41   6 C        1.987     0.034    30.172     8.871
    42   6 C        1.985    -0.000    31.056     9.000
    43   6 C        1.990    -0.021    31.605     9.079
    44   6 C        1.990    -0.059    32.651     9.228
    45   6 C        3.037    -0.019    28.447     8.748

 Mol. C6AA /au·bohr⁶  :      55001.437842
 Mol. C8AA /au·bohr⁸  :    1496537.508404
 Mol. α(0) /au        :        372.255830


Wiberg/Mayer (AO) data.
largest (>0.10) Wiberg bond orders for each atom

 ---------------------------------------------------------------------------
     #   Z sym  total        # sym  WBO       # sym  WBO       # sym  WBO
 ---------------------------------------------------------------------------
     1   6 C    2.338 --     2 C    1.608     3 C    0.382    16 N    0.152
                            17 C    0.103
     2   6 C    3.967 --     1 C    1.608     3 C    1.331    17 C    0.937
     3   6 C    3.044 --     2 C    1.331     4 C    1.142     1 C    0.382
     4   6 C    3.899 --    16 N    1.522     3 C    1.142     5 C    0.960
                            18 C    0.114
     5   6 C    3.927 --     6 O    1.725     7 N    1.152     4 C    0.960
     6   8 O    2.062 --     5 C    1.725     7 N    0.104
     7   7 N    3.321 --     8 C    1.694     5 C    1.152     9 C    0.134
                             6 O    0.104
     8   6 C    3.558 --     7 N    1.694     9 C    1.425    12 C    0.113
     9   6 C    3.337 --     8 C    1.425    10 N    1.239    15 C    0.201
                             7 N    0.134
    10   7 N    3.625 --     9 C    1.239    15 C    1.102    11 C    1.041
    11   6 C    2.985 --    12 C    1.549    10 N    1.041    15 C    0.167
    12   6 C    3.185 --    11 C    1.549    13 O    1.167    15 C    0.114
                             8 C    0.113
    13   8 O    2.479 --    12 C    1.167    14 C    1.138
    14   6 C    2.860 --    15 C    1.414    13 O    1.138
    15   6 C    3.155 --    14 C    1.414    10 N    1.102     9 C    0.201
                            11 C    0.167    12 C    0.114
    16   7 N    3.077 --     4 C    1.522    17 C    1.173     1 C    0.152
    17   6 C    3.939 --    18 C    1.589    16 N    1.173     2 C    0.937
                             1 C    0.103
    18   6 C    3.792 --    19 C    1.636    17 C    1.589     4 C    0.114
    19   6 C    3.832 --    18 C    1.636    45 C    1.049    20 C    0.837
    20   6 C    3.932 --    21 O    1.752    22 N    1.216    19 C    0.837
Note: The following floating-point exceptions are signalling: IEEE_UNDERFLOW_FLAG IEEE_DENORMAL
normal termination of xtb
    21   8 O    2.121 --    20 C    1.752    22 N    0.142
    22   7 N    3.002 --    23 C    1.270    20 C    1.216    21 O    0.142
    23   6 C    3.940 --    22 N    1.270    24 N    1.239    45 C    1.212
    24   7 N    3.171 --    25 C    1.593    23 C    1.239
    25   6 C    3.674 --    26 N    1.631    24 N    1.593    28 N    0.156
                            45 C    0.111
    26   7 N    3.167 --    25 C    1.631    27 C    1.193
    27   6 C    3.947 --    45 C    1.329    28 N    1.214    26 N    1.193
    28   7 N    3.121 --    29 C    1.273    27 C    1.214    25 C    0.156
    29   6 C    3.932 --    28 N    1.273    30 C    1.253    44 C    1.221
    30   6 C    3.772 --    31 C    1.679    29 C    1.253    44 C    0.283
                            35 C    0.167
    31   6 C    3.735 --    30 C    1.679    32 C    1.335    34 C    0.198
                            44 C    0.172
    32   6 C    3.881 --    31 C    1.335    36 N    1.112    33 C    1.101
    33   6 C    3.939 --    44 C    1.429    34 C    1.166    32 C    1.101
    34   6 C    3.631 --    35 C    1.818    33 C    1.166    31 C    0.198
                            37 C    0.152
    35   6 C    3.538 --    34 C    1.818    36 N    1.152    30 C    0.167
    36   7 N    3.617 --    35 C    1.152    37 C    1.133    32 C    1.112
    37   6 C    3.146 --    36 N    1.133    38 C    1.048    34 C    0.152
                            43 C    0.121    40 C    0.116    39 C    0.112
                            44 C    0.108
    38   6 C    3.891 --    43 C    1.319    39 C    1.318    37 C    1.048
                            41 C    0.108
    39   6 C    3.565 --    40 C    1.564    38 C    1.318    42 C    0.223
                            41 C    0.173    37 C    0.112    43 C    0.112
    40   6 C    3.646 --    41 C    1.615    39 C    1.564    43 C    0.219
                            37 C    0.116
    41   6 C    3.742 --    42 C    1.629    40 C    1.615    43 C    0.174
                            39 C    0.173    38 C    0.108
    42   6 C    3.622 --    41 C    1.629    43 C    1.571    39 C    0.223
    43   6 C    3.606 --    42 C    1.571    38 C    1.319    40 C    0.219
                            41 C    0.174    37 C    0.121    39 C    0.112
    44   6 C    3.434 --    33 C    1.429    29 C    1.221    30 C    0.283
                            31 C    0.172    37 C    0.108
    45   6 C    3.919 --    27 C    1.329    23 C    1.212    19 C    1.049
                            25 C    0.111
 ---------------------------------------------------------------------------

Topologies differ in total number of bonds
Writing topology from bond orders to xtbtopo.mol

molecular dipole:
                 x           y           z       tot (Debye)
 q only:        0.490       2.180      -0.977
   full:        0.851       2.241      -0.881       6.492
molecular quadrupole (traceless):
                xx          xy          yy          xz          yz          zz
 q only:        8.391       7.915     -12.716       8.774      -1.155       4.325
  q+dip:        8.756       2.992     -19.038      12.521       1.342      10.282
   full:        5.613       3.522     -15.878      12.856      -3.563      10.265


           -------------------------------------------------
          | TOTAL ENERGY             -106.131014756458 Eh   |
          | GRADIENT NORM               0.581221925910 Eh/α |
          | HOMO-LUMO GAP               0.009834802977 eV   |
           -------------------------------------------------

------------------------------------------------------------------------
 * finished run on 2026/07/23 at 16:37:45.192     
------------------------------------------------------------------------
 total:
 * wall-time:     0 d,  0 h,  0 min,  1.480 sec
 *  cpu-time:     0 d,  0 h,  0 min,  1.495 sec
 * ratio c/w:     1.010 speedup
 SCF:
 * wall-time:     0 d,  0 h,  0 min,  1.460 sec
 *  cpu-time:     0 d,  0 h,  0 min,  1.463 sec
 * ratio c/w:     1.002 speedup

