      -----------------------------------------------------------      
     |                   =====================                   |     
     |                           x T B                           |     
     |                   =====================                   |     
     |                         S. Grimme                         |     
     |          Mulliken Center for Theoretical Chemistry        |     
     |                    University of Bonn                     |     
      -----------------------------------------------------------      

   * xtb version 6.6.1 (unknown) compiled by 'builduser@buildhost' on 2023-08-07

   xtb is free software: you can redistribute it and/or modify it under
   the terms of the GNU Lesser General Public License as published by
   the Free Software Foundation, either version 3 of the License, or
   (at your option) any later version.
   
   xtb is distributed in the hope that it will be useful,
   but WITHOUT ANY WARRANTY; without even the implied warranty of
   MERCHANTABILITY or FITNESS FOR A PARTICULAR PURPOSE.  See the
   GNU Lesser General Public License for more details.
   
   Cite this work as:
   * C. Bannwarth, E. Caldeweyher, S. Ehlert, A. Hansen, P. Pracht,
     J. Seibert, S. Spicher, S. Grimme, WIREs Comput. Mol. Sci., 2020, 11,
     e01493. DOI: 10.1002/wcms.1493
   
   for GFN2-xTB:
   * C. Bannwarth, S. Ehlert and S. Grimme., J. Chem. Theory Comput., 2019,
     15, 1652-1671. DOI: 10.1021/acs.jctc.8b01176
   for GFN1-xTB:
   * S. Grimme, C. Bannwarth, P. Shushkov, J. Chem. Theory Comput., 2017,
     13, 1989-2009. DOI: 10.1021/acs.jctc.7b00118
   for GFN0-xTB:
   * P. Pracht, E. Caldeweyher, S. Ehlert, S. Grimme, ChemRxiv, 2019, preprint.
     DOI: 10.26434/chemrxiv.8326202.v1
   for GFN-FF:
   * S. Spicher and S. Grimme, Angew. Chem. Int. Ed., 2020, 59, 15665-15673.
     DOI: 10.1002/anie.202004239
   
   for ALPB and GBSA implicit solvation:
   * S. Ehlert, M. Stahn, S. Spicher, S. Grimme, J. Chem. Theory Comput.,
     2021, 17, 4250-4261. DOI: 10.1021/acs.jctc.1c00471
   
   for DFT-D4:
   * E. Caldeweyher, C. Bannwarth and S. Grimme, J. Chem. Phys., 2017,
     147, 034112. DOI: 10.1063/1.4993215
   * E. Caldeweyher, S. Ehlert, A. Hansen, H. Neugebauer, S. Spicher,
     C. Bannwarth and S. Grimme, J. Chem. Phys., 2019, 150, 154122.
     DOI: 10.1063/1.5090222
   * E. Caldeweyher, J.-M. Mewes, S. Ehlert and S. Grimme, Phys. Chem. Chem. Phys.
     2020, 22, 8499-8512. DOI: 10.1039/D0CP00502A
   
   for sTDA-xTB:
   * S. Grimme and C. Bannwarth, J. Chem. Phys., 2016, 145, 054103.
     DOI: 10.1063/1.4959605
   
   in the mass-spec context:
   * V. Asgeirsson, C. Bauer and S. Grimme, Chem. Sci., 2017, 8, 4879.
     DOI: 10.1039/c7sc00601b
   * J. Koopman and S. Grimme, ACS Omega 2019, 4, 12, 15120-15133.
     DOI: 10.1021/acsomega.9b02011
   
   for metadynamics refer to:
   * S. Grimme, J. Chem. Theory Comput., 2019, 155, 2847-2862
     DOI: 10.1021/acs.jctc.9b00143
   
   for SPH calculations refer to:
   * S. Spicher and S. Grimme, J. Chem. Theory Comput., 2021, 17, 1701-1714
     DOI: 10.1021/acs.jctc.0c01306
   
   with help from (in alphabetical order)
   P. Atkinson, C. Bannwarth, F. Bohle, G. Brandenburg, E. Caldeweyher
   M. Checinski, S. Dohm, S. Ehlert, S. Ehrlich, I. Gerasimov, C. Hölzer
   A. Katbashev, J. Koopman, C. Lavigne, S. Lehtola, F. März, M. Müller,
   F. Musil, H. Neugebauer, J. Pisarek, C. Plett, P. Pracht, F. Pultar,
   J. Seibert, P. Shushkov, S. Spicher, M. Stahn, M. Steiner, T. Strunk,
   J. Stückrath, T. Rose, and J. Unsleber
   
 * started run on 2026/07/23 at 16:39:13.596     

           -------------------------------------------------
          |                Calculation Setup                |
           -------------------------------------------------

          program call               : xtb /home/selva/covalent_quantum_benchmark/data/quantum/erbB_xyz/EGFR__CHEMBL69629__state02.xyz --gfn2 --chrg 0 --uhf 0 --iterations 300
          coordinate file            : /home/selva/covalent_quantum_benchmark/data/quantum/erbB_xyz/EGFR__CHEMBL69629__state02.xyz
          omp threads                :                    24

   ID    Z sym.   atoms
    1    6 C      1-5, 8, 9, 11, 12, 14, 15, 17-20, 23, 25, 27, 29-32, 34,
                  36, 37
    2    8 O      6, 13, 21
    3    7 N      7, 10, 16, 22, 24, 26, 28
    4    9 F      33
    5   17 Cl     35

           -------------------------------------------------
          |                 G F N 2 - x T B                 |
           -------------------------------------------------

        Reference                      10.1021/acs.jctc.8b01176
      * Hamiltonian:
        H0-scaling (s, p, d)           1.850000    2.230000    2.230000
        zeta-weighting                 0.500000
      * Dispersion:
        s8                             2.700000
        a1                             0.520000
        a2                             5.000000
        s9                             5.000000
      * Repulsion:
        kExp                           1.500000    1.000000
        rExp                           1.000000
      * Coulomb:
        alpha                          2.000000
        third order                    shell-resolved
        anisotropic                    true
        a3                             3.000000
        a5                             4.000000
        cn-shift                       1.200000
        cn-exp                         4.000000
        max-rad                        5.000000


          ...................................................
          :                      SETUP                      :
          :.................................................:
          :  # basis functions                 154          :
          :  # atomic orbitals                 153          :
          :  # shells                           75          :
          :  # electrons                       167          :
          :  max. iterations                   300          :
          :  Hamiltonian                  GFN2-xTB          :
          :  restarted?                      false          :
          :  GBSA solvation                  false          :
          :  PC potential                    false          :
          :  electronic temp.          300.0000000     K    :
          :  accuracy                    1.0000000          :
          :  -> integral cutoff          0.2500000E+02      :
          :  -> integral neglect         0.1000000E-07      :
          :  -> SCF convergence          0.1000000E-05 Eh   :
          :  -> wf. convergence          0.1000000E-03 e    :
          :  Broyden damping             0.4000000          :
          ...................................................

 iter      E             dE          RMSdq      gap      omega  full diag
   1    -94.0949336 -0.940949E+02  0.822E+00    0.22       0.0  T
   2    -86.2207720  0.787416E+01  0.100E+01    0.06       1.0  T
   3    -62.7531933  0.234676E+02  0.126E+01    0.25       1.0  T
   4    -65.5737685 -0.282058E+01  0.112E+01    0.06       1.0  T
   5    -85.3395682 -0.197658E+02  0.826E+00    0.23       1.0  T
   6    -93.5782706 -0.823870E+01  0.516E+00    0.16       1.0  T
   7    -89.7392689  0.383900E+01  0.593E+00    0.18       1.0  T
   8    -93.0780464 -0.333878E+01  0.450E+00    0.28       1.0  T
   9    -94.1051055 -0.102706E+01  0.379E+00    0.17       1.0  T
  10    -94.1089614 -0.385594E-02  0.331E+00    0.18       1.0  T
  11    -94.3213074 -0.212346E+00  0.292E+00    0.19       1.0  T
  12    -94.5246330 -0.203326E+00  0.222E+00    0.08       1.0  T
  13    -94.7029154 -0.178282E+00  0.190E+00    0.05       1.0  T
  14    -94.7513928 -0.484774E-01  0.161E+00    0.05       1.0  T
  15    -94.7178452  0.335476E-01  0.160E+00    0.05       1.0  T
  16    -94.7229006 -0.505548E-02  0.172E+00    0.01       1.0  T
  17    -94.7361393 -0.132387E-01  0.149E+00    0.02       1.0  T
  18    -94.7719335 -0.357942E-01  0.987E-01    0.02       1.0  T
  19    -94.7673856  0.454793E-02  0.969E-01    0.05       1.0  T
  20    -94.8138324 -0.464468E-01  0.575E-01    0.02       1.0  T
  21    -94.8242922 -0.104598E-01  0.548E-01    0.01       1.0  T
  22    -94.8258379 -0.154562E-02  0.452E-01    0.05       1.0  T
  23    -94.8230992  0.273869E-02  0.439E-01    0.04       1.0  T
  24    -94.8393080 -0.162088E-01  0.249E-01    0.03       1.0  T
  25    -94.8263102  0.129978E-01  0.426E-01    0.02       1.0  T
  26    -94.8358621 -0.955188E-02  0.281E-01    0.01       1.0  T
  27    -94.8425231 -0.666104E-02  0.147E-01    0.01       1.0  T
  28    -94.8406339  0.188921E-02  0.196E-01    0.03       1.0  T
  29    -94.8407925 -0.158624E-03  0.187E-01    0.03       1.0  T
  30    -94.8438987 -0.310619E-02  0.540E-02    0.02       1.0  T
  31    -94.8433287  0.569983E-03  0.876E-02    0.02       1.0  T
  32    -94.8438410 -0.512270E-03  0.492E-02    0.02       1.0  T
  33    -94.8440761 -0.235123E-03  0.206E-02    0.02       1.0  T
  34    -94.8440215  0.546190E-04  0.307E-02    0.02       1.0  T
  35    -94.8440174  0.412102E-05  0.291E-02    0.02       1.0  T
  36    -94.8440893 -0.719496E-04  0.123E-02    0.02       1.3  T
  37    -94.8440786  0.107513E-04  0.133E-02    0.02       1.2  T
  38    -94.8440847 -0.617115E-05  0.120E-02    0.02       1.4  T
  39    -94.8440977 -0.129345E-04  0.317E-03    0.02       5.2  T
  40    -94.8440959  0.176018E-05  0.542E-03    0.02       3.0  T
  41    -94.8440967 -0.779803E-06  0.430E-03    0.02       3.8  T
  42    -94.8440983 -0.163201E-05  0.120E-03    0.02      13.7  T
  43    -94.8440982  0.146638E-06  0.156E-03    0.02      10.5  T
  44    -94.8440983 -0.138328E-06  0.843E-04    0.02      19.5  T
  45    -94.8440984 -0.586677E-07  0.413E-04    0.02      39.8  T

   *** convergence criteria satisfied after 45 iterations ***

         #    Occupation            Energy/Eh            Energy/eV
      -------------------------------------------------------------
         1        2.0000           -1.0911776             -29.6925
       ...           ...                  ...                  ...
        78        2.0000           -0.4398777             -11.9697
        79        2.0000           -0.4356215             -11.8539
        80        1.9999           -0.4336036             -11.7990
        81        1.9983           -0.4306317             -11.7181
        82        1.8592           -0.4263659             -11.6020
        83        1.5950           -0.4251574             -11.5691
        84        0.8920           -0.4234609             -11.5230 (HOMO)
        85        0.5631           -0.4226883             -11.5019 (LUMO)
        86        0.0925           -0.4205946             -11.4450
        87        0.0000           -0.4111148             -11.1870
        88        0.0000           -0.4098472             -11.1525
        89                         -0.4059068             -11.0453
       ...                                ...                  ...
       153                          0.6740747              18.3425
      -------------------------------------------------------------
                  HL-Gap            0.0007726 Eh            0.0210 eV
             Fermi-level           -0.4236971 Eh          -11.5294 eV

 SCC (total)                   0 d,  0 h,  0 min,  0.869 sec
 SCC setup                      ...        0 min,  0.000 sec (  0.046%)
 Dispersion                     ...        0 min,  0.001 sec (  0.156%)
 classical contributions        ...        0 min,  0.001 sec (  0.080%)
 integral evaluation            ...        0 min,  0.008 sec (  0.976%)
 iterations                     ...        0 min,  0.816 sec ( 93.957%)
 molecular gradient             ...        0 min,  0.030 sec (  3.502%)
 printout                       ...        0 min,  0.011 sec (  1.277%)

         :::::::::::::::::::::::::::::::::::::::::::::::::::::
         ::                     SUMMARY                     ::
         :::::::::::::::::::::::::::::::::::::::::::::::::::::
         :: total energy             -93.932535242031 Eh    ::
         :: gradient norm              0.574382847825 Eh/a0 ::
         :: HOMO-LUMO gap              0.021024238092 eV    ::
         ::.................................................::
         :: SCC energy               -94.844098381442 Eh    ::
         :: -> isotropic ES            0.079625237415 Eh    ::
         :: -> anisotropic ES          0.006439592795 Eh    ::
         :: -> anisotropic XC          0.044343401369 Eh    ::
         :: -> dispersion             -0.052630162938 Eh    ::
         :: repulsion energy           0.911990769433 Eh    ::
         :: add. restraining           0.000000000000 Eh    ::
         :: total charge              -0.000000000001 e     ::
         :::::::::::::::::::::::::::::::::::::::::::::::::::::

           -------------------------------------------------
          |                Property Printout                |
           -------------------------------------------------

    * Orbital Energies and Occupations

         #    Occupation            Energy/Eh            Energy/eV
      -------------------------------------------------------------
         1        2.0000           -1.0911776             -29.6925
       ...           ...                  ...                  ...
        72        2.0000           -0.4648117             -12.6482
        73        2.0000           -0.4573341             -12.4447
        74        2.0000           -0.4545422             -12.3687
        75        2.0000           -0.4518452             -12.2953
        76        2.0000           -0.4493904             -12.2285
        77        2.0000           -0.4437311             -12.0745
        78        2.0000           -0.4398777             -11.9697
        79        2.0000           -0.4356215             -11.8539
        80        1.9999           -0.4336036             -11.7990
        81        1.9983           -0.4306317             -11.7181
        82        1.8592           -0.4263659             -11.6020
        83        1.5950           -0.4251574             -11.5691
        84        0.8920           -0.4234609             -11.5230 (HOMO)
        85        0.5631           -0.4226883             -11.5019 (LUMO)
        86        0.0925           -0.4205946             -11.4450
        87        0.0000           -0.4111148             -11.1870
        88        0.0000           -0.4098472             -11.1525
        89                         -0.4059068             -11.0453
        90                         -0.3975654             -10.8183
        91                         -0.3863613             -10.5134
        92                         -0.3739069             -10.1745
        93                         -0.3615462              -9.8382
        94                         -0.3551669              -9.6646
        95                         -0.3538084              -9.6276
       ...                                ...                  ...
       153                          0.6740747              18.3425
      -------------------------------------------------------------
                  HL-Gap            0.0007726 Eh            0.0210 eV
             Fermi-level           -0.4236971 Eh          -11.5294 eV

     #   Z          covCN         q      C6AA      α(0)
     1   6 C        0.980    -0.067    38.003    10.354
     2   6 C        3.017     0.085    26.088     8.378
     3   6 C        2.185     0.003    30.465     8.928
     4   6 C        3.202     0.100    25.243     8.186
     5   6 C        2.756     0.277    22.320     7.736
     6   8 O        0.854    -0.402    21.725     6.249
     7   7 N        1.823    -0.093    23.797     7.228
     8   6 C        1.883     0.061    29.569     8.783
     9   6 C        1.897     0.003    31.027     8.996
    10   7 N        2.719     0.127    19.080     6.488
    11   6 C        1.903    -0.033    31.988     9.134
    12   6 C        1.855     0.049    29.894     8.832
    13   8 O        1.695    -0.087    15.649     5.341
    14   6 C        1.855     0.051    29.851     8.825
    15   6 C        1.906    -0.013    31.452     9.057
    16   7 N        1.869    -0.174    25.566     7.495
    17   6 C        3.324     0.153    22.712     7.576
    18   6 C        1.969     0.004    30.961     8.986
    19   6 C        3.037     0.028    27.331     8.575
    20   6 C        2.826     0.310    21.750     7.642
    21   8 O        0.856    -0.300    19.785     5.964
    22   7 N        1.885    -0.216    26.557     7.640
    23   6 C        3.077     0.195    23.782     7.995
    24   7 N        1.830    -0.151    25.061     7.418
    25   6 C        1.980     0.167    27.051     8.399
    26   7 N        1.836    -0.165    25.363     7.463
    27   6 C        2.879     0.187    24.008     8.033
    28   7 N        1.831    -0.149    25.006     7.410
    29   6 C        2.891     0.139    24.958     8.191
    30   6 C        1.992    -0.039    32.102     9.150
    31   6 C        1.987    -0.032    31.908     9.122
    32   6 C        2.806     0.193    23.888     8.007
    33   9 F        0.787    -0.155    10.777     3.878
    34   6 C        2.877     0.090    26.001     8.359
    35  17 Cl       0.962    -0.067   101.260    15.395
    36   6 C        2.030    -0.065    32.758     9.244
    37   6 C        3.017    -0.015    28.357     8.735

 Mol. C6AA /au·bohr⁶  :      37176.585528
 Mol. C8AA /au·bohr⁸  :    1017984.436764
 Mol. α(0) /au        :        303.192957


Wiberg/Mayer (AO) data.
largest (>0.10) Wiberg bond orders for each atom

 ---------------------------------------------------------------------------
     #   Z sym  total        # sym  WBO       # sym  WBO       # sym  WBO
 ---------------------------------------------------------------------------
     1   6 C    2.273 --     2 C    1.621     3 C    0.209    16 N    0.151
                            17 C    0.107
     2   6 C    3.962 --     1 C    1.621     3 C    1.344    17 C    0.890
     3   6 C    3.211 --     2 C    1.344     4 C    1.272     1 C    0.209
                            18 C    0.116
     4   6 C    3.919 --     3 C    1.272     5 C    1.206    16 N    1.188
     5   6 C    3.943 --     6 O    1.488     4 C    1.206     7 N    1.135
     6   8 O    1.954 --     5 C    1.488     8 C    0.116     7 N    0.102
     7   7 N    3.236 --     8 C    1.717     5 C    1.135     9 C    0.135
                             6 O    0.102
     8   6 C    3.616 --     7 N    1.717     9 C    1.505     6 O    0.116
     9   6 C    3.314 --     8 C    1.505    10 N    1.221     7 N    0.135
                            12 C    0.113
    10   7 N    3.640 --     9 C    1.221    15 C    1.116    11 C    1.106
    11   6 C    3.101 --    12 C    1.421    10 N    1.106    14 C    0.225
                            15 C    0.153
    12   6 C    3.200 --    11 C    1.421    13 O    1.134    15 C    0.234
                            14 C    0.203     9 C    0.113
    13   8 O    2.457 --    12 C    1.134    14 C    1.128
    14   6 C    3.200 --    15 C    1.436    13 O    1.128    11 C    0.225
                            12 C    0.203
    15   6 C    3.203 --    14 C    1.436    10 N    1.116    12 C    0.234
                            11 C    0.153
    16   7 N    3.067 --    17 C    1.515     4 C    1.188     1 C    0.151
    17   6 C    3.937 --    16 N    1.515    18 C    1.225     2 C    0.890
                             1 C    0.107
    18   6 C    3.745 --    19 C    1.839    17 C    1.225    22 N    0.166
                            21 O    0.137     3 C    0.116
    19   6 C    3.928 --    18 C    1.839    37 C    1.084    20 C    0.805
    20   6 C    3.930 --    21 O    1.736    22 N    1.255    19 C    0.805
    21   8 O    2.188 --    20 C    1.736    22 N    0.164    18 C    0.137
    22   7 N    3.092 --    20 C    1.255    23 C    1.234    18 C    0.166
                            21 O    0.164
    23   6 C    3.938 --    24 N    1.263    22 N    1.234    37 C    1.223
    24   7 N    3.149 --    25 C    1.569    23 C    1.263
    25   6 C    3.714 --    26 N    1.665    24 N    1.569    28 N    0.200
    26   7 N    3.183 --    25 C    1.665    27 C    1.168
    27   6 C    3.951 --    37 C    1.295    28 N    1.282    26 N    1.168
    28   7 N    3.098 --    27 C    1.282    29 C    1.241    25 C    0.200
    29   6 C    3.908 --    36 C    1.282    28 N    1.241    30 C    1.212
    30   6 C    3.631 --    31 C    1.720    29 C    1.212    36 C    0.370
Note: The following floating-point exceptions are signalling: IEEE_UNDERFLOW_FLAG IEEE_DENORMAL
normal termination of xtb
    31   6 C    3.459 --    30 C    1.720    32 C    1.363    36 C    0.153
    32   6 C    3.791 --    31 C    1.363    34 C    1.248    33 F    1.004
    33   9 F    1.153 --    32 C    1.004
    34   6 C    3.899 --    36 C    1.465    32 C    1.248    35 Cl   1.008
    35  17 Cl   1.189 --    34 C    1.008
    36   6 C    3.457 --    34 C    1.465    29 C    1.282    30 C    0.370
                            31 C    0.153
    37   6 C    3.868 --    27 C    1.295    23 C    1.223    19 C    1.084
 ---------------------------------------------------------------------------

Topologies differ in total number of bonds
Writing topology from bond orders to xtbtopo.mol

molecular dipole:
                 x           y           z       tot (Debye)
 q only:       -0.925       0.528       0.705
   full:       -1.332       0.543       1.307       4.941
molecular quadrupole (traceless):
                xx          xy          yy          xz          yz          zz
 q only:        5.872       7.858       8.066       8.768      -5.624     -13.938
  q+dip:        7.827       6.945      -2.087      -2.195      -5.375      -5.740
   full:        5.382       8.082       1.375      -0.287      -7.348      -6.757


           -------------------------------------------------
          | TOTAL ENERGY              -93.932535242031 Eh   |
          | GRADIENT NORM               0.574382847825 Eh/α |
          | HOMO-LUMO GAP               0.021024238092 eV   |
           -------------------------------------------------

------------------------------------------------------------------------
 * finished run on 2026/07/23 at 16:39:14.490     
------------------------------------------------------------------------
 total:
 * wall-time:     0 d,  0 h,  0 min,  0.893 sec
 *  cpu-time:     0 d,  0 h,  0 min,  0.843 sec
 * ratio c/w:     0.944 speedup
 SCF:
 * wall-time:     0 d,  0 h,  0 min,  0.869 sec
 *  cpu-time:     0 d,  0 h,  0 min,  0.814 sec
 * ratio c/w:     0.936 speedup

