      -----------------------------------------------------------      
     |                   =====================                   |     
     |                           x T B                           |     
     |                   =====================                   |     
     |                         S. Grimme                         |     
     |          Mulliken Center for Theoretical Chemistry        |     
     |                    University of Bonn                     |     
      -----------------------------------------------------------      

   * xtb version 6.6.1 (unknown) compiled by 'builduser@buildhost' on 2023-08-07

   xtb is free software: you can redistribute it and/or modify it under
   the terms of the GNU Lesser General Public License as published by
   the Free Software Foundation, either version 3 of the License, or
   (at your option) any later version.
   
   xtb is distributed in the hope that it will be useful,
   but WITHOUT ANY WARRANTY; without even the implied warranty of
   MERCHANTABILITY or FITNESS FOR A PARTICULAR PURPOSE.  See the
   GNU Lesser General Public License for more details.
   
   Cite this work as:
   * C. Bannwarth, E. Caldeweyher, S. Ehlert, A. Hansen, P. Pracht,
     J. Seibert, S. Spicher, S. Grimme, WIREs Comput. Mol. Sci., 2020, 11,
     e01493. DOI: 10.1002/wcms.1493
   
   for GFN2-xTB:
   * C. Bannwarth, S. Ehlert and S. Grimme., J. Chem. Theory Comput., 2019,
     15, 1652-1671. DOI: 10.1021/acs.jctc.8b01176
   for GFN1-xTB:
   * S. Grimme, C. Bannwarth, P. Shushkov, J. Chem. Theory Comput., 2017,
     13, 1989-2009. DOI: 10.1021/acs.jctc.7b00118
   for GFN0-xTB:
   * P. Pracht, E. Caldeweyher, S. Ehlert, S. Grimme, ChemRxiv, 2019, preprint.
     DOI: 10.26434/chemrxiv.8326202.v1
   for GFN-FF:
   * S. Spicher and S. Grimme, Angew. Chem. Int. Ed., 2020, 59, 15665-15673.
     DOI: 10.1002/anie.202004239
   
   for ALPB and GBSA implicit solvation:
   * S. Ehlert, M. Stahn, S. Spicher, S. Grimme, J. Chem. Theory Comput.,
     2021, 17, 4250-4261. DOI: 10.1021/acs.jctc.1c00471
   
   for DFT-D4:
   * E. Caldeweyher, C. Bannwarth and S. Grimme, J. Chem. Phys., 2017,
     147, 034112. DOI: 10.1063/1.4993215
   * E. Caldeweyher, S. Ehlert, A. Hansen, H. Neugebauer, S. Spicher,
     C. Bannwarth and S. Grimme, J. Chem. Phys., 2019, 150, 154122.
     DOI: 10.1063/1.5090222
   * E. Caldeweyher, J.-M. Mewes, S. Ehlert and S. Grimme, Phys. Chem. Chem. Phys.
     2020, 22, 8499-8512. DOI: 10.1039/D0CP00502A
   
   for sTDA-xTB:
   * S. Grimme and C. Bannwarth, J. Chem. Phys., 2016, 145, 054103.
     DOI: 10.1063/1.4959605
   
   in the mass-spec context:
   * V. Asgeirsson, C. Bauer and S. Grimme, Chem. Sci., 2017, 8, 4879.
     DOI: 10.1039/c7sc00601b
   * J. Koopman and S. Grimme, ACS Omega 2019, 4, 12, 15120-15133.
     DOI: 10.1021/acsomega.9b02011
   
   for metadynamics refer to:
   * S. Grimme, J. Chem. Theory Comput., 2019, 155, 2847-2862
     DOI: 10.1021/acs.jctc.9b00143
   
   for SPH calculations refer to:
   * S. Spicher and S. Grimme, J. Chem. Theory Comput., 2021, 17, 1701-1714
     DOI: 10.1021/acs.jctc.0c01306
   
   with help from (in alphabetical order)
   P. Atkinson, C. Bannwarth, F. Bohle, G. Brandenburg, E. Caldeweyher
   M. Checinski, S. Dohm, S. Ehlert, S. Ehrlich, I. Gerasimov, C. Hölzer
   A. Katbashev, J. Koopman, C. Lavigne, S. Lehtola, F. März, M. Müller,
   F. Musil, H. Neugebauer, J. Pisarek, C. Plett, P. Pracht, F. Pultar,
   J. Seibert, P. Shushkov, S. Spicher, M. Stahn, M. Steiner, T. Strunk,
   J. Stückrath, T. Rose, and J. Unsleber
   
 * started run on 2026/07/23 at 16:39:02.029     

           -------------------------------------------------
          |                Calculation Setup                |
           -------------------------------------------------

          program call               : xtb /home/selva/covalent_quantum_benchmark/data/quantum/erbB_xyz/EGFR__CHEMBL56319__state00.xyz --gfn2 --chrg 0 --uhf 0 --iterations 300
          coordinate file            : /home/selva/covalent_quantum_benchmark/data/quantum/erbB_xyz/EGFR__CHEMBL56319__state00.xyz
          omp threads                :                    24

   ID    Z sym.   atoms
    1    6 C      1, 2, 4, 6-13, 15, 17, 18, 20-24, 26, 28
    2    8 O      3, 5, 16, 25, 27
    3    7 N      14, 19

           -------------------------------------------------
          |                 G F N 2 - x T B                 |
           -------------------------------------------------

        Reference                      10.1021/acs.jctc.8b01176
      * Hamiltonian:
        H0-scaling (s, p, d)           1.850000    2.230000    2.230000
        zeta-weighting                 0.500000
      * Dispersion:
        s8                             2.700000
        a1                             0.520000
        a2                             5.000000
        s9                             5.000000
      * Repulsion:
        kExp                           1.500000    1.000000
        rExp                           1.000000
      * Coulomb:
        alpha                          2.000000
        third order                    shell-resolved
        anisotropic                    true
        a3                             3.000000
        a5                             4.000000
        cn-shift                       1.200000
        cn-exp                         4.000000
        max-rad                        5.000000


          ...................................................
          :                      SETUP                      :
          :.................................................:
          :  # basis functions                 112          :
          :  # atomic orbitals                 112          :
          :  # shells                           56          :
          :  # electrons                       124          :
          :  max. iterations                   300          :
          :  Hamiltonian                  GFN2-xTB          :
          :  restarted?                      false          :
          :  GBSA solvation                  false          :
          :  PC potential                    false          :
          :  electronic temp.          300.0000000     K    :
          :  accuracy                    1.0000000          :
          :  -> integral cutoff          0.2500000E+02      :
          :  -> integral neglect         0.1000000E-07      :
          :  -> SCF convergence          0.1000000E-05 Eh   :
          :  -> wf. convergence          0.1000000E-03 e    :
          :  Broyden damping             0.4000000          :
          ...................................................

 iter      E             dE          RMSdq      gap      omega  full diag
   1    -69.3339012 -0.693339E+02  0.914E+00    0.15       0.0  T
   2    -39.4426336  0.298913E+02  0.156E+01    0.17       1.0  T
   3    -46.3201177 -0.687748E+01  0.135E+01    0.32       1.0  T
   4    -61.2216253 -0.149015E+02  0.103E+01    0.21       1.0  T
   5    -56.7177259  0.450390E+01  0.104E+01    0.13       1.0  T
   6    -66.3822785 -0.966455E+01  0.724E+00    0.06       1.0  T
   7    -68.6238379 -0.224156E+01  0.590E+00    0.06       1.0  T
   8    -69.4203517 -0.796514E+00  0.434E+00    0.04       1.0  T
   9    -69.1267411  0.293611E+00  0.462E+00    0.14       1.0  T
  10    -69.5225884 -0.395847E+00  0.387E+00    0.12       1.0  T
  11    -70.0584412 -0.535853E+00  0.295E+00    0.07       1.0  T
  12    -69.8012358  0.257205E+00  0.326E+00    0.07       1.0  T
  13    -70.1677437 -0.366508E+00  0.255E+00    0.01       1.0  T
  14    -70.2613373 -0.935936E-01  0.233E+00    0.02       1.0  T
  15    -70.1575193  0.103818E+00  0.289E+00    0.08       1.0  T
  16    -70.2209073 -0.633880E-01  0.279E+00    0.05       1.0  T
  17    -70.2433173 -0.224100E-01  0.213E+00    0.01       1.0  T
  18    -70.2341002  0.921709E-02  0.213E+00    0.08       1.0  T
  19    -70.3314876 -0.973873E-01  0.183E+00    0.09       1.0  T
  20    -70.3612066 -0.297190E-01  0.173E+00    0.06       1.0  T
  21    -70.3575033  0.370328E-02  0.175E+00    0.06       1.0  T
  22    -70.3415960  0.159074E-01  0.161E+00    0.06       1.0  T
  23    -70.4457276 -0.104132E+00  0.786E-01    0.03       1.0  T
  24    -70.4649145 -0.191870E-01  0.674E-01    0.03       1.0  T
  25    -70.4801773 -0.152628E-01  0.357E-01    0.02       1.0  T
  26    -70.4836750 -0.349764E-02  0.283E-01    0.02       1.0  T
  27    -70.4814263  0.224863E-02  0.337E-01    0.02       1.0  T
  28    -70.4827076 -0.128123E-02  0.291E-01    0.02       1.0  T
  29    -70.4819886  0.718975E-03  0.267E-01    0.02       1.0  T
  30    -70.4816982  0.290433E-03  0.277E-01    0.01       1.0  T
  31    -70.4852209 -0.352276E-02  0.175E-01    0.02       1.0  T
  32    -70.4864107 -0.118973E-02  0.149E-01    0.02       1.0  T
  33    -70.4871749 -0.764215E-03  0.104E-01    0.02       1.0  T
  34    -70.4870333  0.141579E-03  0.108E-01    0.02       1.0  T
  35    -70.4876418 -0.608505E-03  0.385E-02    0.02       1.0  T
  36    -70.4876240  0.177892E-04  0.394E-02    0.01       1.0  T
  37    -70.4876802 -0.561935E-04  0.286E-02    0.01       1.0  T
  38    -70.4876508  0.293751E-04  0.358E-02    0.01       1.0  T
  39    -70.4877321 -0.812907E-04  0.986E-03    0.01       1.9  T
  40    -70.4877393 -0.720852E-05  0.270E-03    0.01       7.0  T
  41    -70.4877394 -0.243187E-07  0.214E-03    0.01       8.8  T
  42    -70.4877395 -0.190462E-06  0.126E-03    0.01      15.0  T
  43    -70.4877396 -0.631274E-07  0.111E-03    0.01      17.0  T
  44    -70.4877396 -0.241212E-07  0.807E-04    0.01      23.4  T
  45    -70.4877397 -0.328800E-07  0.395E-04    0.01      47.9  T

   *** convergence criteria satisfied after 45 iterations ***

         #    Occupation            Energy/Eh            Energy/eV
      -------------------------------------------------------------
         1        2.0000           -0.8153371             -22.1865
       ...           ...                  ...                  ...
        56        2.0000           -0.4665141             -12.6945
        57        2.0000           -0.4626478             -12.5893
        58        1.9998           -0.4520231             -12.3002
        59        1.9969           -0.4495902             -12.2340
        60        1.9724           -0.4474913             -12.1769
        61        1.7254           -0.4451814             -12.1140
        62        1.2639           -0.4439490             -12.0805 (HOMO)
        63        0.9811           -0.4433995             -12.0655 (LUMO)
        64        0.0606           -0.4401427             -11.9769
        65                         -0.4266549             -11.6099
        66                         -0.4222138             -11.4890
        67                         -0.4137742             -11.2594
       ...                                ...                  ...
       112                          1.0269644              27.9451
      -------------------------------------------------------------
                  HL-Gap            0.0005495 Eh            0.0150 eV
             Fermi-level           -0.4434355 Eh          -12.0665 eV

 SCC (total)                   0 d,  0 h,  0 min,  0.293 sec
 SCC setup                      ...        0 min,  0.000 sec (  0.132%)
 Dispersion                     ...        0 min,  0.001 sec (  0.416%)
 classical contributions        ...        0 min,  0.001 sec (  0.239%)
 integral evaluation            ...        0 min,  0.007 sec (  2.337%)
 iterations                     ...        0 min,  0.269 sec ( 91.952%)
 molecular gradient             ...        0 min,  0.013 sec (  4.607%)
 printout                       ...        0 min,  0.001 sec (  0.305%)

         :::::::::::::::::::::::::::::::::::::::::::::::::::::
         ::                     SUMMARY                     ::
         :::::::::::::::::::::::::::::::::::::::::::::::::::::
         :: total energy             -69.715703710645 Eh    ::
         :: gradient norm              0.531621546028 Eh/a0 ::
         :: HOMO-LUMO gap              0.014953421158 eV    ::
         ::.................................................::
         :: SCC energy               -70.487739660809 Eh    ::
         :: -> isotropic ES            0.104348553562 Eh    ::
         :: -> anisotropic ES          0.002945036598 Eh    ::
         :: -> anisotropic XC          0.039611731654 Eh    ::
         :: -> dispersion             -0.036834240661 Eh    ::
         :: repulsion energy           0.771822256188 Eh    ::
         :: add. restraining           0.000000000000 Eh    ::
         :: total charge               0.000000000001 e     ::
         :::::::::::::::::::::::::::::::::::::::::::::::::::::

           -------------------------------------------------
          |                Property Printout                |
           -------------------------------------------------

    * Orbital Energies and Occupations

         #    Occupation            Energy/Eh            Energy/eV
      -------------------------------------------------------------
         1        2.0000           -0.8153371             -22.1865
       ...           ...                  ...                  ...
        50        2.0000           -0.4960083             -13.4971
        51        2.0000           -0.4870259             -13.2527
        52        2.0000           -0.4773547             -12.9895
        53        2.0000           -0.4748579             -12.9215
        54        2.0000           -0.4692473             -12.7689
        55        2.0000           -0.4687530             -12.7554
        56        2.0000           -0.4665141             -12.6945
        57        2.0000           -0.4626478             -12.5893
        58        1.9998           -0.4520231             -12.3002
        59        1.9969           -0.4495902             -12.2340
        60        1.9724           -0.4474913             -12.1769
        61        1.7254           -0.4451814             -12.1140
        62        1.2639           -0.4439490             -12.0805 (HOMO)
        63        0.9811           -0.4433995             -12.0655 (LUMO)
        64        0.0606           -0.4401427             -11.9769
        65                         -0.4266549             -11.6099
        66                         -0.4222138             -11.4890
        67                         -0.4137742             -11.2594
        68                         -0.3890022             -10.5853
        69                         -0.3874715             -10.5436
        70                         -0.3816618             -10.3855
        71                         -0.3599179              -9.7939
        72                         -0.3578225              -9.7368
        73                         -0.3311443              -9.0109
       ...                                ...                  ...
       112                          1.0269644              27.9451
      -------------------------------------------------------------
                  HL-Gap            0.0005495 Eh            0.0150 eV
             Fermi-level           -0.4434355 Eh          -12.0665 eV

     #   Z          covCN         q      C6AA      α(0)
     1   6 C        0.976    -0.070    38.053    10.359
     2   6 C        1.846     0.121    28.171     8.574
     3   8 O        1.701    -0.162    16.746     5.525
     4   6 C        2.709     0.370    20.723     7.451
     5   8 O        0.856    -0.321    20.169     6.021
     6   6 C        2.861     0.117    25.416     8.264
     7   6 C        1.958     0.014    30.725     8.951
     8   6 C        2.960     0.087    26.054     8.372
     9   6 C        1.990     0.002    30.994     8.991
    10   6 C        1.986     0.021    30.523     8.922
    11   6 C        1.987     0.049    29.815     8.818
    12   6 C        1.986     0.017    30.607     8.934
    13   6 C        1.990    -0.010    31.321     9.038
    14   7 N        1.823    -0.211    26.433     7.618
    15   6 C        2.761     0.316    21.635     7.617
    16   8 O        0.858    -0.359    20.880     6.126
    17   6 C        2.944     0.037    27.166     8.548
    18   6 C        1.903     0.138    27.733     8.505
    19   7 N        0.911    -0.137    23.967     7.081
    20   6 C        1.990     0.052    29.716     8.803
    21   6 C        2.966     0.090    25.988     8.362
    22   6 C        1.995    -0.001    31.084     9.004
    23   6 C        1.986    -0.015    31.439     9.055
    24   6 C        2.845     0.230    23.181     7.891
    25   8 O        0.855    -0.270    19.257     5.883
    26   6 C        2.842     0.222    23.323     7.915
    27   8 O        0.854    -0.259    19.062     5.854
    28   6 C        1.989    -0.069    32.918     9.266

 Mol. C6AA /au·bohr⁶  :      20522.350664
 Mol. C8AA /au·bohr⁸  :     554145.825235
 Mol. α(0) /au        :        225.748025


Wiberg/Mayer (AO) data.
largest (>0.10) Wiberg bond orders for each atom

 ---------------------------------------------------------------------------
     #   Z sym  total        # sym  WBO       # sym  WBO       # sym  WBO
 ---------------------------------------------------------------------------
     1   6 C    2.369 --     2 C    2.191
     2   6 C    3.332 --     1 C    2.191     3 O    1.044
     3   8 O    2.397 --     4 C    1.081     2 C    1.044     5 O    0.143
     4   6 C    3.915 --     5 O    1.772     3 O    1.081     6 C    0.925
     5   8 O    2.096 --     4 C    1.772     3 O    0.143
     6   6 C    3.896 --    14 N    1.413     7 C    1.254     4 C    0.925
     7   6 C    3.061 --     6 C    1.254     8 C    1.037    14 N    0.132
                             9 C    0.120    13 C    0.113
     8   6 C    3.914 --     9 C    1.321    13 C    1.320     7 C    1.037
                            11 C    0.109
     9   6 C    3.607 --    10 C    1.677     8 C    1.321    12 C    0.213
                            11 C    0.176     7 C    0.120
    10   6 C    3.663 --     9 C    1.677    11 C    1.615    13 C    0.216
    11   6 C    3.774 --    12 C    1.622    10 C    1.615    13 C    0.183
                             9 C    0.176     8 C    0.109
    12   6 C    3.665 --    13 C    1.672    11 C    1.622     9 C    0.213
    13   6 C    3.590 --    12 C    1.672     8 C    1.320    10 C    0.216
                            11 C    0.183     7 C    0.113
    14   7 N    3.142 --     6 C    1.413    15 C    1.229    16 O    0.158
                             7 C    0.132
    15   6 C    3.935 --    16 O    1.675    14 N    1.229    17 C    0.920
    16   8 O    2.093 --    15 C    1.675    14 N    0.158
    17   6 C    3.953 --    20 C    1.785    18 C    1.049    15 C    0.920
    18   6 C    3.937 --    19 N    2.792    17 C    1.049
    19   7 N    3.082 --    18 C    2.792    20 C    0.158
    20   6 C    3.710 --    17 C    1.785    21 C    1.208    19 N    0.158
                            22 C    0.134
    21   6 C    3.951 --    28 C    1.373    20 C    1.208    22 C    1.173
    22   6 C    3.735 --    23 C    1.751    21 C    1.173    28 C    0.259
                            25 O    0.178    20 C    0.134
    23   6 C    3.595 --    22 C    1.751    24 C    1.242    28 C    0.278
                            27 O    0.104
    24   6 C    3.936 --    25 O    1.588    23 C    1.242    26 C    0.962
    25   8 O    2.034 --    24 C    1.588    22 C    0.178    27 O    0.134
    26   6 C    3.921 --    27 O    1.539    28 C    1.269    24 C    0.962
    27   8 O    2.078 --    26 C    1.539    25 O    0.134    23 C    0.104
    28   6 C    3.466 --    21 C    1.373    26 C    1.269    23 C    0.278
                            22 C    0.259
 ---------------------------------------------------------------------------

Topologies differ in total number of bonds
Writing topology from bond orders to xtbtopo.mol

molecular dipole:
                 x           y           z       tot (Debye)
 q only:        1.983       1.139       0.997
   full:        2.066       0.935       0.781       6.096
molecular quadrupole (traceless):
                xx          xy          yy          xz          yz          zz
 q only:       -0.416     -19.505      -7.308      14.350      22.050       7.724
  q+dip:       -6.251     -19.756      -6.319      13.079      29.450      12.570
   full:       -3.170     -22.085      -6.292      15.288      28.861       9.462


           -------------------------------------------------
Note: The following floating-point exceptions are signalling: IEEE_UNDERFLOW_FLAG IEEE_DENORMAL
normal termination of xtb
          | TOTAL ENERGY              -69.715703710645 Eh   |
          | GRADIENT NORM               0.531621546028 Eh/α |
          | HOMO-LUMO GAP               0.014953421158 eV   |
           -------------------------------------------------

------------------------------------------------------------------------
 * finished run on 2026/07/23 at 16:39:02.345     
------------------------------------------------------------------------
 total:
 * wall-time:     0 d,  0 h,  0 min,  0.316 sec
 *  cpu-time:     0 d,  0 h,  0 min,  0.288 sec
 * ratio c/w:     0.912 speedup
 SCF:
 * wall-time:     0 d,  0 h,  0 min,  0.293 sec
 *  cpu-time:     0 d,  0 h,  0 min,  0.273 sec
 * ratio c/w:     0.933 speedup

