      -----------------------------------------------------------      
     |                   =====================                   |     
     |                           x T B                           |     
     |                   =====================                   |     
     |                         S. Grimme                         |     
     |          Mulliken Center for Theoretical Chemistry        |     
     |                    University of Bonn                     |     
      -----------------------------------------------------------      

   * xtb version 6.6.1 (unknown) compiled by 'builduser@buildhost' on 2023-08-07

   xtb is free software: you can redistribute it and/or modify it under
   the terms of the GNU Lesser General Public License as published by
   the Free Software Foundation, either version 3 of the License, or
   (at your option) any later version.
   
   xtb is distributed in the hope that it will be useful,
   but WITHOUT ANY WARRANTY; without even the implied warranty of
   MERCHANTABILITY or FITNESS FOR A PARTICULAR PURPOSE.  See the
   GNU Lesser General Public License for more details.
   
   Cite this work as:
   * C. Bannwarth, E. Caldeweyher, S. Ehlert, A. Hansen, P. Pracht,
     J. Seibert, S. Spicher, S. Grimme, WIREs Comput. Mol. Sci., 2020, 11,
     e01493. DOI: 10.1002/wcms.1493
   
   for GFN2-xTB:
   * C. Bannwarth, S. Ehlert and S. Grimme., J. Chem. Theory Comput., 2019,
     15, 1652-1671. DOI: 10.1021/acs.jctc.8b01176
   for GFN1-xTB:
   * S. Grimme, C. Bannwarth, P. Shushkov, J. Chem. Theory Comput., 2017,
     13, 1989-2009. DOI: 10.1021/acs.jctc.7b00118
   for GFN0-xTB:
   * P. Pracht, E. Caldeweyher, S. Ehlert, S. Grimme, ChemRxiv, 2019, preprint.
     DOI: 10.26434/chemrxiv.8326202.v1
   for GFN-FF:
   * S. Spicher and S. Grimme, Angew. Chem. Int. Ed., 2020, 59, 15665-15673.
     DOI: 10.1002/anie.202004239
   
   for ALPB and GBSA implicit solvation:
   * S. Ehlert, M. Stahn, S. Spicher, S. Grimme, J. Chem. Theory Comput.,
     2021, 17, 4250-4261. DOI: 10.1021/acs.jctc.1c00471
   
   for DFT-D4:
   * E. Caldeweyher, C. Bannwarth and S. Grimme, J. Chem. Phys., 2017,
     147, 034112. DOI: 10.1063/1.4993215
   * E. Caldeweyher, S. Ehlert, A. Hansen, H. Neugebauer, S. Spicher,
     C. Bannwarth and S. Grimme, J. Chem. Phys., 2019, 150, 154122.
     DOI: 10.1063/1.5090222
   * E. Caldeweyher, J.-M. Mewes, S. Ehlert and S. Grimme, Phys. Chem. Chem. Phys.
     2020, 22, 8499-8512. DOI: 10.1039/D0CP00502A
   
   for sTDA-xTB:
   * S. Grimme and C. Bannwarth, J. Chem. Phys., 2016, 145, 054103.
     DOI: 10.1063/1.4959605
   
   in the mass-spec context:
   * V. Asgeirsson, C. Bauer and S. Grimme, Chem. Sci., 2017, 8, 4879.
     DOI: 10.1039/c7sc00601b
   * J. Koopman and S. Grimme, ACS Omega 2019, 4, 12, 15120-15133.
     DOI: 10.1021/acsomega.9b02011
   
   for metadynamics refer to:
   * S. Grimme, J. Chem. Theory Comput., 2019, 155, 2847-2862
     DOI: 10.1021/acs.jctc.9b00143
   
   for SPH calculations refer to:
   * S. Spicher and S. Grimme, J. Chem. Theory Comput., 2021, 17, 1701-1714
     DOI: 10.1021/acs.jctc.0c01306
   
   with help from (in alphabetical order)
   P. Atkinson, C. Bannwarth, F. Bohle, G. Brandenburg, E. Caldeweyher
   M. Checinski, S. Dohm, S. Ehlert, S. Ehrlich, I. Gerasimov, C. Hölzer
   A. Katbashev, J. Koopman, C. Lavigne, S. Lehtola, F. März, M. Müller,
   F. Musil, H. Neugebauer, J. Pisarek, C. Plett, P. Pracht, F. Pultar,
   J. Seibert, P. Shushkov, S. Spicher, M. Stahn, M. Steiner, T. Strunk,
   J. Stückrath, T. Rose, and J. Unsleber
   
 * started run on 2026/07/23 at 16:42:16.751     

           -------------------------------------------------
          |                Calculation Setup                |
           -------------------------------------------------

          program call               : xtb /home/selva/covalent_quantum_benchmark/data/quantum/erbB_xyz/ERBB2__CHEMBL360933__state01.xyz --gfn2 --chrg 0 --uhf 0 --iterations 300
          coordinate file            : /home/selva/covalent_quantum_benchmark/data/quantum/erbB_xyz/ERBB2__CHEMBL360933__state01.xyz
          omp threads                :                    24

   ID    Z sym.   atoms
    1    6 C      1, 2, 4-6, 8-10, 12, 14-17, 19-26, 28-31, 33, 35-37, 39,
                  40, 42-44
    2    8 O      3, 18, 34
    3    7 N      7, 11, 13, 32, 38, 41
    4   17 Cl     27

           -------------------------------------------------
          |                 G F N 2 - x T B                 |
           -------------------------------------------------

        Reference                      10.1021/acs.jctc.8b01176
      * Hamiltonian:
        H0-scaling (s, p, d)           1.850000    2.230000    2.230000
        zeta-weighting                 0.500000
      * Dispersion:
        s8                             2.700000
        a1                             0.520000
        a2                             5.000000
        s9                             5.000000
      * Repulsion:
        kExp                           1.500000    1.000000
        rExp                           1.000000
      * Coulomb:
        alpha                          2.000000
        third order                    shell-resolved
        anisotropic                    true
        a3                             3.000000
        a5                             4.000000
        cn-shift                       1.200000
        cn-exp                         4.000000
        max-rad                        5.000000


          ...................................................
          :                      SETUP                      :
          :.................................................:
          :  # basis functions                 182          :
          :  # atomic orbitals                 181          :
          :  # shells                           89          :
          :  # electrons                       191          :
          :  max. iterations                   300          :
          :  Hamiltonian                  GFN2-xTB          :
          :  restarted?                      false          :
          :  GBSA solvation                  false          :
          :  PC potential                    false          :
          :  electronic temp.          300.0000000     K    :
          :  accuracy                    1.0000000          :
          :  -> integral cutoff          0.2500000E+02      :
          :  -> integral neglect         0.1000000E-07      :
          :  -> SCF convergence          0.1000000E-05 Eh   :
          :  -> wf. convergence          0.1000000E-03 e    :
          :  Broyden damping             0.4000000          :
          ...................................................

 iter      E             dE          RMSdq      gap      omega  full diag
   1   -104.7102744 -0.104710E+03  0.880E+00    0.03       0.0  T
   2    -88.0587833  0.166515E+02  0.128E+01    0.40       1.0  T
   3    -85.5296914  0.252909E+01  0.115E+01    0.27       1.0  T
   4    -84.4454141  0.108428E+01  0.109E+01    0.14       1.0  T
   5    -93.9510708 -0.950566E+01  0.867E+00    0.04       1.0  T
   6    -99.1922692 -0.524120E+01  0.706E+00    0.16       1.0  T
   7    -99.9263859 -0.734117E+00  0.647E+00    0.16       1.0  T
   8   -102.8298969 -0.290351E+01  0.526E+00    0.17       1.0  T
   9   -104.4521447 -0.162225E+01  0.416E+00    0.15       1.0  T
  10   -105.2464114 -0.794267E+00  0.337E+00    0.03       1.0  T
  11   -105.3482965 -0.101885E+00  0.331E+00    0.06       1.0  T
  12   -105.3170424  0.312541E-01  0.301E+00    0.10       1.0  T
  13   -105.5808140 -0.263772E+00  0.259E+00    0.02       1.0  T
  14   -105.4210552  0.159759E+00  0.251E+00    0.06       1.0  T
  15   -105.4237860 -0.273082E-02  0.270E+00    0.02       1.0  T
  16   -105.6160196 -0.192234E+00  0.228E+00    0.01       1.0  T
  17   -105.4414015  0.174618E+00  0.269E+00    0.06       1.0  T
  18   -105.6741172 -0.232716E+00  0.207E+00    0.03       1.0  T
  19   -105.5654082  0.108709E+00  0.226E+00    0.05       1.0  T
  20   -105.1323326  0.433076E+00  0.272E+00    0.04       1.0  T
  21   -105.5086956 -0.376363E+00  0.226E+00    0.02       1.0  T
  22   -104.0442688  0.146443E+01  0.348E+00    0.16       1.0  T
  23   -104.1003383 -0.560695E-01  0.339E+00    0.07       1.0  T
  24   -104.3615228 -0.261184E+00  0.319E+00    0.14       1.0  T
  25   -104.9712351 -0.609712E+00  0.262E+00    0.01       1.0  T
  26   -104.3572118  0.614023E+00  0.326E+00    0.14       1.0  T
  27   -104.8147010 -0.457489E+00  0.278E+00    0.04       1.0  T
  28   -104.9653973 -0.150696E+00  0.259E+00    0.04       1.0  T
  29   -105.5490720 -0.583675E+00  0.183E+00    0.04       1.0  T
  30   -105.1926897  0.356382E+00  0.225E+00    0.03       1.0  T
  31   -105.2898153 -0.971256E-01  0.205E+00    0.03       1.0  T
  32   -105.4500249 -0.160210E+00  0.178E+00    0.02       1.0  T
  33   -105.7127622 -0.262737E+00  0.128E+00    0.00       1.0  T
  34   -105.7128629 -0.100756E-03  0.127E+00    0.01       1.0  T
  35   -105.8381667 -0.125304E+00  0.907E-01    0.02       1.0  T
  36   -105.9035185 -0.653518E-01  0.661E-01    0.02       1.0  T
  37   -105.8622840  0.412345E-01  0.824E-01    0.03       1.0  T
  38   -105.8987525 -0.364685E-01  0.647E-01    0.02       1.0  T
  39   -105.8313603  0.673922E-01  0.892E-01    0.01       1.0  T
  40   -105.9257181 -0.943578E-01  0.432E-01    0.01       1.0  T
  41   -105.9456858 -0.199678E-01  0.215E-01    0.01       1.0  T
  42   -105.9498542 -0.416835E-02  0.136E-01    0.01       1.0  T
  43   -105.9470540  0.280019E-02  0.190E-01    0.00       1.0  T
  44   -105.9496462 -0.259216E-02  0.145E-01    0.00       1.0  T
  45   -105.9467760  0.287014E-02  0.196E-01    0.00       1.0  T
  46   -105.9511602 -0.438417E-02  0.710E-02    0.00       1.0  T
  47   -105.9512817 -0.121477E-03  0.667E-02    0.00       1.0  T
  48   -105.9507532  0.528496E-03  0.876E-02    0.00       1.0  T
  49   -105.9514806 -0.727440E-03  0.463E-02    0.00       1.0  T
  50   -105.9517572 -0.276559E-03  0.201E-02    0.00       1.0  T
  51   -105.9517514  0.573419E-05  0.198E-02    0.00       1.0  T
  52   -105.9517672 -0.157278E-04  0.148E-02    0.00       1.0  T
  53   -105.9517556  0.115918E-04  0.161E-02    0.00       1.0  T
  54   -105.9517627 -0.710074E-05  0.140E-02    0.00       1.1  T
  55   -105.9517931 -0.304320E-04  0.393E-03    0.00       3.8  T
  56   -105.9517929  0.208572E-06  0.378E-03    0.00       4.0  T
  57   -105.9517910  0.192832E-05  0.513E-03    0.00       2.9  T
  58   -105.9517938 -0.278853E-05  0.245E-03    0.00       6.1  T
  59   -105.9517940 -0.251850E-06  0.185E-03    0.00       8.2  T
  60   -105.9517943 -0.305894E-06  0.103E-03    0.00      14.6  T
  61   -105.9517943 -0.310996E-07  0.967E-04    0.00      15.6  T
  62   -105.9517944 -0.750025E-07  0.691E-04    0.00      21.8  T

   *** convergence criteria satisfied after 62 iterations ***

         #    Occupation            Energy/Eh            Energy/eV
      -------------------------------------------------------------
         1        2.0000           -1.0951136             -29.7996
       ...           ...                  ...                  ...
        90        1.9957           -0.4287689             -11.6674
        91        1.9549           -0.4265049             -11.6058
        92        1.9122           -0.4258486             -11.5879
        93        1.7462           -0.4247416             -11.5578
        94        1.6572           -0.4243995             -11.5485
        95        1.3504           -0.4235736             -11.5260
        96        0.9073           -0.4226660             -11.5013 (HOMO)
        97        0.8464           -0.4225434             -11.4980 (LUMO)
        98        0.6296           -0.4220812             -11.4854
        99        0.0000           -0.4111579             -11.1882
       100        0.0000           -0.4080979             -11.1049
       101                         -0.4059136             -11.0455
       ...                                ...                  ...
       181                          1.0421081              28.3572
      -------------------------------------------------------------
                  HL-Gap            0.0001226 Eh            0.0033 eV
             Fermi-level           -0.4228501 Eh          -11.5063 eV

 SCC (total)                   0 d,  0 h,  0 min,  1.549 sec
 SCC setup                      ...        0 min,  0.000 sec (  0.021%)
 Dispersion                     ...        0 min,  0.003 sec (  0.226%)
 classical contributions        ...        0 min,  0.001 sec (  0.086%)
 integral evaluation            ...        0 min,  0.010 sec (  0.642%)
 iterations                     ...        0 min,  1.454 sec ( 93.900%)
 molecular gradient             ...        0 min,  0.061 sec (  3.970%)
 printout                       ...        0 min,  0.018 sec (  1.152%)

         :::::::::::::::::::::::::::::::::::::::::::::::::::::
         ::                     SUMMARY                     ::
         :::::::::::::::::::::::::::::::::::::::::::::::::::::
         :: total energy            -104.795843013528 Eh    ::
         :: gradient norm              0.590370723715 Eh/a0 ::
         :: HOMO-LUMO gap              0.003335263319 eV    ::
         ::.................................................::
         :: SCC energy              -105.951794419736 Eh    ::
         :: -> isotropic ES            0.016999176404 Eh    ::
         :: -> anisotropic ES          0.011524484517 Eh    ::
         :: -> anisotropic XC          0.062171873594 Eh    ::
         :: -> dispersion             -0.070398172634 Eh    ::
         :: repulsion energy           1.154636231270 Eh    ::
         :: add. restraining           0.000000000000 Eh    ::
         :: total charge              -0.000000000000 e     ::
         :::::::::::::::::::::::::::::::::::::::::::::::::::::

           -------------------------------------------------
          |                Property Printout                |
           -------------------------------------------------

    * Orbital Energies and Occupations

         #    Occupation            Energy/Eh            Energy/eV
      -------------------------------------------------------------
         1        2.0000           -1.0951136             -29.7996
       ...           ...                  ...                  ...
        84        2.0000           -0.4449346             -12.1073
        85        2.0000           -0.4434301             -12.0663
        86        2.0000           -0.4392335             -11.9522
        87        2.0000           -0.4376898             -11.9101
        88        2.0000           -0.4353268             -11.8458
        89        2.0000           -0.4342798             -11.8174
        90        1.9957           -0.4287689             -11.6674
        91        1.9549           -0.4265049             -11.6058
        92        1.9122           -0.4258486             -11.5879
        93        1.7462           -0.4247416             -11.5578
        94        1.6572           -0.4243995             -11.5485
        95        1.3504           -0.4235736             -11.5260
        96        0.9073           -0.4226660             -11.5013 (HOMO)
        97        0.8464           -0.4225434             -11.4980 (LUMO)
        98        0.6296           -0.4220812             -11.4854
        99        0.0000           -0.4111579             -11.1882
       100        0.0000           -0.4080979             -11.1049
       101                         -0.4059136             -11.0455
       102                         -0.3981422             -10.8340
       103                         -0.3945699             -10.7368
       104                         -0.3852770             -10.4839
       105                         -0.3741538             -10.1812
       106                         -0.3735920             -10.1660
       107                         -0.3722559             -10.1296
       ...                                ...                  ...
       181                          1.0421081              28.3572
      -------------------------------------------------------------
                  HL-Gap            0.0001226 Eh            0.0033 eV
             Fermi-level           -0.4228501 Eh          -11.5063 eV

     #   Z          covCN         q      C6AA      α(0)
     1   6 C        0.976    -0.074    38.198    10.378
     2   6 C        1.872     0.106    28.507     8.624
     3   8 O        1.702    -0.136    16.364     5.462
     4   6 C        2.893     0.153    24.684     8.146
     5   6 C        1.987    -0.073    33.033     9.282
     6   6 C        2.912     0.114    25.495     8.280
     7   7 N        1.831    -0.133    24.652     7.358
     8   6 C        1.939     0.090    28.849     8.674
     9   6 C        2.943     0.013    27.716     8.634
    10   6 C        1.913     0.120    28.158     8.570
    11   7 N        0.911    -0.197    25.277     7.271
    12   6 C        2.900     0.131    25.135     8.220
    13   7 N        1.838    -0.101    23.974     7.256
    14   6 C        2.917     0.130    25.156     8.225
    15   6 C        1.992    -0.043    32.188     9.162
    16   6 C        1.986    -0.062    32.731     9.239
    17   6 C        2.873     0.170    24.343     8.088
    18   8 O        1.702    -0.118    16.094     5.416
    19   6 C        1.842     0.067    29.456     8.768
    20   6 C        2.958     0.076    26.299     8.411
    21   6 C        1.990    -0.015    31.459     9.058
    22   6 C        1.985    -0.002    31.107     9.007
    23   6 C        1.987     0.042    29.978     8.842
    24   6 C        1.985    -0.005    31.197     9.020
    25   6 C        1.989    -0.034    31.967     9.131
    26   6 C        2.880     0.093    25.938     8.349
    27  17 Cl       0.959    -0.046   100.613    15.346
    28   6 C        2.033    -0.086    33.355     9.328
    29   6 C        2.973     0.009    27.814     8.651
    30   6 C        1.992    -0.054    32.510     9.208
    31   6 C        2.939     0.095    25.882     8.344
    32   7 N        1.830    -0.161    25.285     7.451
    33   6 C        2.800     0.300    21.908     7.668
    34   8 O        0.862    -0.350    20.713     6.102
    35   6 C        1.967     0.002    31.030     8.996
    36   6 C        1.968     0.006    30.907     8.978
    37   6 C        1.902     0.017    30.661     8.943
    38   7 N        2.722     0.084    19.780     6.605
    39   6 C        1.898    -0.063    32.814     9.251
    40   6 C        1.904    -0.059    32.706     9.236
    41   7 N        2.721     0.141    18.851     6.448
    42   6 C        0.931    -0.062    37.494    10.258
    43   6 C        1.904    -0.048    32.412     9.195
    44   6 C        1.898    -0.035    32.046     9.143

 Mol. C6AA /au·bohr⁶  :      55831.904877
 Mol. C8AA /au·bohr⁸  :    1565143.053682
 Mol. α(0) /au        :        376.021854


Wiberg/Mayer (AO) data.
largest (>0.10) Wiberg bond orders for each atom

 ---------------------------------------------------------------------------
     #   Z sym  total        # sym  WBO       # sym  WBO       # sym  WBO
 ---------------------------------------------------------------------------
     1   6 C    2.339 --     2 C    2.131     3 O    0.108
     2   6 C    3.318 --     1 C    2.131     3 O    1.108
     3   8 O    2.320 --     2 C    1.108     4 C    1.007     1 C    0.108
     4   6 C    3.901 --     5 C    1.518    31 C    1.134     3 O    1.007
     5   6 C    3.679 --     4 C    1.518     6 C    1.357    30 C    0.485
     6   6 C    3.887 --     5 C    1.357     7 N    1.181    29 C    1.138
     7   7 N    3.168 --     8 C    1.642     6 C    1.181
     8   6 C    3.725 --     7 N    1.642     9 C    1.564    13 N    0.165
     9   6 C    3.880 --     8 C    1.564    10 C    1.105    12 C    0.980
    10   6 C    3.944 --    11 N    2.776     9 C    1.105
    11   7 N    2.979 --    10 C    2.776
    12   6 C    3.930 --    13 N    1.646    29 C    1.059     9 C    0.980
    13   7 N    3.298 --    12 C    1.646    14 C    1.138     8 C    0.165
    14   6 C    3.889 --    28 C    1.323    15 C    1.250    13 N    1.138
    15   6 C    3.667 --    16 C    1.777    14 C    1.250    28 C    0.296
    16   6 C    3.452 --    15 C    1.777    17 C    1.312    28 C    0.179
    17   6 C    3.844 --    16 C    1.312    26 C    1.188    18 O    1.069
Note: The following floating-point exceptions are signalling: IEEE_UNDERFLOW_FLAG IEEE_DENORMAL
normal termination of xtb
    18   8 O    2.435 --    19 C    1.146    17 C    1.069
    19   6 C    2.987 --    20 C    1.224    18 O    1.146
    20   6 C    3.898 --    21 C    1.242    25 C    1.238    19 C    1.224
    21   6 C    3.517 --    22 C    1.636    20 C    1.242    24 C    0.232
                            23 C    0.209
    22   6 C    3.640 --    21 C    1.636    23 C    1.593    25 C    0.261
    23   6 C    3.742 --    22 C    1.593    24 C    1.566    21 C    0.209
                            25 C    0.197
    24   6 C    3.652 --    25 C    1.617    23 C    1.566    21 C    0.232
    25   6 C    3.503 --    24 C    1.617    20 C    1.238    22 C    0.261
                            23 C    0.197
    26   6 C    3.852 --    28 C    1.466    17 C    1.188    27 Cl   1.018
    27  17 Cl   1.199 --    26 C    1.018
    28   6 C    3.503 --    26 C    1.466    14 C    1.323    15 C    0.296
                            16 C    0.179
    29   6 C    3.933 --    30 C    1.484     6 C    1.138    12 C    1.059
    30   6 C    3.757 --    29 C    1.484    31 C    1.414     5 C    0.485
    31   6 C    3.920 --    30 C    1.414    32 N    1.160     4 C    1.134
    32   7 N    3.132 --    33 C    1.488    31 C    1.160    34 O    0.169
    33   6 C    3.937 --    32 N    1.488    34 O    1.401    35 C    0.952
    34   8 O    1.973 --    33 C    1.401    32 N    0.169    37 C    0.162
                            35 C    0.119
    35   6 C    3.558 --    36 C    2.156    33 C    0.952    37 C    0.144
                            34 O    0.119
    36   6 C    3.798 --    35 C    2.156    37 C    1.430
    37   6 C    3.203 --    36 C    1.430    38 N    1.082    34 O    0.162
                            35 C    0.144    43 C    0.134
    38   7 N    3.615 --    44 C    1.222    39 C    1.098    37 C    1.082
    39   6 C    3.211 --    40 C    1.353    38 N    1.098    42 C    0.471
                            44 C    0.137
    40   6 C    3.190 --    39 C    1.353    41 N    1.070    44 C    0.214
                            43 C    0.213    42 C    0.147
    41   7 N    3.676 --    42 C    1.505    40 C    1.070    43 C    1.028
    42   6 C    2.540 --    41 N    1.505    39 C    0.471    44 C    0.262
                            40 C    0.147    43 C    0.107
    43   6 C    2.960 --    44 C    1.363    41 N    1.028    40 C    0.213
                            37 C    0.134    42 C    0.107
    44   6 C    3.340 --    43 C    1.363    38 N    1.222    42 C    0.262
                            40 C    0.214    39 C    0.137
 ---------------------------------------------------------------------------

Topologies differ in total number of bonds
Writing topology from bond orders to xtbtopo.mol

molecular dipole:
                 x           y           z       tot (Debye)
 q only:        2.621       0.246      -0.122
   full:        2.666      -0.407       0.148       6.866
molecular quadrupole (traceless):
                xx          xy          yy          xz          yz          zz
 q only:      -22.617      27.084      14.823      20.555       0.606       7.794
  q+dip:      -38.905      31.603      24.569      26.212       5.579      14.336
   full:      -42.643      32.066      26.610      29.562       1.150      16.033


           -------------------------------------------------
          | TOTAL ENERGY             -104.795843013528 Eh   |
          | GRADIENT NORM               0.590370723715 Eh/α |
          | HOMO-LUMO GAP               0.003335263319 eV   |
           -------------------------------------------------

------------------------------------------------------------------------
 * finished run on 2026/07/23 at 16:42:18.334     
------------------------------------------------------------------------
 total:
 * wall-time:     0 d,  0 h,  0 min,  1.583 sec
 *  cpu-time:     0 d,  0 h,  0 min,  1.578 sec
 * ratio c/w:     0.997 speedup
 SCF:
 * wall-time:     0 d,  0 h,  0 min,  1.549 sec
 *  cpu-time:     0 d,  0 h,  0 min,  1.542 sec
 * ratio c/w:     0.995 speedup

