      -----------------------------------------------------------      
     |                   =====================                   |     
     |                           x T B                           |     
     |                   =====================                   |     
     |                         S. Grimme                         |     
     |          Mulliken Center for Theoretical Chemistry        |     
     |                    University of Bonn                     |     
      -----------------------------------------------------------      

   * xtb version 6.6.1 (unknown) compiled by 'builduser@buildhost' on 2023-08-07

   xtb is free software: you can redistribute it and/or modify it under
   the terms of the GNU Lesser General Public License as published by
   the Free Software Foundation, either version 3 of the License, or
   (at your option) any later version.
   
   xtb is distributed in the hope that it will be useful,
   but WITHOUT ANY WARRANTY; without even the implied warranty of
   MERCHANTABILITY or FITNESS FOR A PARTICULAR PURPOSE.  See the
   GNU Lesser General Public License for more details.
   
   Cite this work as:
   * C. Bannwarth, E. Caldeweyher, S. Ehlert, A. Hansen, P. Pracht,
     J. Seibert, S. Spicher, S. Grimme, WIREs Comput. Mol. Sci., 2020, 11,
     e01493. DOI: 10.1002/wcms.1493
   
   for GFN2-xTB:
   * C. Bannwarth, S. Ehlert and S. Grimme., J. Chem. Theory Comput., 2019,
     15, 1652-1671. DOI: 10.1021/acs.jctc.8b01176
   for GFN1-xTB:
   * S. Grimme, C. Bannwarth, P. Shushkov, J. Chem. Theory Comput., 2017,
     13, 1989-2009. DOI: 10.1021/acs.jctc.7b00118
   for GFN0-xTB:
   * P. Pracht, E. Caldeweyher, S. Ehlert, S. Grimme, ChemRxiv, 2019, preprint.
     DOI: 10.26434/chemrxiv.8326202.v1
   for GFN-FF:
   * S. Spicher and S. Grimme, Angew. Chem. Int. Ed., 2020, 59, 15665-15673.
     DOI: 10.1002/anie.202004239
   
   for ALPB and GBSA implicit solvation:
   * S. Ehlert, M. Stahn, S. Spicher, S. Grimme, J. Chem. Theory Comput.,
     2021, 17, 4250-4261. DOI: 10.1021/acs.jctc.1c00471
   
   for DFT-D4:
   * E. Caldeweyher, C. Bannwarth and S. Grimme, J. Chem. Phys., 2017,
     147, 034112. DOI: 10.1063/1.4993215
   * E. Caldeweyher, S. Ehlert, A. Hansen, H. Neugebauer, S. Spicher,
     C. Bannwarth and S. Grimme, J. Chem. Phys., 2019, 150, 154122.
     DOI: 10.1063/1.5090222
   * E. Caldeweyher, J.-M. Mewes, S. Ehlert and S. Grimme, Phys. Chem. Chem. Phys.
     2020, 22, 8499-8512. DOI: 10.1039/D0CP00502A
   
   for sTDA-xTB:
   * S. Grimme and C. Bannwarth, J. Chem. Phys., 2016, 145, 054103.
     DOI: 10.1063/1.4959605
   
   in the mass-spec context:
   * V. Asgeirsson, C. Bauer and S. Grimme, Chem. Sci., 2017, 8, 4879.
     DOI: 10.1039/c7sc00601b
   * J. Koopman and S. Grimme, ACS Omega 2019, 4, 12, 15120-15133.
     DOI: 10.1021/acsomega.9b02011
   
   for metadynamics refer to:
   * S. Grimme, J. Chem. Theory Comput., 2019, 155, 2847-2862
     DOI: 10.1021/acs.jctc.9b00143
   
   for SPH calculations refer to:
   * S. Spicher and S. Grimme, J. Chem. Theory Comput., 2021, 17, 1701-1714
     DOI: 10.1021/acs.jctc.0c01306
   
   with help from (in alphabetical order)
   P. Atkinson, C. Bannwarth, F. Bohle, G. Brandenburg, E. Caldeweyher
   M. Checinski, S. Dohm, S. Ehlert, S. Ehrlich, I. Gerasimov, C. Hölzer
   A. Katbashev, J. Koopman, C. Lavigne, S. Lehtola, F. März, M. Müller,
   F. Musil, H. Neugebauer, J. Pisarek, C. Plett, P. Pracht, F. Pultar,
   J. Seibert, P. Shushkov, S. Spicher, M. Stahn, M. Steiner, T. Strunk,
   J. Stückrath, T. Rose, and J. Unsleber
   
 * started run on 2026/07/23 at 16:39:20.559     

           -------------------------------------------------
          |                Calculation Setup                |
           -------------------------------------------------

          program call               : xtb /home/selva/covalent_quantum_benchmark/data/quantum/erbB_xyz/EGFR__CHEMBL90595__state02.xyz --gfn2 --chrg 0 --uhf 0 --iterations 300
          coordinate file            : /home/selva/covalent_quantum_benchmark/data/quantum/erbB_xyz/EGFR__CHEMBL90595__state02.xyz
          omp threads                :                    24

   ID    Z sym.   atoms
    1    8 O      1
    2    6 C      2-5, 7-11, 13-16, 18, 20, 22-26, 28-30
    3    7 N      6, 12, 17, 19, 21
    4   35 Br     27

           -------------------------------------------------
          |                 G F N 2 - x T B                 |
           -------------------------------------------------

        Reference                      10.1021/acs.jctc.8b01176
      * Hamiltonian:
        H0-scaling (s, p, d)           1.850000    2.230000    2.230000
        zeta-weighting                 0.500000
      * Dispersion:
        s8                             2.700000
        a1                             0.520000
        a2                             5.000000
        s9                             5.000000
      * Repulsion:
        kExp                           1.500000    1.000000
        rExp                           1.000000
      * Coulomb:
        alpha                          2.000000
        third order                    shell-resolved
        anisotropic                    true
        a3                             3.000000
        a5                             4.000000
        cn-shift                       1.200000
        cn-exp                         4.000000
        max-rad                        5.000000


          ...................................................
          :                      SETUP                      :
          :.................................................:
          :  # basis functions                 126          :
          :  # atomic orbitals                 125          :
          :  # shells                           61          :
          :  # electrons                       130          :
          :  max. iterations                   300          :
          :  Hamiltonian                  GFN2-xTB          :
          :  restarted?                      false          :
          :  GBSA solvation                  false          :
          :  PC potential                    false          :
          :  electronic temp.          300.0000000     K    :
          :  accuracy                    1.0000000          :
          :  -> integral cutoff          0.2500000E+02      :
          :  -> integral neglect         0.1000000E-07      :
          :  -> SCF convergence          0.1000000E-05 Eh   :
          :  -> wf. convergence          0.1000000E-03 e    :
          :  Broyden damping             0.4000000          :
          ...................................................

 iter      E             dE          RMSdq      gap      omega  full diag
   1    -70.8664001 -0.708664E+02  0.848E+00    0.17       0.0  T
   2    -65.0451851  0.582122E+01  0.986E+00    0.10       1.0  T
   3    -63.6496032  0.139558E+01  0.979E+00    0.20       1.0  T
   4    -61.9903596  0.165924E+01  0.970E+00    0.10       1.0  T
   5    -64.5069895 -0.251663E+01  0.757E+00    0.15       1.0  T
   6    -61.5288568  0.297813E+01  0.817E+00    0.02       1.0  T
   7    -69.0941886 -0.756533E+01  0.562E+00    0.05       1.0  T
   8    -69.5294824 -0.435294E+00  0.514E+00    0.38       1.0  T
   9    -70.7639163 -0.123443E+01  0.300E+00    0.14       1.0  T
  10    -70.7054421  0.584742E-01  0.357E+00    0.18       1.0  T
  11    -70.8670479 -0.161606E+00  0.273E+00    0.14       1.0  T
  12    -70.8977670 -0.307191E-01  0.260E+00    0.12       1.0  T
  13    -71.0201770 -0.122410E+00  0.241E+00    0.08       1.0  T
  14    -70.9587431  0.614339E-01  0.242E+00    0.06       1.0  T
  15    -71.2941466 -0.335403E+00  0.179E+00    0.05       1.0  T
  16    -71.3070096 -0.128630E-01  0.164E+00    0.03       1.0  T
  17    -71.3419587 -0.349491E-01  0.156E+00    0.05       1.0  T
  18    -71.0772288  0.264730E+00  0.191E+00    0.04       1.0  T
  19    -71.3407285 -0.263500E+00  0.122E+00    0.05       1.0  T
  20    -70.9163445  0.424384E+00  0.223E+00    0.11       1.0  T
  21    -71.0768359 -0.160491E+00  0.189E+00    0.08       1.0  T
  22    -71.3539734 -0.277138E+00  0.954E-01    0.03       1.0  T
  23    -71.3199296  0.340439E-01  0.113E+00    0.03       1.0  T
  24    -71.3394200 -0.194905E-01  0.994E-01    0.03       1.0  T
  25    -71.4127177 -0.732977E-01  0.483E-01    0.00       1.0  T
  26    -71.2437639  0.168954E+00  0.136E+00    0.05       1.0  T
  27    -71.3681930 -0.124429E+00  0.788E-01    0.04       1.0  T
  28    -71.3678054  0.387517E-03  0.789E-01    0.04       1.0  T
  29    -71.3134350  0.543704E-01  0.102E+00    0.05       1.0  T
  30    -71.4011182 -0.876832E-01  0.496E-01    0.03       1.0  T
  31    -71.4260330 -0.249148E-01  0.103E-01    0.01       1.0  T
  32    -71.4160186  0.100144E-01  0.314E-01    0.02       1.0  T
  33    -71.4209984 -0.497978E-02  0.223E-01    0.02       1.0  T
  34    -71.4258460 -0.484765E-02  0.102E-01    0.01       1.0  T
  35    -71.4262433 -0.397227E-03  0.703E-02    0.01       1.0  T
  36    -71.4264826 -0.239325E-03  0.479E-02    0.02       1.0  T
  37    -71.4264771  0.552570E-05  0.351E-02    0.02       1.0  T
  38    -71.4264955 -0.184328E-04  0.297E-02    0.02       1.0  T
  39    -71.4264904  0.507530E-05  0.286E-02    0.01       1.0  T
  40    -71.4265335 -0.430995E-04  0.165E-02    0.01       1.1  T
  41    -71.4265364 -0.293676E-05  0.134E-02    0.01       1.4  T
  42    -71.4265359  0.591138E-06  0.112E-02    0.01       1.6  T
  43    -71.4265426 -0.673905E-05  0.720E-03    0.01       2.5  T
  44    -71.4265468 -0.416340E-05  0.186E-03    0.01       9.8  T
  45    -71.4265466  0.133138E-06  0.200E-03    0.01       9.1  T
  46    -71.4265467 -0.786595E-07  0.155E-03    0.01      11.8  T
  47    -71.4265467 -0.113742E-07  0.129E-03    0.01      14.1  T
  48    -71.4265468 -0.115726E-06  0.481E-04    0.01      38.0  T
  49    -71.4265468 -0.903962E-08  0.248E-04    0.01      73.7  T

   *** convergence criteria satisfied after 49 iterations ***

         #    Occupation            Energy/Eh            Energy/eV
      -------------------------------------------------------------
         1        2.0000           -0.8661326             -23.5687
       ...           ...                  ...                  ...
        59        2.0000           -0.4294153             -11.6850
        60        2.0000           -0.4265344             -11.6066
        61        1.9999           -0.4253277             -11.5738
        62        1.9740           -0.4194982             -11.4151
        63        1.9606           -0.4190980             -11.4042
        64        1.6841           -0.4169748             -11.3465
        65        1.3172           -0.4160092             -11.3202 (HOMO)
        66        1.0454           -0.4154712             -11.3055 (LUMO)
        67        0.0187           -0.4109561             -11.1827
        68        0.0000           -0.4052729             -11.0280
        69                         -0.3956842             -10.7671
        70                         -0.3895739             -10.6008
       ...                                ...                  ...
       125                          1.3140911              35.7582
      -------------------------------------------------------------
                  HL-Gap            0.0005380 Eh            0.0146 eV
             Fermi-level           -0.4153849 Eh          -11.3032 eV

 SCC (total)                   0 d,  0 h,  0 min,  0.541 sec
 SCC setup                      ...        0 min,  0.000 sec (  0.083%)
 Dispersion                     ...        0 min,  0.008 sec (  1.536%)
 classical contributions        ...        0 min,  0.002 sec (  0.306%)
 integral evaluation            ...        0 min,  0.009 sec (  1.625%)
 iterations                     ...        0 min,  0.501 sec ( 92.674%)
 molecular gradient             ...        0 min,  0.019 sec (  3.505%)
 printout                       ...        0 min,  0.001 sec (  0.263%)

         :::::::::::::::::::::::::::::::::::::::::::::::::::::
         ::                     SUMMARY                     ::
         :::::::::::::::::::::::::::::::::::::::::::::::::::::
         :: total energy             -70.570575240012 Eh    ::
         :: gradient norm              0.460994132684 Eh/a0 ::
         :: HOMO-LUMO gap              0.014640170253 eV    ::
         ::.................................................::
         :: SCC energy               -71.426546839990 Eh    ::
         :: -> isotropic ES            0.041525734551 Eh    ::
         :: -> anisotropic ES          0.007583763750 Eh    ::
         :: -> anisotropic XC          0.044881026313 Eh    ::
         :: -> dispersion             -0.043645272011 Eh    ::
         :: repulsion energy           0.855407540840 Eh    ::
         :: add. restraining           0.000000000000 Eh    ::
         :: total charge               0.000000000239 e     ::
         :::::::::::::::::::::::::::::::::::::::::::::::::::::

           -------------------------------------------------
          |                Property Printout                |
           -------------------------------------------------

    * Orbital Energies and Occupations

         #    Occupation            Energy/Eh            Energy/eV
      -------------------------------------------------------------
         1        2.0000           -0.8661326             -23.5687
       ...           ...                  ...                  ...
        53        2.0000           -0.4561889             -12.4135
        54        2.0000           -0.4467970             -12.1580
        55        2.0000           -0.4411110             -12.0032
        56        2.0000           -0.4405153             -11.9870
        57        2.0000           -0.4347432             -11.8300
        58        2.0000           -0.4335357             -11.7971
        59        2.0000           -0.4294153             -11.6850
        60        2.0000           -0.4265344             -11.6066
        61        1.9999           -0.4253277             -11.5738
        62        1.9740           -0.4194982             -11.4151
        63        1.9606           -0.4190980             -11.4042
        64        1.6841           -0.4169748             -11.3465
        65        1.3172           -0.4160092             -11.3202 (HOMO)
        66        1.0454           -0.4154712             -11.3055 (LUMO)
        67        0.0187           -0.4109561             -11.1827
        68        0.0000           -0.4052729             -11.0280
        69                         -0.3956842             -10.7671
        70                         -0.3895739             -10.6008
        71                         -0.3874208             -10.5423
        72                         -0.3561781              -9.6921
        73                         -0.3497504              -9.5172
        74                         -0.3414594              -9.2916
        75                         -0.3309823              -9.0065
        76                         -0.3153178              -8.5802
       ...                                ...                  ...
       125                          1.3140911              35.7582
      -------------------------------------------------------------
                  HL-Gap            0.0005380 Eh            0.0146 eV
             Fermi-level           -0.4153849 Eh          -11.3032 eV

     #   Z          covCN         q      C6AA      α(0)
     1   8 O        0.860    -0.352    20.735     6.105
     2   6 C        2.748     0.324    21.502     7.593
     3   6 C        1.975     0.021    30.516     8.921
     4   6 C        1.962     0.032    30.260     8.883
     5   6 C        1.900     0.002    31.057     9.000
     6   7 N        2.725     0.085    19.779     6.605
     7   6 C        1.896    -0.015    31.512     9.066
     8   6 C        1.953     0.003    31.007     8.992
     9   6 C        1.955     0.010    30.810     8.964
    10   6 C        1.954    -0.007    31.263     9.029
    11   6 C        1.898    -0.026    31.799     9.107
    12   7 N        1.838    -0.215    26.528     7.633
    13   6 C        2.895     0.149    24.771     8.160
    14   6 C        1.987    -0.018    31.540     9.070
    15   6 C        1.992    -0.014    31.428     9.053
    16   6 C        2.952     0.123    25.293     8.249
    17   7 N        1.833    -0.153    25.090     7.423
    18   6 C        1.889     0.166    27.113     8.410
    19   7 N        1.850    -0.166    25.384     7.467
    20   6 C        2.832     0.198    23.784     7.992
    21   7 N        1.849    -0.157    25.196     7.439
    22   6 C        2.912     0.128    25.196     8.231
    23   6 C        1.992    -0.000    31.056     9.000
    24   6 C        1.986    -0.024    31.688     9.091
    25   6 C        2.062     0.005    30.822     8.968
    26   6 C        2.906     0.113    25.510     8.282
    27  35 Br       1.069    -0.069   186.901    22.043
    28   6 C        2.067    -0.081    33.143     9.300
    29   6 C        2.963    -0.001    28.059     8.689
    30   6 C        1.993    -0.062    32.710     9.236

 Mol. C6AA /au·bohr⁶  :      27832.004484
 Mol. C8AA /au·bohr⁸  :     831070.436364
 Mol. α(0) /au        :        266.001249


Wiberg/Mayer (AO) data.
largest (>0.10) Wiberg bond orders for each atom

 ---------------------------------------------------------------------------
     #   Z sym  total        # sym  WBO       # sym  WBO       # sym  WBO
 ---------------------------------------------------------------------------
     1   8 O    1.940 --     2 C    1.648    12 N    0.110
     2   6 C    3.931 --     1 O    1.648    12 N    1.188     3 C    1.024
     3   6 C    3.898 --     4 C    2.514     2 C    1.024     5 C    0.106
     4   6 C    3.953 --     3 C    2.514     5 C    1.280
     5   6 C    3.047 --     4 C    1.280     6 N    1.031     7 C    0.173
                             9 C    0.128    10 C    0.121     3 C    0.106
     6   7 N    3.599 --    11 C    1.180     7 C    1.152     5 C    1.031
                             9 C    0.106
     7   6 C    3.326 --     8 C    1.506     6 N    1.152    10 C    0.233
                             5 C    0.173     9 C    0.144
     8   6 C    3.538 --     9 C    1.548     7 C    1.506    11 C    0.211
                            10 C    0.147
     9   6 C    3.597 --     8 C    1.548    10 C    1.482    11 C    0.153
                             7 C    0.144     5 C    0.128     6 N    0.106
    10   6 C    3.521 --     9 C    1.482    11 C    1.460     7 C    0.233
                             8 C    0.147     5 C    0.121
    11   6 C    3.142 --    10 C    1.460     6 N    1.180     8 C    0.211
                             9 C    0.153
    12   7 N    2.887 --    13 C    1.265     2 C    1.188    15 C    0.112
                             1 O    0.110
    13   6 C    3.889 --    12 N    1.265    30 C    1.246    14 C    1.219
    14   6 C    3.658 --    15 C    1.766    13 C    1.219    30 C    0.166
                            18 C    0.127
    15   6 C    3.568 --    14 C    1.766    16 C    1.313    30 C    0.151
                            12 N    0.112
    16   6 C    3.843 --    15 C    1.313    29 C    1.177    17 N    1.093
    17   7 N    3.073 --    18 C    1.676    16 C    1.093
    18   6 C    3.822 --    17 N    1.676    19 N    1.654    14 C    0.127
    19   7 N    3.220 --    18 C    1.654    20 C    1.179
    20   6 C    3.952 --    21 N    1.575    19 N    1.179    29 C    1.007
    21   7 N    3.148 --    20 C    1.575    22 C    1.118
    22   6 C    3.950 --    28 C    1.344    23 C    1.304    21 N    1.118
    23   6 C    3.730 --    24 C    1.622    22 C    1.304    25 C    0.390
                            28 C    0.157
    24   6 C    3.747 --    25 C    1.627    23 C    1.622    28 C    0.382
    25   6 C    3.744 --    24 C    1.627    26 C    1.361    23 C    0.390
                            28 C    0.159
    26   6 C    3.926 --    28 C    1.420    25 C    1.361    27 Br   0.993
    27  35 Br   1.195 --    26 C    0.993
    28   6 C    3.594 --    26 C    1.420    22 C    1.344    24 C    0.382
                            25 C    0.159    23 C    0.157
    29   6 C    3.939 --    30 C    1.477    16 C    1.177    20 C    1.007
    30   6 C    3.351 --    29 C    1.477    13 C    1.246    14 C    0.166
                            15 C    0.151
 ---------------------------------------------------------------------------
Note: The following floating-point exceptions are signalling: IEEE_UNDERFLOW_FLAG IEEE_DENORMAL
normal termination of xtb

Topologies differ in total number of bonds
Writing topology from bond orders to xtbtopo.mol

molecular dipole:
                 x           y           z       tot (Debye)
 q only:       -0.647       0.330      -0.636
   full:        0.181       0.998      -0.413       2.783
molecular quadrupole (traceless):
                xx          xy          yy          xz          yz          zz
 q only:       13.872       3.812       3.491      -5.007       2.767     -17.363
  q+dip:       21.151       2.108       3.469       0.065       1.133     -24.620
   full:       16.308       0.905       8.211      -0.185       4.235     -24.519


           -------------------------------------------------
          | TOTAL ENERGY              -70.570575240012 Eh   |
          | GRADIENT NORM               0.460994132684 Eh/α |
          | HOMO-LUMO GAP               0.014640170253 eV   |
           -------------------------------------------------

------------------------------------------------------------------------
 * finished run on 2026/07/23 at 16:39:21.130     
------------------------------------------------------------------------
 total:
 * wall-time:     0 d,  0 h,  0 min,  0.571 sec
 *  cpu-time:     0 d,  0 h,  0 min,  0.546 sec
 * ratio c/w:     0.956 speedup
 SCF:
 * wall-time:     0 d,  0 h,  0 min,  0.541 sec
 *  cpu-time:     0 d,  0 h,  0 min,  0.520 sec
 * ratio c/w:     0.961 speedup

