      -----------------------------------------------------------      
     |                   =====================                   |     
     |                           x T B                           |     
     |                   =====================                   |     
     |                         S. Grimme                         |     
     |          Mulliken Center for Theoretical Chemistry        |     
     |                    University of Bonn                     |     
      -----------------------------------------------------------      

   * xtb version 6.6.1 (unknown) compiled by 'builduser@buildhost' on 2023-08-07

   xtb is free software: you can redistribute it and/or modify it under
   the terms of the GNU Lesser General Public License as published by
   the Free Software Foundation, either version 3 of the License, or
   (at your option) any later version.
   
   xtb is distributed in the hope that it will be useful,
   but WITHOUT ANY WARRANTY; without even the implied warranty of
   MERCHANTABILITY or FITNESS FOR A PARTICULAR PURPOSE.  See the
   GNU Lesser General Public License for more details.
   
   Cite this work as:
   * C. Bannwarth, E. Caldeweyher, S. Ehlert, A. Hansen, P. Pracht,
     J. Seibert, S. Spicher, S. Grimme, WIREs Comput. Mol. Sci., 2020, 11,
     e01493. DOI: 10.1002/wcms.1493
   
   for GFN2-xTB:
   * C. Bannwarth, S. Ehlert and S. Grimme., J. Chem. Theory Comput., 2019,
     15, 1652-1671. DOI: 10.1021/acs.jctc.8b01176
   for GFN1-xTB:
   * S. Grimme, C. Bannwarth, P. Shushkov, J. Chem. Theory Comput., 2017,
     13, 1989-2009. DOI: 10.1021/acs.jctc.7b00118
   for GFN0-xTB:
   * P. Pracht, E. Caldeweyher, S. Ehlert, S. Grimme, ChemRxiv, 2019, preprint.
     DOI: 10.26434/chemrxiv.8326202.v1
   for GFN-FF:
   * S. Spicher and S. Grimme, Angew. Chem. Int. Ed., 2020, 59, 15665-15673.
     DOI: 10.1002/anie.202004239
   
   for ALPB and GBSA implicit solvation:
   * S. Ehlert, M. Stahn, S. Spicher, S. Grimme, J. Chem. Theory Comput.,
     2021, 17, 4250-4261. DOI: 10.1021/acs.jctc.1c00471
   
   for DFT-D4:
   * E. Caldeweyher, C. Bannwarth and S. Grimme, J. Chem. Phys., 2017,
     147, 034112. DOI: 10.1063/1.4993215
   * E. Caldeweyher, S. Ehlert, A. Hansen, H. Neugebauer, S. Spicher,
     C. Bannwarth and S. Grimme, J. Chem. Phys., 2019, 150, 154122.
     DOI: 10.1063/1.5090222
   * E. Caldeweyher, J.-M. Mewes, S. Ehlert and S. Grimme, Phys. Chem. Chem. Phys.
     2020, 22, 8499-8512. DOI: 10.1039/D0CP00502A
   
   for sTDA-xTB:
   * S. Grimme and C. Bannwarth, J. Chem. Phys., 2016, 145, 054103.
     DOI: 10.1063/1.4959605
   
   in the mass-spec context:
   * V. Asgeirsson, C. Bauer and S. Grimme, Chem. Sci., 2017, 8, 4879.
     DOI: 10.1039/c7sc00601b
   * J. Koopman and S. Grimme, ACS Omega 2019, 4, 12, 15120-15133.
     DOI: 10.1021/acsomega.9b02011
   
   for metadynamics refer to:
   * S. Grimme, J. Chem. Theory Comput., 2019, 155, 2847-2862
     DOI: 10.1021/acs.jctc.9b00143
   
   for SPH calculations refer to:
   * S. Spicher and S. Grimme, J. Chem. Theory Comput., 2021, 17, 1701-1714
     DOI: 10.1021/acs.jctc.0c01306
   
   with help from (in alphabetical order)
   P. Atkinson, C. Bannwarth, F. Bohle, G. Brandenburg, E. Caldeweyher
   M. Checinski, S. Dohm, S. Ehlert, S. Ehrlich, I. Gerasimov, C. Hölzer
   A. Katbashev, J. Koopman, C. Lavigne, S. Lehtola, F. März, M. Müller,
   F. Musil, H. Neugebauer, J. Pisarek, C. Plett, P. Pracht, F. Pultar,
   J. Seibert, P. Shushkov, S. Spicher, M. Stahn, M. Steiner, T. Strunk,
   J. Stückrath, T. Rose, and J. Unsleber
   
 * started run on 2026/07/23 at 16:41:26.537     

           -------------------------------------------------
          |                Calculation Setup                |
           -------------------------------------------------

          program call               : xtb /home/selva/covalent_quantum_benchmark/data/quantum/erbB_xyz/ERBB2__CHEMBL202411__state01.xyz --gfn2 --chrg 0 --uhf 0 --iterations 300
          coordinate file            : /home/selva/covalent_quantum_benchmark/data/quantum/erbB_xyz/ERBB2__CHEMBL202411__state01.xyz
          omp threads                :                    24

   ID    Z sym.   atoms
    1    8 O      1, 6
    2    6 C      2-5, 8-11, 13, 15, 17-20, 22, 24-26
    3    7 N      7, 12, 14, 16
    4    9 F      21
    5   17 Cl     23

           -------------------------------------------------
          |                 G F N 2 - x T B                 |
           -------------------------------------------------

        Reference                      10.1021/acs.jctc.8b01176
      * Hamiltonian:
        H0-scaling (s, p, d)           1.850000    2.230000    2.230000
        zeta-weighting                 0.500000
      * Dispersion:
        s8                             2.700000
        a1                             0.520000
        a2                             5.000000
        s9                             5.000000
      * Repulsion:
        kExp                           1.500000    1.000000
        rExp                           1.000000
      * Coulomb:
        alpha                          2.000000
        third order                    shell-resolved
        anisotropic                    true
        a3                             3.000000
        a5                             4.000000
        cn-shift                       1.200000
        cn-exp                         4.000000
        max-rad                        5.000000


          ...................................................
          :                      SETUP                      :
          :.................................................:
          :  # basis functions                 110          :
          :  # atomic orbitals                 109          :
          :  # shells                           53          :
          :  # electrons                       118          :
          :  max. iterations                   300          :
          :  Hamiltonian                  GFN2-xTB          :
          :  restarted?                      false          :
          :  GBSA solvation                  false          :
          :  PC potential                    false          :
          :  electronic temp.          300.0000000     K    :
          :  accuracy                    1.0000000          :
          :  -> integral cutoff          0.2500000E+02      :
          :  -> integral neglect         0.1000000E-07      :
          :  -> SCF convergence          0.1000000E-05 Eh   :
          :  -> wf. convergence          0.1000000E-03 e    :
          :  Broyden damping             0.4000000          :
          ...................................................

 iter      E             dE          RMSdq      gap      omega  full diag
   1    -66.9440383 -0.669440E+02  0.738E+00    0.23       0.0  T
   2    -61.4335045  0.551053E+01  0.108E+01    0.48       1.0  T
   3    -66.7203185 -0.528681E+01  0.515E+00    0.08       1.0  T
   4    -65.9542750  0.766043E+00  0.558E+00    0.14       1.0  T
   5    -65.6004210  0.353854E+00  0.600E+00    0.30       1.0  T
   6    -66.7626542 -0.116223E+01  0.408E+00    0.27       1.0  T
   7    -67.1487105 -0.386056E+00  0.263E+00    0.07       1.0  T
   8    -67.1588649 -0.101544E-01  0.273E+00    0.08       1.0  T
   9    -67.3765052 -0.217640E+00  0.168E+00    0.09       1.0  T
  10    -66.9766862  0.399819E+00  0.305E+00    0.05       1.0  T
  11    -67.3032377 -0.326552E+00  0.208E+00    0.02       1.0  T
  12    -67.2433227  0.599150E-01  0.227E+00    0.02       1.0  T
  13    -67.4993357 -0.256013E+00  0.118E+00    0.05       1.0  T
  14    -67.3499958  0.149340E+00  0.172E+00    0.08       1.0  T
  15    -67.2017225  0.148273E+00  0.235E+00    0.08       1.0  T
  16    -67.3267494 -0.125027E+00  0.188E+00    0.02       1.0  T
  17    -67.2487829  0.779665E-01  0.216E+00    0.02       1.0  T
  18    -67.5075039 -0.258721E+00  0.824E-01    0.04       1.0  T
  19    -67.5360260 -0.285222E-01  0.609E-01    0.05       1.0  T
  20    -67.5411188 -0.509276E-02  0.524E-01    0.05       1.0  T
  21    -67.5542806 -0.131618E-01  0.189E-01    0.04       1.0  T
  22    -67.5488377  0.544285E-02  0.310E-01    0.04       1.0  T
  23    -67.5536818 -0.484410E-02  0.147E-01    0.05       1.0  T
  24    -67.5529936  0.688196E-03  0.185E-01    0.05       1.0  T
  25    -67.5549758 -0.198214E-02  0.633E-02    0.05       1.0  T
  26    -67.5550736 -0.977780E-04  0.364E-02    0.04       1.0  T
  27    -67.5551406 -0.670787E-04  0.184E-02    0.05       1.1  T
  28    -67.5549698  0.170869E-03  0.535E-02    0.05       1.0  T
  29    -67.5551018 -0.132058E-03  0.299E-02    0.05       1.0  T
  30    -67.5551422 -0.403694E-04  0.151E-02    0.05       1.3  T
  31    -67.5551507 -0.853473E-05  0.758E-03    0.05       2.6  T
  32    -67.5551425  0.822988E-05  0.130E-02    0.05       1.5  T
  33    -67.5551487 -0.618022E-05  0.833E-03    0.05       2.4  T
  34    -67.5551528 -0.412109E-05  0.138E-03    0.05      14.3  T
  35    -67.5551529 -0.848721E-07  0.846E-04    0.05      23.2  T
  36    -67.5551529 -0.217125E-07  0.583E-04    0.05      33.7  T

   *** convergence criteria satisfied after 36 iterations ***

         #    Occupation            Energy/Eh            Energy/eV
      -------------------------------------------------------------
         1        2.0000           -1.0872098             -29.5845
       ...           ...                  ...                  ...
        53        2.0000           -0.4395582             -11.9610
        54        2.0000           -0.4355523             -11.8520
        55        2.0000           -0.4320472             -11.7566
        56        1.9999           -0.4299139             -11.6986
        57        1.9231           -0.4233732             -11.5206
        58        1.7913           -0.4223576             -11.4929
        59        1.4985           -0.4213551             -11.4657 (HOMO)
        60        0.6671           -0.4196575             -11.4195 (LUMO)
        61        0.1201           -0.4177021             -11.3663
        62                         -0.4017807             -10.9330
        63                         -0.3790615             -10.3148
        64                         -0.3591444              -9.7728
       ...                                ...                  ...
       109                          1.3096086              35.6363
      -------------------------------------------------------------
                  HL-Gap            0.0016976 Eh            0.0462 eV
             Fermi-level           -0.4203152 Eh          -11.4374 eV

 SCC (total)                   0 d,  0 h,  0 min,  0.263 sec
 SCC setup                      ...        0 min,  0.000 sec (  0.079%)
 Dispersion                     ...        0 min,  0.001 sec (  0.311%)
 classical contributions        ...        0 min,  0.001 sec (  0.196%)
 integral evaluation            ...        0 min,  0.003 sec (  1.107%)
 iterations                     ...        0 min,  0.250 sec ( 95.062%)
 molecular gradient             ...        0 min,  0.008 sec (  2.905%)
 printout                       ...        0 min,  0.001 sec (  0.333%)

         :::::::::::::::::::::::::::::::::::::::::::::::::::::
         ::                     SUMMARY                     ::
         :::::::::::::::::::::::::::::::::::::::::::::::::::::
         :: total energy             -66.762160930415 Eh    ::
         :: gradient norm              0.415690857009 Eh/a0 ::
         :: HOMO-LUMO gap              0.046195349436 eV    ::
         ::.................................................::
         :: SCC energy               -67.555152911040 Eh    ::
         :: -> isotropic ES            0.074528363079 Eh    ::
         :: -> anisotropic ES          0.005560045707 Eh    ::
         :: -> anisotropic XC          0.031163521030 Eh    ::
         :: -> dispersion             -0.035184830769 Eh    ::
         :: repulsion energy           0.792577818712 Eh    ::
         :: add. restraining           0.000000000000 Eh    ::
         :: total charge               0.000000000000 e     ::
         :::::::::::::::::::::::::::::::::::::::::::::::::::::

           -------------------------------------------------
          |                Property Printout                |
           -------------------------------------------------

    * Orbital Energies and Occupations

         #    Occupation            Energy/Eh            Energy/eV
      -------------------------------------------------------------
         1        2.0000           -1.0872098             -29.5845
       ...           ...                  ...                  ...
        47        2.0000           -0.4732738             -12.8784
        48        2.0000           -0.4680523             -12.7364
        49        2.0000           -0.4629749             -12.5982
        50        2.0000           -0.4593142             -12.4986
        51        2.0000           -0.4537146             -12.3462
        52        2.0000           -0.4505795             -12.2609
        53        2.0000           -0.4395582             -11.9610
        54        2.0000           -0.4355523             -11.8520
        55        2.0000           -0.4320472             -11.7566
        56        1.9999           -0.4299139             -11.6986
        57        1.9231           -0.4233732             -11.5206
        58        1.7913           -0.4223576             -11.4929
        59        1.4985           -0.4213551             -11.4657 (HOMO)
        60        0.6671           -0.4196575             -11.4195 (LUMO)
        61        0.1201           -0.4177021             -11.3663
        62                         -0.4017807             -10.9330
        63                         -0.3790615             -10.3148
        64                         -0.3591444              -9.7728
        65                         -0.3552885              -9.6679
        66                         -0.3255161              -8.8577
        67                         -0.3088041              -8.4030
        68                         -0.2859131              -7.7801
        69                         -0.2801884              -7.6243
        70                         -0.2759898              -7.5101
       ...                                ...                  ...
       109                          1.3096086              35.6363
      -------------------------------------------------------------
                  HL-Gap            0.0016976 Eh            0.0462 eV
             Fermi-level           -0.4203152 Eh          -11.4374 eV

     #   Z          covCN         q      C6AA      α(0)
     1   8 O        0.860    -0.328    20.288     6.039
     2   6 C        2.749     0.331    21.375     7.570
     3   6 C        1.974     0.030    30.283     8.887
     4   6 C        1.961     0.054    29.697     8.800
     5   6 C        1.828     0.165    27.194     8.425
     6   8 O        0.850    -0.229    18.548     5.774
     7   7 N        1.838    -0.209    26.379     7.611
     8   6 C        2.895     0.152    24.708     8.150
     9   6 C        1.989    -0.012    31.379     9.046
    10   6 C        1.988    -0.019    31.553     9.071
    11   6 C        2.929     0.133    25.103     8.217
    12   7 N        1.830    -0.159    25.230     7.443
    13   6 C        1.919     0.168    27.069     8.402
    14   7 N        1.851    -0.138    24.776     7.377
    15   6 C        2.895     0.196    23.827     8.003
    16   7 N        1.856    -0.112    24.219     7.294
    17   6 C        2.915     0.127    25.213     8.234
    18   6 C        1.994    -0.032    31.885     9.119
    19   6 C        1.987    -0.023    31.668     9.088
    20   6 C        2.806     0.185    24.035     8.032
    21   9 F        0.787    -0.158    10.812     3.884
    22   6 C        2.878     0.090    25.998     8.359
    23  17 Cl       0.962    -0.065   101.197    15.390
    24   6 C        2.029    -0.091    33.506     9.349
    25   6 C        2.968     0.001    28.004     8.680
    26   6 C        1.994    -0.056    32.548     9.213

 Mol. C6AA /au·bohr⁶  :      18791.545362
 Mol. C8AA /au·bohr⁸  :     522413.504038
 Mol. α(0) /au        :        215.459476


Wiberg/Mayer (AO) data.
largest (>0.10) Wiberg bond orders for each atom

 ---------------------------------------------------------------------------
Note: The following floating-point exceptions are signalling: IEEE_UNDERFLOW_FLAG IEEE_DENORMAL
normal termination of xtb
     #   Z sym  total        # sym  WBO       # sym  WBO       # sym  WBO
 ---------------------------------------------------------------------------
     1   8 O    2.019 --     2 C    1.657     7 N    0.106
     2   6 C    3.930 --     1 O    1.657     7 N    1.198     3 C    1.001
     3   6 C    3.907 --     4 C    2.594     2 C    1.001     6 O    0.149
     4   6 C    3.907 --     3 C    2.594     5 C    1.177
     5   6 C    3.243 --     6 O    1.876     4 C    1.177
     6   8 O    2.087 --     5 C    1.876     3 C    0.149
     7   7 N    2.938 --     8 C    1.277     2 C    1.198    10 C    0.113
                             1 O    0.106
     8   6 C    3.897 --     7 N    1.277    26 C    1.243     9 C    1.211
     9   6 C    3.626 --    10 C    1.786     8 C    1.211    26 C    0.137
                            13 C    0.112
    10   6 C    3.575 --     9 C    1.786    11 C    1.293    26 C    0.169
                             7 N    0.113
    11   6 C    3.861 --    10 C    1.293    12 N    1.171    25 C    1.151
    12   7 N    3.058 --    13 C    1.559    11 C    1.171
    13   6 C    3.804 --    14 N    1.765    12 N    1.559     9 C    0.112
    14   7 N    3.197 --    13 C    1.765    15 C    1.109
    15   6 C    3.946 --    16 N    1.618    14 N    1.109    25 C    1.013
    16   7 N    3.206 --    15 C    1.618    17 C    1.124
    17   6 C    3.909 --    24 C    1.317    18 C    1.273    16 N    1.124
    18   6 C    3.616 --    19 C    1.674    17 C    1.273    24 C    0.349
                            22 C    0.103
    19   6 C    3.430 --    18 C    1.674    20 C    1.379    24 C    0.166
    20   6 C    3.825 --    19 C    1.379    22 C    1.256    21 F    0.999
    21   9 F    1.151 --    20 C    0.999
    22   6 C    3.891 --    24 C    1.444    20 C    1.256    23 Cl   1.005
                            18 C    0.103
    23  17 Cl   1.190 --    22 C    1.005
    24   6 C    3.476 --    22 C    1.444    17 C    1.317    18 C    0.349
                            19 C    0.166
    25   6 C    3.931 --    26 C    1.504    11 C    1.151    15 C    1.013
    26   6 C    3.429 --    25 C    1.504     8 C    1.243    10 C    0.169
                             9 C    0.137
 ---------------------------------------------------------------------------

Topologies differ in total number of bonds
Writing topology from bond orders to xtbtopo.mol

molecular dipole:
                 x           y           z       tot (Debye)
 q only:        1.148       0.360       0.731
   full:        0.920       0.677       0.449       3.120
molecular quadrupole (traceless):
                xx          xy          yy          xz          yz          zz
 q only:       -3.700      -7.538      -1.382       1.391       6.850       5.082
  q+dip:        1.963      -6.015      -0.996       2.217      10.113      -0.967
   full:        4.972     -11.344      -3.318       0.238       9.741      -1.655


           -------------------------------------------------
          | TOTAL ENERGY              -66.762160930415 Eh   |
          | GRADIENT NORM               0.415690857009 Eh/α |
          | HOMO-LUMO GAP               0.046195349436 eV   |
           -------------------------------------------------

------------------------------------------------------------------------
 * finished run on 2026/07/23 at 16:41:26.820     
------------------------------------------------------------------------
 total:
 * wall-time:     0 d,  0 h,  0 min,  0.283 sec
 *  cpu-time:     0 d,  0 h,  0 min,  0.309 sec
 * ratio c/w:     1.091 speedup
 SCF:
 * wall-time:     0 d,  0 h,  0 min,  0.263 sec
 *  cpu-time:     0 d,  0 h,  0 min,  0.293 sec
 * ratio c/w:     1.113 speedup

