      -----------------------------------------------------------      
     |                   =====================                   |     
     |                           x T B                           |     
     |                   =====================                   |     
     |                         S. Grimme                         |     
     |          Mulliken Center for Theoretical Chemistry        |     
     |                    University of Bonn                     |     
      -----------------------------------------------------------      

   * xtb version 6.6.1 (unknown) compiled by 'builduser@buildhost' on 2023-08-07

   xtb is free software: you can redistribute it and/or modify it under
   the terms of the GNU Lesser General Public License as published by
   the Free Software Foundation, either version 3 of the License, or
   (at your option) any later version.
   
   xtb is distributed in the hope that it will be useful,
   but WITHOUT ANY WARRANTY; without even the implied warranty of
   MERCHANTABILITY or FITNESS FOR A PARTICULAR PURPOSE.  See the
   GNU Lesser General Public License for more details.
   
   Cite this work as:
   * C. Bannwarth, E. Caldeweyher, S. Ehlert, A. Hansen, P. Pracht,
     J. Seibert, S. Spicher, S. Grimme, WIREs Comput. Mol. Sci., 2020, 11,
     e01493. DOI: 10.1002/wcms.1493
   
   for GFN2-xTB:
   * C. Bannwarth, S. Ehlert and S. Grimme., J. Chem. Theory Comput., 2019,
     15, 1652-1671. DOI: 10.1021/acs.jctc.8b01176
   for GFN1-xTB:
   * S. Grimme, C. Bannwarth, P. Shushkov, J. Chem. Theory Comput., 2017,
     13, 1989-2009. DOI: 10.1021/acs.jctc.7b00118
   for GFN0-xTB:
   * P. Pracht, E. Caldeweyher, S. Ehlert, S. Grimme, ChemRxiv, 2019, preprint.
     DOI: 10.26434/chemrxiv.8326202.v1
   for GFN-FF:
   * S. Spicher and S. Grimme, Angew. Chem. Int. Ed., 2020, 59, 15665-15673.
     DOI: 10.1002/anie.202004239
   
   for ALPB and GBSA implicit solvation:
   * S. Ehlert, M. Stahn, S. Spicher, S. Grimme, J. Chem. Theory Comput.,
     2021, 17, 4250-4261. DOI: 10.1021/acs.jctc.1c00471
   
   for DFT-D4:
   * E. Caldeweyher, C. Bannwarth and S. Grimme, J. Chem. Phys., 2017,
     147, 034112. DOI: 10.1063/1.4993215
   * E. Caldeweyher, S. Ehlert, A. Hansen, H. Neugebauer, S. Spicher,
     C. Bannwarth and S. Grimme, J. Chem. Phys., 2019, 150, 154122.
     DOI: 10.1063/1.5090222
   * E. Caldeweyher, J.-M. Mewes, S. Ehlert and S. Grimme, Phys. Chem. Chem. Phys.
     2020, 22, 8499-8512. DOI: 10.1039/D0CP00502A
   
   for sTDA-xTB:
   * S. Grimme and C. Bannwarth, J. Chem. Phys., 2016, 145, 054103.
     DOI: 10.1063/1.4959605
   
   in the mass-spec context:
   * V. Asgeirsson, C. Bauer and S. Grimme, Chem. Sci., 2017, 8, 4879.
     DOI: 10.1039/c7sc00601b
   * J. Koopman and S. Grimme, ACS Omega 2019, 4, 12, 15120-15133.
     DOI: 10.1021/acsomega.9b02011
   
   for metadynamics refer to:
   * S. Grimme, J. Chem. Theory Comput., 2019, 155, 2847-2862
     DOI: 10.1021/acs.jctc.9b00143
   
   for SPH calculations refer to:
   * S. Spicher and S. Grimme, J. Chem. Theory Comput., 2021, 17, 1701-1714
     DOI: 10.1021/acs.jctc.0c01306
   
   with help from (in alphabetical order)
   P. Atkinson, C. Bannwarth, F. Bohle, G. Brandenburg, E. Caldeweyher
   M. Checinski, S. Dohm, S. Ehlert, S. Ehrlich, I. Gerasimov, C. Hölzer
   A. Katbashev, J. Koopman, C. Lavigne, S. Lehtola, F. März, M. Müller,
   F. Musil, H. Neugebauer, J. Pisarek, C. Plett, P. Pracht, F. Pultar,
   J. Seibert, P. Shushkov, S. Spicher, M. Stahn, M. Steiner, T. Strunk,
   J. Stückrath, T. Rose, and J. Unsleber
   
 * started run on 2026/07/23 at 16:42:50.783     

           -------------------------------------------------
          |                Calculation Setup                |
           -------------------------------------------------

          program call               : xtb /home/selva/covalent_quantum_benchmark/data/quantum/erbB_xyz/ERBB2__CHEMBL427314__state01.xyz --gfn2 --chrg 0 --uhf 0 --iterations 300
          coordinate file            : /home/selva/covalent_quantum_benchmark/data/quantum/erbB_xyz/ERBB2__CHEMBL427314__state01.xyz
          omp threads                :                    24

   ID    Z sym.   atoms
    1    6 C      1, 2, 4-6, 8-10, 12, 14-18, 20-30, 32, 34-36, 38, 39
    2    8 O      3, 19, 33
    3    7 N      7, 11, 13, 31, 37

           -------------------------------------------------
          |                 G F N 2 - x T B                 |
           -------------------------------------------------

        Reference                      10.1021/acs.jctc.8b01176
      * Hamiltonian:
        H0-scaling (s, p, d)           1.850000    2.230000    2.230000
        zeta-weighting                 0.500000
      * Dispersion:
        s8                             2.700000
        a1                             0.520000
        a2                             5.000000
        s9                             5.000000
      * Repulsion:
        kExp                           1.500000    1.000000
        rExp                           1.000000
      * Coulomb:
        alpha                          2.000000
        third order                    shell-resolved
        anisotropic                    true
        a3                             3.000000
        a5                             4.000000
        cn-shift                       1.200000
        cn-exp                         4.000000
        max-rad                        5.000000


          ...................................................
          :                      SETUP                      :
          :.................................................:
          :  # basis functions                 156          :
          :  # atomic orbitals                 156          :
          :  # shells                           78          :
          :  # electrons                       167          :
          :  max. iterations                   300          :
          :  Hamiltonian                  GFN2-xTB          :
          :  restarted?                      false          :
          :  GBSA solvation                  false          :
          :  PC potential                    false          :
          :  electronic temp.          300.0000000     K    :
          :  accuracy                    1.0000000          :
          :  -> integral cutoff          0.2500000E+02      :
          :  -> integral neglect         0.1000000E-07      :
          :  -> SCF convergence          0.1000000E-05 Eh   :
          :  -> wf. convergence          0.1000000E-03 e    :
          :  Broyden damping             0.4000000          :
          ...................................................

 iter      E             dE          RMSdq      gap      omega  full diag
   1    -90.8752578 -0.908753E+02  0.900E+00    0.15       0.0  T
   2    -66.7215444  0.241537E+02  0.129E+01    0.01       1.0  T
   3    -53.6629095  0.130586E+02  0.140E+01    0.12       1.0  T
   4    -63.4645255 -0.980162E+01  0.115E+01    0.03       1.0  T
   5    -85.0634460 -0.215989E+02  0.857E+00    0.24       1.0  T
   6    -82.7088843  0.235456E+01  0.768E+00    0.08       1.0  T
   7    -85.1600567 -0.245117E+01  0.680E+00    0.02       1.0  T
   8    -89.6600295 -0.449997E+01  0.536E+00    0.04       1.0  T
   9    -90.9845523 -0.132452E+01  0.417E+00    0.03       1.0  T
  10    -91.0901119 -0.105560E+00  0.392E+00    0.17       1.0  T
  11    -91.6290967 -0.538985E+00  0.295E+00    0.10       1.0  T
  12    -91.5747521  0.543446E-01  0.307E+00    0.01       1.0  T
  13    -91.3564416  0.218310E+00  0.332E+00    0.08       1.0  T
  14    -91.5018523 -0.145411E+00  0.271E+00    0.03       1.0  T
  15    -91.8108299 -0.308978E+00  0.222E+00    0.01       1.0  T
  16    -90.9494704  0.861359E+00  0.371E+00    0.04       1.0  T
  17    -91.7912150 -0.841745E+00  0.216E+00    0.07       1.0  T
  18    -90.2610498  0.153017E+01  0.404E+00    0.07       1.0  T
  19    -91.8442649 -0.158322E+01  0.221E+00    0.00       1.0  T
  20    -91.9328258 -0.885609E-01  0.178E+00    0.04       1.0  T
  21    -91.9619425 -0.291168E-01  0.158E+00    0.03       1.0  T
  22    -91.8317372  0.130205E+00  0.181E+00    0.04       1.0  T
  23    -91.8458663 -0.141291E-01  0.178E+00    0.04       1.0  T
  24    -91.7238839  0.121982E+00  0.199E+00    0.04       1.0  T
  25    -91.4943340  0.229550E+00  0.230E+00    0.01       1.0  T
  26    -91.8923100 -0.397976E+00  0.160E+00    0.04       1.0  T
  27    -91.6011453  0.291165E+00  0.202E+00    0.02       1.0  T
  28    -91.5262314  0.749139E-01  0.211E+00    0.01       1.0  T
  29    -92.0213212 -0.495090E+00  0.109E+00    0.03       1.0  T
  30    -92.1541626 -0.132841E+00  0.811E-01    0.05       1.0  T
  31    -92.1805283 -0.263657E-01  0.532E-01    0.02       1.0  T
  32    -92.1795212  0.100708E-02  0.441E-01    0.01       1.0  T
  33    -92.1882102 -0.868898E-02  0.321E-01    0.01       1.0  T
  34    -92.1917302 -0.351999E-02  0.331E-01    0.03       1.0  T
  35    -92.1859390  0.579116E-02  0.394E-01    0.04       1.0  T
  36    -92.1978302 -0.118912E-01  0.194E-01    0.03       1.0  T
  37    -92.1987996 -0.969352E-03  0.172E-01    0.02       1.0  T
  38    -92.1990262 -0.226620E-03  0.154E-01    0.02       1.0  T
  39    -92.1970729  0.195329E-02  0.185E-01    0.03       1.0  T
  40    -92.1980496 -0.976722E-03  0.159E-01    0.03       1.0  T
  41    -92.1992896 -0.123994E-02  0.116E-01    0.03       1.0  T
  42    -92.2001704 -0.880840E-03  0.670E-02    0.02       1.0  T
  43    -92.2003793 -0.208929E-03  0.555E-02    0.02       1.0  T
  44    -92.2003143  0.650721E-04  0.550E-02    0.02       1.0  T
  45    -92.2005210 -0.206695E-03  0.445E-02    0.02       1.0  T
  46    -92.2006086 -0.876048E-04  0.298E-02    0.02       1.0  T
  47    -92.2006296 -0.210736E-04  0.201E-02    0.02       1.0  T
  48    -92.2006388 -0.912953E-05  0.165E-02    0.02       1.0  T
  49    -92.2006406 -0.187393E-05  0.131E-02    0.02       1.2  T
  50    -92.2006478 -0.720000E-05  0.967E-03    0.02       1.7  T
  51    -92.2006442  0.368622E-05  0.814E-03    0.02       2.0  T
  52    -92.2006513 -0.713416E-05  0.378E-03    0.02       4.2  T
  53    -92.2006508  0.512480E-06  0.310E-03    0.02       5.2  T
  54    -92.2006515 -0.747757E-06  0.135E-03    0.02      11.9  T
  55    -92.2006515  0.544718E-07  0.156E-03    0.02      10.3  T
  56    -92.2006516 -0.149559E-06  0.585E-04    0.02      27.4  T
  57    -92.2006516  0.602315E-07  0.947E-04    0.02      16.9  T

   *** convergence criteria satisfied after 57 iterations ***

         #    Occupation            Energy/Eh            Energy/eV
      -------------------------------------------------------------
         1        2.0000           -0.7880112             -21.4429
       ...           ...                  ...                  ...
        78        2.0000           -0.4313932             -11.7388
        79        1.9996           -0.4269501             -11.6179
        80        1.9995           -0.4267186             -11.6116
        81        1.9888           -0.4238304             -11.5330
        82        1.8058           -0.4210052             -11.4561
        83        1.1944           -0.4191731             -11.4063
        84        1.0582           -0.4188888             -11.3985 (HOMO)
        85        0.6757           -0.4180807             -11.3766 (LUMO)
        86        0.2768           -0.4169258             -11.3451
        87        0.0013           -0.4116273             -11.2009
        88        0.0000           -0.4036462             -10.9838
        89                         -0.3949275             -10.7465
       ...                                ...                  ...
       156                          1.0439029              28.4060
      -------------------------------------------------------------
                  HL-Gap            0.0008081 Eh            0.0220 eV
             Fermi-level           -0.4187693 Eh          -11.3953 eV

 SCC (total)                   0 d,  0 h,  0 min,  1.059 sec
 SCC setup                      ...        0 min,  0.000 sec (  0.039%)
 Dispersion                     ...        0 min,  0.002 sec (  0.148%)
 classical contributions        ...        0 min,  0.001 sec (  0.081%)
 integral evaluation            ...        0 min,  0.012 sec (  1.111%)
 iterations                     ...        0 min,  0.998 sec ( 94.219%)
 molecular gradient             ...        0 min,  0.035 sec (  3.336%)
 printout                       ...        0 min,  0.011 sec (  1.060%)

         :::::::::::::::::::::::::::::::::::::::::::::::::::::
         ::                     SUMMARY                     ::
         :::::::::::::::::::::::::::::::::::::::::::::::::::::
         :: total energy             -91.104612470271 Eh    ::
         :: gradient norm              0.550367139524 Eh/a0 ::
         :: HOMO-LUMO gap              0.021989411093 eV    ::
         ::.................................................::
         :: SCC energy               -92.200651558148 Eh    ::
         :: -> isotropic ES            0.008911804204 Eh    ::
         :: -> anisotropic ES          0.010492033787 Eh    ::
         :: -> anisotropic XC          0.059583190846 Eh    ::
         :: -> dispersion             -0.055106200327 Eh    ::
         :: repulsion energy           1.096185736782 Eh    ::
         :: add. restraining           0.000000000000 Eh    ::
         :: total charge               0.000000000000 e     ::
         :::::::::::::::::::::::::::::::::::::::::::::::::::::

           -------------------------------------------------
          |                Property Printout                |
           -------------------------------------------------

    * Orbital Energies and Occupations

         #    Occupation            Energy/Eh            Energy/eV
      -------------------------------------------------------------
         1        2.0000           -0.7880112             -21.4429
       ...           ...                  ...                  ...
        72        2.0000           -0.4518984             -12.2968
        73        2.0000           -0.4486788             -12.2092
        74        2.0000           -0.4476644             -12.1816
        75        2.0000           -0.4422486             -12.0342
        76        2.0000           -0.4356183             -11.8538
        77        2.0000           -0.4327657             -11.7762
        78        2.0000           -0.4313932             -11.7388
        79        1.9996           -0.4269501             -11.6179
        80        1.9995           -0.4267186             -11.6116
        81        1.9888           -0.4238304             -11.5330
        82        1.8058           -0.4210052             -11.4561
        83        1.1944           -0.4191731             -11.4063
        84        1.0582           -0.4188888             -11.3985 (HOMO)
        85        0.6757           -0.4180807             -11.3766 (LUMO)
        86        0.2768           -0.4169258             -11.3451
        87        0.0013           -0.4116273             -11.2009
        88        0.0000           -0.4036462             -10.9838
        89                         -0.3949275             -10.7465
        90                         -0.3880233             -10.5587
        91                         -0.3839668             -10.4483
        92                         -0.3720170             -10.1231
        93                         -0.3659332              -9.9575
        94                         -0.3651236              -9.9355
        95                         -0.3641852              -9.9100
       ...                                ...                  ...
       156                          1.0439029              28.4060
      -------------------------------------------------------------
                  HL-Gap            0.0008081 Eh            0.0220 eV
             Fermi-level           -0.4187693 Eh          -11.3953 eV

     #   Z          covCN         q      C6AA      α(0)
     1   6 C        0.976    -0.092    38.810    10.461
     2   6 C        1.854     0.096    28.746     8.661
     3   8 O        1.703    -0.125    16.200     5.434
     4   6 C        2.870     0.156    24.626     8.135
     5   6 C        1.990    -0.063    32.759     9.243
     6   6 C        2.912     0.115    25.461     8.274
     7   7 N        1.831    -0.133    24.651     7.357
     8   6 C        1.939     0.096    28.694     8.651
     9   6 C        2.943     0.007    27.861     8.657
    10   6 C        1.913     0.118    28.205     8.577
    11   7 N        0.911    -0.204    25.432     7.294
    12   6 C        2.900     0.132    25.106     8.215
    13   7 N        1.837    -0.122    24.421     7.323
    14   6 C        2.917     0.123    25.309     8.250
    15   6 C        1.992     0.009    30.818     8.965
    16   6 C        1.985    -0.020    31.589     9.077
    17   6 C        1.991     0.013    30.712     8.950
    18   6 C        2.858     0.178    24.190     8.061
    19   8 O        1.704    -0.119    16.107     5.419
    20   6 C        1.851     0.019    30.668     8.946
    21   6 C        2.960     0.074    26.340     8.418
    22   6 C        1.990    -0.017    31.499     9.064
    23   6 C        1.985     0.005    30.929     8.981
    24   6 C        1.987     0.023    30.460     8.913
    25   6 C        1.986     0.005    30.926     8.981
    26   6 C        1.989    -0.017    31.506     9.065
    27   6 C        1.992    -0.094    33.638     9.366
    28   6 C        2.973     0.011    27.761     8.643
    29   6 C        1.993    -0.054    32.486     9.205
    30   6 C        2.936     0.100    25.776     8.326
    31   7 N        1.832    -0.159    25.234     7.444
    32   6 C        2.793     0.297    21.962     7.677
    33   8 O        0.860    -0.367    21.030     6.148
    34   6 C        1.964    -0.022    31.640     9.084
    35   6 C        1.965     0.041    30.026     8.849
    36   6 C        1.914    -0.029    31.877     9.118
    37   7 N        2.722     0.183    18.194     6.335
    38   6 C        0.940    -0.069    37.795    10.304
    39   6 C        0.936    -0.095    38.585    10.409

 Mol. C6AA /au·bohr⁶  :      42312.371076
 Mol. C8AA /au·bohr⁸  :    1163672.576562
 Mol. α(0) /au        :        328.279633


Wiberg/Mayer (AO) data.
largest (>0.10) Wiberg bond orders for each atom

 ---------------------------------------------------------------------------
     #   Z sym  total        # sym  WBO       # sym  WBO       # sym  WBO
 ---------------------------------------------------------------------------
     1   6 C    2.265 --     2 C    2.063
     2   6 C    3.334 --     1 C    2.063     3 O    1.127
     3   8 O    2.391 --     2 C    1.127     4 C    1.050
     4   6 C    3.900 --     5 C    1.488    30 C    1.123     3 O    1.050
     5   6 C    3.673 --     4 C    1.488     6 C    1.378    29 C    0.484
     6   6 C    3.894 --     5 C    1.378     7 N    1.165    28 C    1.135
     7   7 N    3.227 --     8 C    1.678     6 C    1.165
     8   6 C    3.784 --     7 N    1.678     9 C    1.568    13 N    0.169
     9   6 C    3.898 --     8 C    1.568    10 C    1.105    12 C    0.978
    10   6 C    3.944 --    11 N    2.777     9 C    1.105
    11   7 N    2.987 --    10 C    2.777
    12   6 C    3.939 --    13 N    1.646    28 C    1.061     9 C    0.978
    13   7 N    3.302 --    12 C    1.646    14 C    1.108     8 C    0.169
    14   6 C    3.955 --    27 C    1.358    15 C    1.305    13 N    1.108
    15   6 C    3.735 --    16 C    1.646    14 C    1.305    17 C    0.415
                            27 C    0.142
    16   6 C    3.795 --    15 C    1.646    17 C    1.618    27 C    0.441
    17   6 C    3.724 --    16 C    1.618    18 C    1.313    15 C    0.415
                            27 C    0.160
    18   6 C    3.915 --    27 C    1.378    17 C    1.313    19 O    1.054
    19   8 O    2.518 --    20 C    1.317    18 C    1.054
    20   6 C    2.754 --    19 O    1.317    21 C    1.027
    21   6 C    3.916 --    26 C    1.341    22 C    1.339    20 C    1.027
                            24 C    0.123
    22   6 C    3.543 --    23 C    1.680    21 C    1.339    25 C    0.213
                            24 C    0.187
    23   6 C    3.612 --    22 C    1.680    24 C    1.600    26 C    0.212
    24   6 C    3.780 --    25 C    1.603    23 C    1.600    26 C    0.187
                            22 C    0.187    21 C    0.123
Note: The following floating-point exceptions are signalling: IEEE_UNDERFLOW_FLAG IEEE_DENORMAL
normal termination of xtb
    25   6 C    3.611 --    26 C    1.681    24 C    1.603    22 C    0.213
    26   6 C    3.540 --    25 C    1.681    21 C    1.341    23 C    0.212
                            24 C    0.187
    27   6 C    3.639 --    18 C    1.378    14 C    1.358    16 C    0.441
                            17 C    0.160    15 C    0.142
    28   6 C    3.924 --    29 C    1.479     6 C    1.135    12 C    1.061
    29   6 C    3.744 --    28 C    1.479    30 C    1.407     5 C    0.484
    30   6 C    3.923 --    29 C    1.407    31 N    1.169     4 C    1.123
    31   7 N    3.167 --    32 C    1.486    30 C    1.169    33 O    0.189
    32   6 C    3.939 --    31 N    1.486    33 O    1.398    34 C    0.964
    33   8 O    1.968 --    32 C    1.398    31 N    0.189    34 C    0.120
    34   6 C    3.690 --    35 C    2.229    32 C    0.964    36 C    0.154
                            33 O    0.120
    35   6 C    3.815 --    34 C    2.229    36 C    1.371
    36   6 C    3.169 --    35 C    1.371    37 N    1.033    39 C    0.420
                            34 C    0.154
    37   7 N    3.673 --    38 C    1.302    39 C    1.299    36 C    1.033
    38   6 C    1.882 --    37 N    1.302    39 C    0.442
    39   6 C    2.324 --    37 N    1.299    38 C    0.442    36 C    0.420
 ---------------------------------------------------------------------------

Topologies differ in total number of bonds
Writing topology from bond orders to xtbtopo.mol

molecular dipole:
                 x           y           z       tot (Debye)
 q only:        1.801       1.824       0.005
   full:        2.352       1.862       0.425       7.701
molecular quadrupole (traceless):
                xx          xy          yy          xz          yz          zz
 q only:      -20.683     -18.063      15.188       2.263       8.686       5.495
  q+dip:      -29.782     -10.054      22.404      -3.450      11.166       7.379
   full:      -28.746     -13.279      19.526      -4.416       8.317       9.220


           -------------------------------------------------
          | TOTAL ENERGY              -91.104612470271 Eh   |
          | GRADIENT NORM               0.550367139524 Eh/α |
          | HOMO-LUMO GAP               0.021989411093 eV   |
           -------------------------------------------------

------------------------------------------------------------------------
 * finished run on 2026/07/23 at 16:42:51.872     
------------------------------------------------------------------------
 total:
 * wall-time:     0 d,  0 h,  0 min,  1.089 sec
 *  cpu-time:     0 d,  0 h,  0 min,  1.074 sec
 * ratio c/w:     0.987 speedup
 SCF:
 * wall-time:     0 d,  0 h,  0 min,  1.060 sec
 *  cpu-time:     0 d,  0 h,  0 min,  1.045 sec
 * ratio c/w:     0.986 speedup

