      -----------------------------------------------------------      
     |                   =====================                   |     
     |                           x T B                           |     
     |                   =====================                   |     
     |                         S. Grimme                         |     
     |          Mulliken Center for Theoretical Chemistry        |     
     |                    University of Bonn                     |     
      -----------------------------------------------------------      

   * xtb version 6.6.1 (unknown) compiled by 'builduser@buildhost' on 2023-08-07

   xtb is free software: you can redistribute it and/or modify it under
   the terms of the GNU Lesser General Public License as published by
   the Free Software Foundation, either version 3 of the License, or
   (at your option) any later version.
   
   xtb is distributed in the hope that it will be useful,
   but WITHOUT ANY WARRANTY; without even the implied warranty of
   MERCHANTABILITY or FITNESS FOR A PARTICULAR PURPOSE.  See the
   GNU Lesser General Public License for more details.
   
   Cite this work as:
   * C. Bannwarth, E. Caldeweyher, S. Ehlert, A. Hansen, P. Pracht,
     J. Seibert, S. Spicher, S. Grimme, WIREs Comput. Mol. Sci., 2020, 11,
     e01493. DOI: 10.1002/wcms.1493
   
   for GFN2-xTB:
   * C. Bannwarth, S. Ehlert and S. Grimme., J. Chem. Theory Comput., 2019,
     15, 1652-1671. DOI: 10.1021/acs.jctc.8b01176
   for GFN1-xTB:
   * S. Grimme, C. Bannwarth, P. Shushkov, J. Chem. Theory Comput., 2017,
     13, 1989-2009. DOI: 10.1021/acs.jctc.7b00118
   for GFN0-xTB:
   * P. Pracht, E. Caldeweyher, S. Ehlert, S. Grimme, ChemRxiv, 2019, preprint.
     DOI: 10.26434/chemrxiv.8326202.v1
   for GFN-FF:
   * S. Spicher and S. Grimme, Angew. Chem. Int. Ed., 2020, 59, 15665-15673.
     DOI: 10.1002/anie.202004239
   
   for ALPB and GBSA implicit solvation:
   * S. Ehlert, M. Stahn, S. Spicher, S. Grimme, J. Chem. Theory Comput.,
     2021, 17, 4250-4261. DOI: 10.1021/acs.jctc.1c00471
   
   for DFT-D4:
   * E. Caldeweyher, C. Bannwarth and S. Grimme, J. Chem. Phys., 2017,
     147, 034112. DOI: 10.1063/1.4993215
   * E. Caldeweyher, S. Ehlert, A. Hansen, H. Neugebauer, S. Spicher,
     C. Bannwarth and S. Grimme, J. Chem. Phys., 2019, 150, 154122.
     DOI: 10.1063/1.5090222
   * E. Caldeweyher, J.-M. Mewes, S. Ehlert and S. Grimme, Phys. Chem. Chem. Phys.
     2020, 22, 8499-8512. DOI: 10.1039/D0CP00502A
   
   for sTDA-xTB:
   * S. Grimme and C. Bannwarth, J. Chem. Phys., 2016, 145, 054103.
     DOI: 10.1063/1.4959605
   
   in the mass-spec context:
   * V. Asgeirsson, C. Bauer and S. Grimme, Chem. Sci., 2017, 8, 4879.
     DOI: 10.1039/c7sc00601b
   * J. Koopman and S. Grimme, ACS Omega 2019, 4, 12, 15120-15133.
     DOI: 10.1021/acsomega.9b02011
   
   for metadynamics refer to:
   * S. Grimme, J. Chem. Theory Comput., 2019, 155, 2847-2862
     DOI: 10.1021/acs.jctc.9b00143
   
   for SPH calculations refer to:
   * S. Spicher and S. Grimme, J. Chem. Theory Comput., 2021, 17, 1701-1714
     DOI: 10.1021/acs.jctc.0c01306
   
   with help from (in alphabetical order)
   P. Atkinson, C. Bannwarth, F. Bohle, G. Brandenburg, E. Caldeweyher
   M. Checinski, S. Dohm, S. Ehlert, S. Ehrlich, I. Gerasimov, C. Hölzer
   A. Katbashev, J. Koopman, C. Lavigne, S. Lehtola, F. März, M. Müller,
   F. Musil, H. Neugebauer, J. Pisarek, C. Plett, P. Pracht, F. Pultar,
   J. Seibert, P. Shushkov, S. Spicher, M. Stahn, M. Steiner, T. Strunk,
   J. Stückrath, T. Rose, and J. Unsleber
   
 * started run on 2026/07/23 at 16:41:00.382     

           -------------------------------------------------
          |                Calculation Setup                |
           -------------------------------------------------

          program call               : xtb /home/selva/covalent_quantum_benchmark/data/quantum/erbB_xyz/ERBB2__CHEMBL179577__state02.xyz --gfn2 --chrg 0 --uhf 0 --iterations 300
          coordinate file            : /home/selva/covalent_quantum_benchmark/data/quantum/erbB_xyz/ERBB2__CHEMBL179577__state02.xyz
          omp threads                :                    24

   ID    Z sym.   atoms
    1    6 C      1, 2, 4-6, 8-10, 12, 14-17, 19-26, 28-31, 33, 35-37, 39, 40
    2    8 O      3, 34
    3    7 N      7, 11, 13, 18, 32, 38
    4   17 Cl     27

           -------------------------------------------------
          |                 G F N 2 - x T B                 |
           -------------------------------------------------

        Reference                      10.1021/acs.jctc.8b01176
      * Hamiltonian:
        H0-scaling (s, p, d)           1.850000    2.230000    2.230000
        zeta-weighting                 0.500000
      * Dispersion:
        s8                             2.700000
        a1                             0.520000
        a2                             5.000000
        s9                             5.000000
      * Repulsion:
        kExp                           1.500000    1.000000
        rExp                           1.000000
      * Coulomb:
        alpha                          2.000000
        third order                    shell-resolved
        anisotropic                    true
        a3                             3.000000
        a5                             4.000000
        cn-shift                       1.200000
        cn-exp                         4.000000
        max-rad                        5.000000


          ...................................................
          :                      SETUP                      :
          :.................................................:
          :  # basis functions                 166          :
          :  # atomic orbitals                 165          :
          :  # shells                           81          :
          :  # electrons                       173          :
          :  max. iterations                   300          :
          :  Hamiltonian                  GFN2-xTB          :
          :  restarted?                      false          :
          :  GBSA solvation                  false          :
          :  PC potential                    false          :
          :  electronic temp.          300.0000000     K    :
          :  accuracy                    1.0000000          :
          :  -> integral cutoff          0.2500000E+02      :
          :  -> integral neglect         0.1000000E-07      :
          :  -> SCF convergence          0.1000000E-05 Eh   :
          :  -> wf. convergence          0.1000000E-03 e    :
          :  Broyden damping             0.4000000          :
          ...................................................

 iter      E             dE          RMSdq      gap      omega  full diag
   1    -94.4657987 -0.944658E+02  0.865E+00    0.10       0.0  T
   2    -74.9507466  0.195151E+02  0.126E+01    0.39       1.0  T
   3    -57.0637746  0.178870E+02  0.131E+01    0.10       1.0  T
   4    -42.1454745  0.149183E+02  0.140E+01    0.19       1.0  T
   5    -84.7896085 -0.426441E+02  0.894E+00    0.05       1.0  T
   6    -91.6855456 -0.689594E+01  0.630E+00    0.16       1.0  T
   7    -92.7566740 -0.107113E+01  0.566E+00    0.09       1.0  T
   8    -92.2879734  0.468701E+00  0.517E+00    0.06       1.0  T
   9    -94.6915823 -0.240361E+01  0.418E+00    0.07       1.0  T
  10    -95.1281990 -0.436617E+00  0.324E+00    0.09       1.0  T
  11    -95.0504592  0.777399E-01  0.320E+00    0.09       1.0  T
  12    -94.3588075  0.691652E+00  0.383E+00    0.02       1.0  T
  13    -94.9232589 -0.564451E+00  0.334E+00    0.18       1.0  T
  14    -94.8824643  0.407946E-01  0.334E+00    0.14       1.0  T
  15    -94.7774400  0.105024E+00  0.340E+00    0.14       1.0  T
  16    -94.5910294  0.186411E+00  0.329E+00    0.09       1.0  T
  17    -92.1658558  0.242517E+01  0.516E+00    0.05       1.0  T
  18    -94.3034339 -0.213758E+01  0.365E+00    0.01       1.0  T
  19    -95.4324765 -0.112904E+01  0.224E+00    0.05       1.0  T
  20    -94.1639310  0.126855E+01  0.356E+00    0.01       1.0  T
  21    -94.8886567 -0.724726E+00  0.315E+00    0.04       1.0  T
  22    -95.3885162 -0.499860E+00  0.214E+00    0.03       1.0  T
  23    -95.3395726  0.489436E-01  0.171E+00    0.08       1.0  T
  24    -95.4318737 -0.923011E-01  0.139E+00    0.08       1.0  T
  25    -95.5278350 -0.959613E-01  0.108E+00    0.08       1.0  T
  26    -95.6158823 -0.880473E-01  0.110E+00    0.08       1.0  T
  27    -95.5865011  0.293812E-01  0.943E-01    0.10       1.0  T
  28    -95.5956290 -0.912791E-02  0.930E-01    0.10       1.0  T
  29    -95.5553746  0.402544E-01  0.900E-01    0.09       1.0  T
  30    -95.5115411  0.438335E-01  0.122E+00    0.10       1.0  T
  31    -95.5790317 -0.674906E-01  0.955E-01    0.11       1.0  T
  32    -95.6026627 -0.236310E-01  0.852E-01    0.10       1.0  T
  33    -95.6415163 -0.388536E-01  0.607E-01    0.10       1.0  T
  34    -95.6301405  0.113759E-01  0.679E-01    0.11       1.0  T
  35    -95.6447633 -0.146228E-01  0.556E-01    0.10       1.0  T
  36    -95.6706506 -0.258873E-01  0.339E-01    0.10       1.0  T
  37    -95.6671573  0.349330E-02  0.363E-01    0.10       1.0  T
  38    -95.6704363 -0.327902E-02  0.284E-01    0.10       1.0  T
  39    -95.6718105 -0.137417E-02  0.259E-01    0.10       1.0  T
  40    -95.6715128  0.297737E-03  0.224E-01    0.09       1.0  T
  41    -95.6679063  0.360647E-02  0.260E-01    0.09       1.0  T
  42    -95.6745620 -0.665571E-02  0.178E-01    0.09       1.0  T
  43    -95.6746196 -0.576140E-04  0.175E-01    0.09       1.0  T
  44    -95.6755725 -0.952887E-03  0.150E-01    0.09       1.0  T
  45    -95.6764890 -0.916467E-03  0.142E-01    0.09       1.0  T
  46    -95.6766939 -0.204950E-03  0.128E-01    0.09       1.0  T
  47    -95.6770223 -0.328401E-03  0.104E-01    0.09       1.0  T
  48    -95.6768106  0.211670E-03  0.912E-02    0.09       1.0  T
  49    -95.6770409 -0.230238E-03  0.815E-02    0.09       1.0  T
  50    -95.6772120 -0.171094E-03  0.640E-02    0.09       1.0  T
  51    -95.6772248 -0.127724E-04  0.516E-02    0.09       1.0  T
  52    -95.6773369 -0.112117E-03  0.364E-02    0.09       1.0  T
  53    -95.6773742 -0.373471E-04  0.300E-02    0.09       1.0  T
  54    -95.6774028 -0.286298E-04  0.197E-02    0.09       1.0  T
  55    -95.6774192 -0.163769E-04  0.120E-02    0.09       1.3  T
  56    -95.6774185  0.718505E-06  0.799E-03    0.09       2.0  T
  57    -95.6774214 -0.291958E-05  0.574E-03    0.09       2.8  T
  58    -95.6774228 -0.133286E-05  0.396E-03    0.09       4.0  T
  59    -95.6774234 -0.628995E-06  0.218E-03    0.09       7.2  T
  60    -95.6774236 -0.203444E-06  0.162E-03    0.09       9.8  T
  61    -95.6774236 -0.539015E-07  0.103E-03    0.09      15.3  T
  62    -95.6774236  0.391012E-07  0.910E-04    0.09      17.4  T
  63    -95.6774236 -0.142839E-07  0.788E-04    0.09      20.1  T

   *** convergence criteria satisfied after 63 iterations ***

         #    Occupation            Energy/Eh            Energy/eV
      -------------------------------------------------------------
         1        2.0000           -1.0906474             -29.6780
       ...           ...                  ...                  ...
        81        1.9999           -0.4237432             -11.5306
        82        1.9972           -0.4203517             -11.4384
        83        1.9386           -0.4173846             -11.3576
        84        1.8341           -0.4163626             -11.3298
        85        1.7839           -0.4160726             -11.3219
        86        1.5862           -0.4152894             -11.3006
        87        1.5408           -0.4151496             -11.2968 (HOMO)
        88        0.2989           -0.4119415             -11.2095 (LUMO)
        89        0.0195           -0.4091370             -11.1332
        90        0.0008           -0.4061148             -11.0509
        91        0.0000           -0.3986886             -10.8489
        92                         -0.3958205             -10.7708
       ...                                ...                  ...
       165                          1.0474024              28.5013
      -------------------------------------------------------------
                  HL-Gap            0.0032080 Eh            0.0873 eV
             Fermi-level           -0.4138194 Eh          -11.2606 eV

 SCC (total)                   0 d,  0 h,  0 min,  1.345 sec
 SCC setup                      ...        0 min,  0.000 sec (  0.027%)
 Dispersion                     ...        0 min,  0.003 sec (  0.249%)
 classical contributions        ...        0 min,  0.000 sec (  0.036%)
 integral evaluation            ...        0 min,  0.008 sec (  0.619%)
 iterations                     ...        0 min,  1.293 sec ( 96.139%)
 molecular gradient             ...        0 min,  0.025 sec (  1.878%)
 printout                       ...        0 min,  0.014 sec (  1.048%)

         :::::::::::::::::::::::::::::::::::::::::::::::::::::
         ::                     SUMMARY                     ::
         :::::::::::::::::::::::::::::::::::::::::::::::::::::
         :: total energy             -94.572894224566 Eh    ::
         :: gradient norm              0.568198405828 Eh/a0 ::
         :: HOMO-LUMO gap              0.087295315552 eV    ::
         ::.................................................::
         :: SCC energy               -95.677423618366 Eh    ::
         :: -> isotropic ES            0.010089611553 Eh    ::
         :: -> anisotropic ES          0.005251446332 Eh    ::
         :: -> anisotropic XC          0.066506690337 Eh    ::
         :: -> dispersion             -0.059560996606 Eh    ::
         :: repulsion energy           1.104894703393 Eh    ::
         :: add. restraining           0.000000000000 Eh    ::
         :: total charge              -0.000000000000 e     ::
         :::::::::::::::::::::::::::::::::::::::::::::::::::::

           -------------------------------------------------
          |                Property Printout                |
           -------------------------------------------------

    * Orbital Energies and Occupations

         #    Occupation            Energy/Eh            Energy/eV
      -------------------------------------------------------------
         1        2.0000           -1.0906474             -29.6780
       ...           ...                  ...                  ...
        75        2.0000           -0.4460025             -12.1363
        76        2.0000           -0.4457326             -12.1290
        77        2.0000           -0.4439000             -12.0791
        78        2.0000           -0.4365553             -11.8793
        79        2.0000           -0.4360889             -11.8666
        80        2.0000           -0.4249424             -11.5633
        81        1.9999           -0.4237432             -11.5306
        82        1.9972           -0.4203517             -11.4384
        83        1.9386           -0.4173846             -11.3576
        84        1.8341           -0.4163626             -11.3298
        85        1.7839           -0.4160726             -11.3219
        86        1.5862           -0.4152894             -11.3006
        87        1.5408           -0.4151496             -11.2968 (HOMO)
        88        0.2989           -0.4119415             -11.2095 (LUMO)
        89        0.0195           -0.4091370             -11.1332
        90        0.0008           -0.4061148             -11.0509
        91        0.0000           -0.3986886             -10.8489
        92                         -0.3958205             -10.7708
        93                         -0.3861279             -10.5071
        94                         -0.3829463             -10.4205
        95                         -0.3800606             -10.3420
        96                         -0.3625433              -9.8653
        97                         -0.3601692              -9.8007
        98                         -0.3585123              -9.7556
       ...                                ...                  ...
       165                          1.0474024              28.5013
      -------------------------------------------------------------
                  HL-Gap            0.0032080 Eh            0.0873 eV
             Fermi-level           -0.4138194 Eh          -11.2606 eV

     #   Z          covCN         q      C6AA      α(0)
     1   6 C        0.976    -0.088    38.648    10.439
     2   6 C        1.856     0.099    28.669     8.649
     3   8 O        1.702    -0.126    16.207     5.435
     4   6 C        2.870     0.163    24.486     8.111
     5   6 C        1.989    -0.077    33.155     9.299
     6   6 C        2.910     0.117    25.419     8.267
     7   7 N        1.832    -0.132    24.627     7.354
     8   6 C        1.938     0.090    28.833     8.671
     9   6 C        2.943     0.010    27.795     8.647
    10   6 C        1.914     0.119    28.174     8.572
    11   7 N        0.911    -0.205    25.464     7.298
    12   6 C        2.899     0.131    25.129     8.219
    13   7 N        1.838    -0.104    24.045     7.267
    14   6 C        2.918     0.139    24.962     8.193
    15   6 C        1.990    -0.058    32.624     9.224
    16   6 C        1.990    -0.047    32.312     9.180
    17   6 C        2.920     0.111    25.545     8.288
    18   7 N        1.822    -0.069    23.306     7.153
    19   6 C        1.894     0.050    29.843     8.823
    20   6 C        2.959     0.081    26.181     8.393
    21   6 C        1.989    -0.036    32.005     9.136
    22   6 C        1.985    -0.012    31.361     9.044
    23   6 C        1.987     0.036    30.139     8.866
    24   6 C        1.985    -0.009    31.295     9.034
    25   6 C        1.990    -0.030    31.860     9.115
    26   6 C        2.883     0.107    25.640     8.301
    27  17 Cl       0.958    -0.048   100.656    15.349
    28   6 C        2.030    -0.095    33.603     9.362
    29   6 C        2.973     0.014    27.707     8.634
    30   6 C        1.995    -0.046    32.282     9.176
    31   6 C        2.895     0.122    25.324     8.251
    32   7 N        1.834    -0.199    26.142     7.577
    33   6 C        2.751     0.322    21.536     7.599
    34   8 O        0.858    -0.361    20.912     6.131
    35   6 C        1.970     0.000    31.067     9.001
    36   6 C        1.962     0.019    30.584     8.931
    37   6 C        1.905    -0.004    31.208     9.022
    38   7 N        2.721     0.194    18.033     6.307
    39   6 C        0.930    -0.091    38.424    10.385
    40   6 C        0.930    -0.088    38.334    10.372

 Mol. C6AA /au·bohr⁶  :      46799.636953
 Mol. C8AA /au·bohr⁸  :    1315571.270268
 Mol. α(0) /au        :        345.077450


Wiberg/Mayer (AO) data.
largest (>0.10) Wiberg bond orders for each atom

 ---------------------------------------------------------------------------
     #   Z sym  total        # sym  WBO       # sym  WBO       # sym  WBO
 ---------------------------------------------------------------------------
     1   6 C    2.328 --     2 C    2.001
     2   6 C    3.363 --     1 C    2.001     3 O    1.131
     3   8 O    2.412 --     2 C    1.131     4 C    1.057
     4   6 C    3.898 --     5 C    1.508    31 C    1.083     3 O    1.057
     5   6 C    3.727 --     4 C    1.508     6 C    1.364    30 C    0.446
     6   6 C    3.880 --     5 C    1.364     7 N    1.183    29 C    1.120
     7   7 N    3.210 --     8 C    1.654     6 C    1.183
     8   6 C    3.729 --     7 N    1.654     9 C    1.563    13 N    0.151
     9   6 C    3.886 --     8 C    1.563    10 C    1.105    12 C    0.980
    10   6 C    3.943 --    11 N    2.776     9 C    1.105
    11   7 N    2.980 --    10 C    2.776
    12   6 C    3.930 --    13 N    1.650    29 C    1.055     9 C    0.980
    13   7 N    3.296 --    12 C    1.650    14 C    1.137     8 C    0.151
    14   6 C    3.926 --    28 C    1.317    15 C    1.246    13 N    1.137
    15   6 C    3.695 --    16 C    1.781    14 C    1.246    28 C    0.298
    16   6 C    3.480 --    15 C    1.781    17 C    1.264    28 C    0.192
    17   6 C    3.927 --    16 C    1.264    18 N    1.233    26 C    1.161
                            19 C    0.102
    18   7 N    3.319 --    19 C    1.732    17 C    1.233
    19   6 C    3.470 --    18 N    1.732    20 C    1.148    17 C    0.102
    20   6 C    3.911 --    25 C    1.279    21 C    1.269    19 C    1.148
Note: The following floating-point exceptions are signalling: IEEE_UNDERFLOW_FLAG IEEE_DENORMAL
normal termination of xtb
    21   6 C    3.482 --    22 C    1.560    20 C    1.269    24 C    0.256
                            23 C    0.187    25 C    0.114
    22   6 C    3.611 --    23 C    1.604    21 C    1.560    25 C    0.254
    23   6 C    3.778 --    24 C    1.614    22 C    1.604    25 C    0.192
                            21 C    0.187
    24   6 C    3.602 --    23 C    1.614    25 C    1.562    21 C    0.256
    25   6 C    3.518 --    24 C    1.562    20 C    1.279    22 C    0.254
                            23 C    0.192    21 C    0.114
    26   6 C    3.888 --    28 C    1.483    17 C    1.161    27 Cl   1.026
    27  17 Cl   1.241 --    26 C    1.026
    28   6 C    3.517 --    26 C    1.483    14 C    1.317    15 C    0.298
                            16 C    0.192
    29   6 C    3.940 --    30 C    1.516     6 C    1.120    12 C    1.055
    30   6 C    3.697 --    29 C    1.516    31 C    1.338     5 C    0.446
    31   6 C    3.921 --    30 C    1.338    32 N    1.291     4 C    1.083
    32   7 N    3.097 --    31 C    1.291    33 C    1.203    34 O    0.118
    33   6 C    3.929 --    34 O    1.662    32 N    1.203    35 C    0.983
    34   8 O    2.018 --    33 C    1.662    32 N    0.118
    35   6 C    3.800 --    36 C    2.285    33 C    0.983    39 C    0.161
                            40 C    0.150
    36   6 C    3.843 --    35 C    2.285    37 C    1.346
    37   6 C    3.398 --    36 C    1.346    38 N    0.960    40 C    0.476
                            39 C    0.469
    38   7 N    3.707 --    40 C    1.357    39 C    1.357    37 C    0.960
    39   6 C    2.563 --    38 N    1.357    40 C    0.517    37 C    0.469
                            35 C    0.161
    40   6 C    2.557 --    38 N    1.357    39 C    0.517    37 C    0.476
                            35 C    0.150
 ---------------------------------------------------------------------------

Topologies differ in total number of bonds
Writing topology from bond orders to xtbtopo.mol

molecular dipole:
                 x           y           z       tot (Debye)
 q only:       -0.060       1.271      -1.585
   full:       -0.043       1.622      -1.819       6.196
molecular quadrupole (traceless):
                xx          xy          yy          xz          yz          zz
 q only:        7.392      -4.228       6.467      -1.421      13.271     -13.859
  q+dip:       14.142      -2.493       4.851      -4.467      16.079     -18.993
   full:       16.810      -0.181       2.882      -4.155      18.144     -19.692


           -------------------------------------------------
          | TOTAL ENERGY              -94.572894224566 Eh   |
          | GRADIENT NORM               0.568198405828 Eh/α |
          | HOMO-LUMO GAP               0.087295315552 eV   |
           -------------------------------------------------

------------------------------------------------------------------------
 * finished run on 2026/07/23 at 16:41:01.750     
------------------------------------------------------------------------
 total:
 * wall-time:     0 d,  0 h,  0 min,  1.367 sec
 *  cpu-time:     0 d,  0 h,  0 min,  1.364 sec
 * ratio c/w:     0.998 speedup
 SCF:
 * wall-time:     0 d,  0 h,  0 min,  1.346 sec
 *  cpu-time:     0 d,  0 h,  0 min,  1.333 sec
 * ratio c/w:     0.991 speedup

