      -----------------------------------------------------------      
     |                   =====================                   |     
     |                           x T B                           |     
     |                   =====================                   |     
     |                         S. Grimme                         |     
     |          Mulliken Center for Theoretical Chemistry        |     
     |                    University of Bonn                     |     
      -----------------------------------------------------------      

   * xtb version 6.6.1 (unknown) compiled by 'builduser@buildhost' on 2023-08-07

   xtb is free software: you can redistribute it and/or modify it under
   the terms of the GNU Lesser General Public License as published by
   the Free Software Foundation, either version 3 of the License, or
   (at your option) any later version.
   
   xtb is distributed in the hope that it will be useful,
   but WITHOUT ANY WARRANTY; without even the implied warranty of
   MERCHANTABILITY or FITNESS FOR A PARTICULAR PURPOSE.  See the
   GNU Lesser General Public License for more details.
   
   Cite this work as:
   * C. Bannwarth, E. Caldeweyher, S. Ehlert, A. Hansen, P. Pracht,
     J. Seibert, S. Spicher, S. Grimme, WIREs Comput. Mol. Sci., 2020, 11,
     e01493. DOI: 10.1002/wcms.1493
   
   for GFN2-xTB:
   * C. Bannwarth, S. Ehlert and S. Grimme., J. Chem. Theory Comput., 2019,
     15, 1652-1671. DOI: 10.1021/acs.jctc.8b01176
   for GFN1-xTB:
   * S. Grimme, C. Bannwarth, P. Shushkov, J. Chem. Theory Comput., 2017,
     13, 1989-2009. DOI: 10.1021/acs.jctc.7b00118
   for GFN0-xTB:
   * P. Pracht, E. Caldeweyher, S. Ehlert, S. Grimme, ChemRxiv, 2019, preprint.
     DOI: 10.26434/chemrxiv.8326202.v1
   for GFN-FF:
   * S. Spicher and S. Grimme, Angew. Chem. Int. Ed., 2020, 59, 15665-15673.
     DOI: 10.1002/anie.202004239
   
   for ALPB and GBSA implicit solvation:
   * S. Ehlert, M. Stahn, S. Spicher, S. Grimme, J. Chem. Theory Comput.,
     2021, 17, 4250-4261. DOI: 10.1021/acs.jctc.1c00471
   
   for DFT-D4:
   * E. Caldeweyher, C. Bannwarth and S. Grimme, J. Chem. Phys., 2017,
     147, 034112. DOI: 10.1063/1.4993215
   * E. Caldeweyher, S. Ehlert, A. Hansen, H. Neugebauer, S. Spicher,
     C. Bannwarth and S. Grimme, J. Chem. Phys., 2019, 150, 154122.
     DOI: 10.1063/1.5090222
   * E. Caldeweyher, J.-M. Mewes, S. Ehlert and S. Grimme, Phys. Chem. Chem. Phys.
     2020, 22, 8499-8512. DOI: 10.1039/D0CP00502A
   
   for sTDA-xTB:
   * S. Grimme and C. Bannwarth, J. Chem. Phys., 2016, 145, 054103.
     DOI: 10.1063/1.4959605
   
   in the mass-spec context:
   * V. Asgeirsson, C. Bauer and S. Grimme, Chem. Sci., 2017, 8, 4879.
     DOI: 10.1039/c7sc00601b
   * J. Koopman and S. Grimme, ACS Omega 2019, 4, 12, 15120-15133.
     DOI: 10.1021/acsomega.9b02011
   
   for metadynamics refer to:
   * S. Grimme, J. Chem. Theory Comput., 2019, 155, 2847-2862
     DOI: 10.1021/acs.jctc.9b00143
   
   for SPH calculations refer to:
   * S. Spicher and S. Grimme, J. Chem. Theory Comput., 2021, 17, 1701-1714
     DOI: 10.1021/acs.jctc.0c01306
   
   with help from (in alphabetical order)
   P. Atkinson, C. Bannwarth, F. Bohle, G. Brandenburg, E. Caldeweyher
   M. Checinski, S. Dohm, S. Ehlert, S. Ehrlich, I. Gerasimov, C. Hölzer
   A. Katbashev, J. Koopman, C. Lavigne, S. Lehtola, F. März, M. Müller,
   F. Musil, H. Neugebauer, J. Pisarek, C. Plett, P. Pracht, F. Pultar,
   J. Seibert, P. Shushkov, S. Spicher, M. Stahn, M. Steiner, T. Strunk,
   J. Stückrath, T. Rose, and J. Unsleber
   
 * started run on 2026/07/23 at 16:42:36.552     

           -------------------------------------------------
          |                Calculation Setup                |
           -------------------------------------------------

          program call               : xtb /home/selva/covalent_quantum_benchmark/data/quantum/erbB_xyz/ERBB2__CHEMBL369088__state01.xyz --gfn2 --chrg 0 --uhf 0 --iterations 300
          coordinate file            : /home/selva/covalent_quantum_benchmark/data/quantum/erbB_xyz/ERBB2__CHEMBL369088__state01.xyz
          omp threads                :                    24

   ID    Z sym.   atoms
    1    6 C      1, 2, 4-6, 8-10, 12, 14-17, 19-26, 28-31, 33, 35-37, 39-41,
                  43-45
    2    8 O      3, 18, 34, 42, 46
    3    7 N      7, 11, 13, 32, 38
    4   17 Cl     27

           -------------------------------------------------
          |                 G F N 2 - x T B                 |
           -------------------------------------------------

        Reference                      10.1021/acs.jctc.8b01176
      * Hamiltonian:
        H0-scaling (s, p, d)           1.850000    2.230000    2.230000
        zeta-weighting                 0.500000
      * Dispersion:
        s8                             2.700000
        a1                             0.520000
        a2                             5.000000
        s9                             5.000000
      * Repulsion:
        kExp                           1.500000    1.000000
        rExp                           1.000000
      * Coulomb:
        alpha                          2.000000
        third order                    shell-resolved
        anisotropic                    true
        a3                             3.000000
        a5                             4.000000
        cn-shift                       1.200000
        cn-exp                         4.000000
        max-rad                        5.000000


          ...................................................
          :                      SETUP                      :
          :.................................................:
          :  # basis functions                 190          :
          :  # atomic orbitals                 189          :
          :  # shells                           93          :
          :  # electrons                       202          :
          :  max. iterations                   300          :
          :  Hamiltonian                  GFN2-xTB          :
          :  restarted?                      false          :
          :  GBSA solvation                  false          :
          :  PC potential                    false          :
          :  electronic temp.          300.0000000     K    :
          :  accuracy                    1.0000000          :
          :  -> integral cutoff          0.2500000E+02      :
          :  -> integral neglect         0.1000000E-07      :
          :  -> SCF convergence          0.1000000E-05 Eh   :
          :  -> wf. convergence          0.1000000E-03 e    :
          :  Broyden damping             0.4000000          :
          ...................................................

 iter      E             dE          RMSdq      gap      omega  full diag
   1   -111.7937375 -0.111794E+03  0.891E+00    0.07       0.0  T
   2    -85.6567071  0.261370E+02  0.128E+01    0.01       1.0  T
   3    -47.6604515  0.379963E+02  0.153E+01    0.20       1.0  T
   4    -81.1998115 -0.335394E+02  0.110E+01    0.18       1.0  T
   5   -101.7273940 -0.205276E+02  0.861E+00    0.05       1.0  T
   6   -103.5924952 -0.186510E+01  0.833E+00    0.02       1.0  T
   7   -106.9890096 -0.339651E+01  0.647E+00    0.17       1.0  T
   8   -109.0854795 -0.209647E+01  0.609E+00    0.13       1.0  T
   9   -111.1589960 -0.207352E+01  0.452E+00    0.04       1.0  T
  10   -112.2711425 -0.111215E+01  0.381E+00    0.01       1.0  T
  11   -111.9906584  0.280484E+00  0.372E+00    0.15       1.0  T
  12   -112.2378633 -0.247205E+00  0.333E+00    0.10       1.0  T
  13   -112.2581298 -0.202665E-01  0.332E+00    0.05       1.0  T
  14   -112.2107554  0.473744E-01  0.303E+00    0.07       1.0  T
  15   -112.2362846 -0.255292E-01  0.286E+00    0.01       1.0  T
  16   -112.4603646 -0.224080E+00  0.253E+00    0.04       1.0  T
  17   -112.2021686  0.258196E+00  0.307E+00    0.07       1.0  T
  18   -112.6740774 -0.471909E+00  0.224E+00    0.02       1.0  T
  19   -112.3010265  0.373051E+00  0.255E+00    0.06       1.0  T
  20   -112.8338795 -0.532853E+00  0.204E+00    0.06       1.0  T
  21   -112.9182351 -0.843556E-01  0.176E+00    0.05       1.0  T
  22   -112.9346624 -0.164273E-01  0.172E+00    0.07       1.0  T
  23   -112.8586487  0.760137E-01  0.186E+00    0.06       1.0  T
  24   -112.9235603 -0.649117E-01  0.169E+00    0.06       1.0  T
  25   -112.7575030  0.166057E+00  0.188E+00    0.03       1.0  T
  26   -113.0003423 -0.242839E+00  0.133E+00    0.05       1.0  T
  27   -112.7695900  0.230752E+00  0.167E+00    0.04       1.0  T
  28   -112.9926168 -0.223027E+00  0.122E+00    0.03       1.0  T
  29   -113.0044747 -0.118579E-01  0.112E+00    0.04       1.0  T
  30   -112.6914516  0.313023E+00  0.203E+00    0.00       1.0  T
  31   -112.7565428 -0.650913E-01  0.195E+00    0.02       1.0  T
  32   -112.8123825 -0.558397E-01  0.174E+00    0.02       1.0  T
  33   -112.9983245 -0.185942E+00  0.107E+00    0.01       1.0  T
  34   -113.0574927 -0.591682E-01  0.692E-01    0.02       1.0  T
  35   -113.0627227 -0.522996E-02  0.659E-01    0.01       1.0  T
  36   -113.0979075 -0.351848E-01  0.344E-01    0.05       1.0  T
  37   -113.0922353  0.567219E-02  0.428E-01    0.05       1.0  T
  38   -113.0993246 -0.708924E-02  0.295E-01    0.05       1.0  T
  39   -113.1021118 -0.278724E-02  0.249E-01    0.05       1.0  T
  40   -113.1010447  0.106705E-02  0.268E-01    0.05       1.0  T
  41   -113.1050772 -0.403250E-02  0.156E-01    0.04       1.0  T
  42   -113.1060143 -0.937067E-03  0.130E-01    0.04       1.0  T
  43   -113.1062322 -0.217917E-03  0.113E-01    0.05       1.0  T
  44   -113.1066128 -0.380527E-03  0.810E-02    0.04       1.0  T
  45   -113.1071664 -0.553632E-03  0.541E-02    0.04       1.0  T
  46   -113.1072244 -0.580607E-04  0.433E-02    0.04       1.0  T
  47   -113.1072667 -0.422443E-04  0.370E-02    0.04       1.0  T
  48   -113.1071183  0.148371E-03  0.532E-02    0.05       1.0  T
  49   -113.1073368 -0.218494E-03  0.230E-02    0.04       1.0  T
  50   -113.1073341  0.274304E-05  0.204E-02    0.04       1.0  T
  51   -113.1073342 -0.111311E-06  0.165E-02    0.04       1.0  T
  52   -113.1073462 -0.120554E-04  0.133E-02    0.04       1.1  T
  53   -113.1073630 -0.167206E-04  0.841E-03    0.04       1.8  T
  54   -113.1073673 -0.435605E-05  0.548E-03    0.04       2.7  T
  55   -113.1073679 -0.541007E-06  0.501E-03    0.04       2.9  T
  56   -113.1073696 -0.175359E-05  0.227E-03    0.04       6.5  T
  57   -113.1073693  0.354932E-06  0.263E-03    0.04       5.6  T
  58   -113.1073699 -0.663041E-06  0.150E-03    0.04       9.8  T
  59   -113.1073700 -0.125948E-06  0.798E-04    0.04      18.5  T
  60   -113.1073701 -0.458402E-07  0.414E-04    0.04      35.6  T

   *** convergence criteria satisfied after 60 iterations ***

         #    Occupation            Energy/Eh            Energy/eV
      -------------------------------------------------------------
         1        2.0000           -1.1007619             -29.9533
       ...           ...                  ...                  ...
        95        1.9998           -0.4393610             -11.9556
        96        1.9973           -0.4366494             -11.8818
        97        1.9804           -0.4347658             -11.8306
        98        1.9473           -0.4338099             -11.8046
        99        1.7720           -0.4323279             -11.7642
       100        1.6316           -0.4317939             -11.7497
       101        1.5210           -0.4314777             -11.7411 (HOMO)
       102        0.7487           -0.4298920             -11.6980 (LUMO)
       103        0.2638           -0.4285899             -11.6625
       104        0.1382           -0.4279090             -11.6440
       105        0.0000           -0.4173246             -11.3560
       106        0.0000           -0.4165987             -11.3362
       ...           ...                  ...                  ...
       189                          1.0403974              28.3107
      -------------------------------------------------------------
                  HL-Gap            0.0015857 Eh            0.0431 eV
             Fermi-level           -0.4303800 Eh          -11.7112 eV

 SCC (total)                   0 d,  0 h,  0 min,  1.778 sec
 SCC setup                      ...        0 min,  0.000 sec (  0.017%)
 Dispersion                     ...        0 min,  0.002 sec (  0.095%)
 classical contributions        ...        0 min,  0.001 sec (  0.035%)
 integral evaluation            ...        0 min,  0.008 sec (  0.434%)
 iterations                     ...        0 min,  1.718 sec ( 96.606%)
 molecular gradient             ...        0 min,  0.045 sec (  2.518%)
 printout                       ...        0 min,  0.005 sec (  0.292%)

         :::::::::::::::::::::::::::::::::::::::::::::::::::::
         ::                     SUMMARY                     ::
         :::::::::::::::::::::::::::::::::::::::::::::::::::::
         :: total energy            -111.945369979940 Eh    ::
         :: gradient norm              0.626227842018 Eh/a0 ::
         :: HOMO-LUMO gap              0.043149855739 eV    ::
         ::.................................................::
         :: SCC energy              -113.107370085115 Eh    ::
         :: -> isotropic ES            0.061584835198 Eh    ::
         :: -> anisotropic ES          0.000775265565 Eh    ::
         :: -> anisotropic XC          0.066802999741 Eh    ::
         :: -> dispersion             -0.071836815379 Eh    ::
         :: repulsion energy           1.160677886077 Eh    ::
         :: add. restraining           0.000000000000 Eh    ::
         :: total charge              -0.000000000003 e     ::
         :::::::::::::::::::::::::::::::::::::::::::::::::::::

           -------------------------------------------------
          |                Property Printout                |
           -------------------------------------------------

    * Orbital Energies and Occupations

         #    Occupation            Energy/Eh            Energy/eV
      -------------------------------------------------------------
         1        2.0000           -1.1007619             -29.9533
       ...           ...                  ...                  ...
        89        2.0000           -0.4538177             -12.3490
        90        2.0000           -0.4509333             -12.2705
        91        2.0000           -0.4504223             -12.2566
        92        2.0000           -0.4498170             -12.2401
        93        2.0000           -0.4462878             -12.1441
        94        1.9999           -0.4402558             -11.9800
        95        1.9998           -0.4393610             -11.9556
        96        1.9973           -0.4366494             -11.8818
        97        1.9804           -0.4347658             -11.8306
        98        1.9473           -0.4338099             -11.8046
        99        1.7720           -0.4323279             -11.7642
       100        1.6316           -0.4317939             -11.7497
       101        1.5210           -0.4314777             -11.7411 (HOMO)
       102        0.7487           -0.4298920             -11.6980 (LUMO)
       103        0.2638           -0.4285899             -11.6625
       104        0.1382           -0.4279090             -11.6440
       105        0.0000           -0.4173246             -11.3560
       106        0.0000           -0.4165987             -11.3362
       107        0.0000           -0.4149830             -11.2923
       108                         -0.4118370             -11.2067
       109                         -0.4074408             -11.0870
       110                         -0.4056335             -11.0378
       111                         -0.3972423             -10.8095
       112                         -0.3858942             -10.5007
       ...                                ...                  ...
       189                          1.0403974              28.3107
      -------------------------------------------------------------
                  HL-Gap            0.0015857 Eh            0.0431 eV
             Fermi-level           -0.4303800 Eh          -11.7112 eV

     #   Z          covCN         q      C6AA      α(0)
     1   6 C        0.976    -0.107    39.278    10.524
     2   6 C        1.837     0.110    28.439     8.615
     3   8 O        1.703    -0.115    16.049     5.409
     4   6 C        2.849     0.159    24.567     8.123
     5   6 C        1.988    -0.074    33.062     9.286
     6   6 C        2.911     0.118    25.397     8.264
     7   7 N        1.832    -0.128    24.544     7.341
     8   6 C        1.939     0.098    28.659     8.645
     9   6 C        2.943     0.014    27.699     8.632
    10   6 C        1.914     0.121    28.121     8.564
    11   7 N        0.911    -0.197    25.283     7.272
    12   6 C        2.899     0.134    25.075     8.210
    13   7 N        1.838    -0.086    23.663     7.209
    14   6 C        2.916     0.132    25.121     8.219
    15   6 C        1.992    -0.034    31.966     9.131
    16   6 C        1.986    -0.055    32.538     9.212
    17   6 C        2.874     0.171    24.323     8.085
    18   8 O        1.702    -0.118    16.089     5.415
    19   6 C        1.843     0.067    29.449     8.766
    20   6 C        2.958     0.079    26.237     8.402
    21   6 C        1.989    -0.025    31.707     9.094
    22   6 C        1.986     0.003    30.963     8.986
    23   6 C        1.987     0.047    29.846     8.823
    24   6 C        1.985     0.004    30.950     8.984
    25   6 C        1.990    -0.009    31.297     9.034
    26   6 C        2.880     0.094    25.909     8.345
    27  17 Cl       0.959    -0.039   100.394    15.329
    28   6 C        2.033    -0.085    33.327     9.324
    29   6 C        2.972     0.023    27.487     8.600
    30   6 C        1.992    -0.045    32.255     9.172
    31   6 C        2.938     0.103    25.723     8.318
    32   7 N        1.831    -0.137    24.748     7.372
    33   6 C        2.796     0.298    21.951     7.675
    34   8 O        0.862    -0.345    20.606     6.086
    35   6 C        1.967     0.011    30.774     8.959
    36   6 C        1.967     0.018    30.593     8.932
    37   6 C        1.899     0.034    30.232     8.880
    38   7 N        2.719     0.102    19.482     6.555
    39   6 C        1.895    -0.021    31.684     9.091
    40   6 C        2.796     0.226    23.243     7.898
    41   6 C        0.978    -0.071    38.120    10.369
    42   8 O        0.849    -0.353    20.773     6.110
    43   6 C        1.898    -0.007    31.300     9.035
    44   6 C        2.796     0.228    23.206     7.891
    45   6 C        0.978    -0.046    37.323    10.260
    46   8 O        0.849    -0.298    19.755     5.959

 Mol. C6AA /au·bohr⁶  :      59835.495898
 Mol. C8AA /au·bohr⁸  :    1666713.530348
 Mol. α(0) /au        :        388.406331


Wiberg/Mayer (AO) data.
largest (>0.10) Wiberg bond orders for each atom

 ---------------------------------------------------------------------------
     #   Z sym  total        # sym  WBO       # sym  WBO       # sym  WBO
 ---------------------------------------------------------------------------
     1   6 C    2.491 --     2 C    2.184     3 O    0.105
     2   6 C    3.508 --     1 C    2.184     3 O    1.119
     3   8 O    2.448 --     2 C    1.119     4 C    1.091     1 C    0.105
     4   6 C    3.904 --     5 C    1.476     3 O    1.091    31 C    1.079
     5   6 C    3.723 --     4 C    1.476     6 C    1.398    30 C    0.529
     6   6 C    3.917 --     5 C    1.398     7 N    1.180    29 C    1.113
     7   7 N    3.213 --     8 C    1.648     6 C    1.180
     8   6 C    3.746 --     7 N    1.648     9 C    1.563    13 N    0.177
     9   6 C    3.891 --     8 C    1.563    10 C    1.104    12 C    0.981
    10   6 C    3.944 --    11 N    2.778     9 C    1.104
    11   7 N    2.984 --    10 C    2.778
    12   6 C    3.936 --    13 N    1.650    29 C    1.053     9 C    0.981
    13   7 N    3.324 --    12 C    1.650    14 C    1.138     8 C    0.177
    14   6 C    3.884 --    28 C    1.320    15 C    1.247    13 N    1.138
    15   6 C    3.665 --    16 C    1.755    14 C    1.247    28 C    0.326
    16   6 C    3.443 --    15 C    1.755    17 C    1.312    28 C    0.170
    17   6 C    3.843 --    16 C    1.312    26 C    1.188    18 O    1.070
    18   8 O    2.427 --    19 C    1.134    17 C    1.070
Note: The following floating-point exceptions are signalling: IEEE_UNDERFLOW_FLAG IEEE_DENORMAL
normal termination of xtb
    19   6 C    2.988 --    20 C    1.228    18 O    1.134
    20   6 C    3.895 --    25 C    1.238    21 C    1.237    19 C    1.228
    21   6 C    3.514 --    22 C    1.633    20 C    1.237    24 C    0.258
                            23 C    0.202
    22   6 C    3.662 --    21 C    1.633    23 C    1.564    25 C    0.224
    23   6 C    3.740 --    24 C    1.586    22 C    1.564    25 C    0.211
                            21 C    0.202
    24   6 C    3.649 --    25 C    1.657    23 C    1.586    21 C    0.258
    25   6 C    3.522 --    24 C    1.657    20 C    1.238    22 C    0.224
                            23 C    0.211
    26   6 C    3.850 --    28 C    1.463    17 C    1.188    27 Cl   1.021
    27  17 Cl   1.195 --    26 C    1.021
    28   6 C    3.519 --    26 C    1.463    14 C    1.320    15 C    0.326
                            16 C    0.170
    29   6 C    3.919 --    30 C    1.508     6 C    1.113    12 C    1.053
    30   6 C    3.781 --    29 C    1.508    31 C    1.402     5 C    0.529
    31   6 C    3.929 --    30 C    1.402    32 N    1.200     4 C    1.079
    32   7 N    3.241 --    33 C    1.475    31 C    1.200    34 O    0.171
    33   6 C    3.938 --    32 N    1.475    34 O    1.410    35 C    0.957
    34   8 O    1.885 --    33 C    1.410    32 N    0.171
    35   6 C    3.728 --    36 C    2.304    33 C    0.957    37 C    0.103
    36   6 C    3.823 --    35 C    2.304    37 C    1.293
    37   6 C    3.341 --    36 C    1.293    38 N    1.184    39 C    0.274
                            35 C    0.103
    38   7 N    3.605 --    37 C    1.184    43 C    1.167    39 C    1.059
    39   6 C    3.111 --    40 C    1.149    38 N    1.059    37 C    0.274
                            42 O    0.204    41 C    0.108
    40   6 C    3.860 --    41 C    1.350    42 O    1.288    39 C    1.149
    41   6 C    1.949 --    40 C    1.350    42 O    0.371    39 C    0.108
    42   8 O    2.049 --    40 C    1.288    41 C    0.371    39 C    0.204
    43   6 C    2.867 --    38 N    1.167    44 C    1.094    46 O    0.213
    44   6 C    3.822 --    45 C    1.338    46 O    1.331    43 C    1.094
    45   6 C    1.929 --    44 C    1.338    46 O    0.335
    46   8 O    1.974 --    44 C    1.331    45 C    0.335    43 C    0.213
 ---------------------------------------------------------------------------

Topologies differ in total number of bonds
Writing topology from bond orders to xtbtopo.mol

molecular dipole:
                 x           y           z       tot (Debye)
 q only:        2.767       3.248      -1.601
   full:        2.982       3.201      -1.841      12.063
molecular quadrupole (traceless):
                xx          xy          yy          xz          yz          zz
 q only:        9.657      -1.088     -21.408      27.397      24.302      11.750
  q+dip:        2.571       3.912     -15.862      18.177      28.771      13.292
   full:        2.788       2.939     -20.066      19.176      26.622      17.278


           -------------------------------------------------
          | TOTAL ENERGY             -111.945369979940 Eh   |
          | GRADIENT NORM               0.626227842018 Eh/α |
          | HOMO-LUMO GAP               0.043149855739 eV   |
           -------------------------------------------------

------------------------------------------------------------------------
 * finished run on 2026/07/23 at 16:42:38.375     
------------------------------------------------------------------------
 total:
 * wall-time:     0 d,  0 h,  0 min,  1.823 sec
 *  cpu-time:     0 d,  0 h,  0 min,  1.857 sec
 * ratio c/w:     1.018 speedup
 SCF:
 * wall-time:     0 d,  0 h,  0 min,  1.779 sec
 *  cpu-time:     0 d,  0 h,  0 min,  1.818 sec
 * ratio c/w:     1.022 speedup

