      -----------------------------------------------------------      
     |                   =====================                   |     
     |                           x T B                           |     
     |                   =====================                   |     
     |                         S. Grimme                         |     
     |          Mulliken Center for Theoretical Chemistry        |     
     |                    University of Bonn                     |     
      -----------------------------------------------------------      

   * xtb version 6.6.1 (unknown) compiled by 'builduser@buildhost' on 2023-08-07

   xtb is free software: you can redistribute it and/or modify it under
   the terms of the GNU Lesser General Public License as published by
   the Free Software Foundation, either version 3 of the License, or
   (at your option) any later version.
   
   xtb is distributed in the hope that it will be useful,
   but WITHOUT ANY WARRANTY; without even the implied warranty of
   MERCHANTABILITY or FITNESS FOR A PARTICULAR PURPOSE.  See the
   GNU Lesser General Public License for more details.
   
   Cite this work as:
   * C. Bannwarth, E. Caldeweyher, S. Ehlert, A. Hansen, P. Pracht,
     J. Seibert, S. Spicher, S. Grimme, WIREs Comput. Mol. Sci., 2020, 11,
     e01493. DOI: 10.1002/wcms.1493
   
   for GFN2-xTB:
   * C. Bannwarth, S. Ehlert and S. Grimme., J. Chem. Theory Comput., 2019,
     15, 1652-1671. DOI: 10.1021/acs.jctc.8b01176
   for GFN1-xTB:
   * S. Grimme, C. Bannwarth, P. Shushkov, J. Chem. Theory Comput., 2017,
     13, 1989-2009. DOI: 10.1021/acs.jctc.7b00118
   for GFN0-xTB:
   * P. Pracht, E. Caldeweyher, S. Ehlert, S. Grimme, ChemRxiv, 2019, preprint.
     DOI: 10.26434/chemrxiv.8326202.v1
   for GFN-FF:
   * S. Spicher and S. Grimme, Angew. Chem. Int. Ed., 2020, 59, 15665-15673.
     DOI: 10.1002/anie.202004239
   
   for ALPB and GBSA implicit solvation:
   * S. Ehlert, M. Stahn, S. Spicher, S. Grimme, J. Chem. Theory Comput.,
     2021, 17, 4250-4261. DOI: 10.1021/acs.jctc.1c00471
   
   for DFT-D4:
   * E. Caldeweyher, C. Bannwarth and S. Grimme, J. Chem. Phys., 2017,
     147, 034112. DOI: 10.1063/1.4993215
   * E. Caldeweyher, S. Ehlert, A. Hansen, H. Neugebauer, S. Spicher,
     C. Bannwarth and S. Grimme, J. Chem. Phys., 2019, 150, 154122.
     DOI: 10.1063/1.5090222
   * E. Caldeweyher, J.-M. Mewes, S. Ehlert and S. Grimme, Phys. Chem. Chem. Phys.
     2020, 22, 8499-8512. DOI: 10.1039/D0CP00502A
   
   for sTDA-xTB:
   * S. Grimme and C. Bannwarth, J. Chem. Phys., 2016, 145, 054103.
     DOI: 10.1063/1.4959605
   
   in the mass-spec context:
   * V. Asgeirsson, C. Bauer and S. Grimme, Chem. Sci., 2017, 8, 4879.
     DOI: 10.1039/c7sc00601b
   * J. Koopman and S. Grimme, ACS Omega 2019, 4, 12, 15120-15133.
     DOI: 10.1021/acsomega.9b02011
   
   for metadynamics refer to:
   * S. Grimme, J. Chem. Theory Comput., 2019, 155, 2847-2862
     DOI: 10.1021/acs.jctc.9b00143
   
   for SPH calculations refer to:
   * S. Spicher and S. Grimme, J. Chem. Theory Comput., 2021, 17, 1701-1714
     DOI: 10.1021/acs.jctc.0c01306
   
   with help from (in alphabetical order)
   P. Atkinson, C. Bannwarth, F. Bohle, G. Brandenburg, E. Caldeweyher
   M. Checinski, S. Dohm, S. Ehlert, S. Ehrlich, I. Gerasimov, C. Hölzer
   A. Katbashev, J. Koopman, C. Lavigne, S. Lehtola, F. März, M. Müller,
   F. Musil, H. Neugebauer, J. Pisarek, C. Plett, P. Pracht, F. Pultar,
   J. Seibert, P. Shushkov, S. Spicher, M. Stahn, M. Steiner, T. Strunk,
   J. Stückrath, T. Rose, and J. Unsleber
   
 * started run on 2026/07/23 at 16:42:38.682     

           -------------------------------------------------
          |                Calculation Setup                |
           -------------------------------------------------

          program call               : xtb /home/selva/covalent_quantum_benchmark/data/quantum/erbB_xyz/ERBB2__CHEMBL369299__state00.xyz --gfn2 --chrg 0 --uhf 0 --iterations 300
          coordinate file            : /home/selva/covalent_quantum_benchmark/data/quantum/erbB_xyz/ERBB2__CHEMBL369299__state00.xyz
          omp threads                :                    24

   ID    Z sym.   atoms
    1    6 C      1, 2, 4-6, 8-10, 12, 14-17, 19-30, 32, 34-36, 38, 39
    2    8 O      3, 18, 33
    3    7 N      7, 11, 13, 31, 37

           -------------------------------------------------
          |                 G F N 2 - x T B                 |
           -------------------------------------------------

        Reference                      10.1021/acs.jctc.8b01176
      * Hamiltonian:
        H0-scaling (s, p, d)           1.850000    2.230000    2.230000
        zeta-weighting                 0.500000
      * Dispersion:
        s8                             2.700000
        a1                             0.520000
        a2                             5.000000
        s9                             5.000000
      * Repulsion:
        kExp                           1.500000    1.000000
        rExp                           1.000000
      * Coulomb:
        alpha                          2.000000
        third order                    shell-resolved
        anisotropic                    true
        a3                             3.000000
        a5                             4.000000
        cn-shift                       1.200000
        cn-exp                         4.000000
        max-rad                        5.000000


          ...................................................
          :                      SETUP                      :
          :.................................................:
          :  # basis functions                 156          :
          :  # atomic orbitals                 156          :
          :  # shells                           78          :
          :  # electrons                       167          :
          :  max. iterations                   300          :
          :  Hamiltonian                  GFN2-xTB          :
          :  restarted?                      false          :
          :  GBSA solvation                  false          :
          :  PC potential                    false          :
          :  electronic temp.          300.0000000     K    :
          :  accuracy                    1.0000000          :
          :  -> integral cutoff          0.2500000E+02      :
          :  -> integral neglect         0.1000000E-07      :
          :  -> SCF convergence          0.1000000E-05 Eh   :
          :  -> wf. convergence          0.1000000E-03 e    :
          :  Broyden damping             0.4000000          :
          ...................................................

 iter      E             dE          RMSdq      gap      omega  full diag
   1    -90.8214891 -0.908215E+02  0.920E+00    0.19       0.0  T
   2    -62.6811081  0.281404E+02  0.142E+01    0.05       1.0  T
   3    -38.7470524  0.239341E+02  0.146E+01    0.25       1.0  T
   4    -44.7964056 -0.604935E+01  0.138E+01    0.04       1.0  T
   5    -78.4755286 -0.336791E+02  0.106E+01    0.24       1.0  T
   6    -88.6195768 -0.101440E+02  0.666E+00    0.08       1.0  T
   7    -80.8591884  0.776039E+01  0.839E+00    0.23       1.0  T
   8    -90.4961325 -0.963694E+01  0.512E+00    0.06       1.0  T
   9    -91.0313251 -0.535193E+00  0.452E+00    0.13       1.0  T
  10    -90.7882214  0.243104E+00  0.401E+00    0.09       1.0  T
  11    -90.2529551  0.535266E+00  0.455E+00    0.06       1.0  T
  12    -91.3992852 -0.114633E+01  0.287E+00    0.01       1.0  T
  13    -91.8844184 -0.485133E+00  0.264E+00    0.05       1.0  T
  14    -91.9230228 -0.386045E-01  0.247E+00    0.04       1.0  T
  15    -91.9137968  0.922605E-02  0.252E+00    0.05       1.0  T
  16    -91.9422932 -0.284964E-01  0.237E+00    0.03       1.0  T
  17    -91.9221389  0.201542E-01  0.216E+00    0.05       1.0  T
  18    -92.0510612 -0.128922E+00  0.163E+00    0.02       1.0  T
  19    -92.0844625 -0.334013E-01  0.124E+00    0.01       1.0  T
  20    -91.8072528  0.277210E+00  0.209E+00    0.05       1.0  T
  21    -91.9018117 -0.945589E-01  0.180E+00    0.05       1.0  T
  22    -91.9135899 -0.117782E-01  0.182E+00    0.03       1.0  T
  23    -91.9134580  0.131958E-03  0.179E+00    0.04       1.0  T
  24    -92.0420081 -0.128550E+00  0.125E+00    0.03       1.0  T
  25    -92.1366250 -0.946169E-01  0.908E-01    0.01       1.0  T
  26    -92.1237496  0.128754E-01  0.850E-01    0.01       1.0  T
  27    -92.1297697 -0.602009E-02  0.826E-01    0.03       1.0  T
  28    -92.1134059  0.163638E-01  0.892E-01    0.03       1.0  T
  29    -92.1049256  0.848029E-02  0.880E-01    0.03       1.0  T
  30    -92.1081611 -0.323552E-02  0.856E-01    0.03       1.0  T
  31    -92.1583137 -0.501526E-01  0.593E-01    0.01       1.0  T
  32    -92.1041313  0.541824E-01  0.821E-01    0.03       1.0  T
  33    -92.1138607 -0.972943E-02  0.780E-01    0.03       1.0  T
  34    -92.1470949 -0.332341E-01  0.581E-01    0.02       1.0  T
  35    -92.1705689 -0.234740E-01  0.378E-01    0.01       1.0  T
  36    -92.1721642 -0.159526E-02  0.345E-01    0.01       1.0  T
  37    -92.1774419 -0.527777E-02  0.231E-01    0.00       1.0  T
  38    -92.1773100  0.131927E-03  0.216E-01    0.00       1.0  T
  39    -92.1788093 -0.149931E-02  0.158E-01    0.00       1.0  T
  40    -92.1803719 -0.156257E-02  0.105E-01    0.00       1.0  T
  41    -92.1804942 -0.122340E-03  0.930E-02    0.00       1.0  T
  42    -92.1812322 -0.737962E-03  0.375E-02    0.00       1.0  T
  43    -92.1813100 -0.778384E-04  0.238E-02    0.00       1.0  T
  44    -92.1812364  0.736160E-04  0.321E-02    0.00       1.0  T
  45    -92.1812736 -0.371657E-04  0.294E-02    0.00       1.0  T
  46    -92.1813417 -0.681277E-04  0.167E-02    0.00       1.0  T
  47    -92.1813670 -0.253149E-04  0.717E-03    0.00       2.2  T
  48    -92.1813688 -0.173614E-05  0.709E-03    0.00       2.3  T
  49    -92.1813736 -0.483935E-05  0.212E-03    0.00       7.6  T
  50    -92.1813727  0.863969E-06  0.328E-03    0.00       4.9  T
  51    -92.1813732 -0.434360E-06  0.274E-03    0.00       5.8  T
  52    -92.1813731  0.841854E-07  0.269E-03    0.00       5.9  T
  53    -92.1813737 -0.603864E-06  0.147E-03    0.00      10.9  T
  54    -92.1813738 -0.127011E-06  0.104E-03    0.00      15.4  T
  55    -92.1813739 -0.805512E-07  0.585E-04    0.00      27.4  T
  56    -92.1813739 -0.233156E-07  0.380E-04    0.00      42.2  T

   *** convergence criteria satisfied after 56 iterations ***

         #    Occupation            Energy/Eh            Energy/eV
      -------------------------------------------------------------
         1        2.0000           -0.7878943             -21.4397
       ...           ...                  ...                  ...
        78        1.9996           -0.4245331             -11.5521
        79        1.9314           -0.4195555             -11.4167
        80        1.9055           -0.4192353             -11.4080
        81        1.8887           -0.4190697             -11.4035
        82        1.7117           -0.4180517             -11.3758
        83        1.5865           -0.4176217             -11.3641
        84        0.9121           -0.4160903             -11.3224 (HOMO)
        85        0.8604           -0.4159842             -11.3195 (LUMO)
        86        0.2039           -0.4141022             -11.2683
        87        0.0003           -0.4076153             -11.0918
        88        0.0000           -0.4013862             -10.9223
        89                         -0.3973159             -10.8115
       ...                                ...                  ...
       156                          1.0427401              28.3744
      -------------------------------------------------------------
                  HL-Gap            0.0001061 Eh            0.0029 eV
             Fermi-level           -0.4162693 Eh          -11.3273 eV

 SCC (total)                   0 d,  0 h,  0 min,  1.050 sec
 SCC setup                      ...        0 min,  0.000 sec (  0.037%)
 Dispersion                     ...        0 min,  0.002 sec (  0.147%)
 classical contributions        ...        0 min,  0.001 sec (  0.084%)
 integral evaluation            ...        0 min,  0.008 sec (  0.728%)
 iterations                     ...        0 min,  0.996 sec ( 94.898%)
 molecular gradient             ...        0 min,  0.031 sec (  2.987%)
 printout                       ...        0 min,  0.012 sec (  1.113%)

         :::::::::::::::::::::::::::::::::::::::::::::::::::::
         ::                     SUMMARY                     ::
         :::::::::::::::::::::::::::::::::::::::::::::::::::::
         :: total energy             -91.083068157803 Eh    ::
         :: gradient norm              0.539087087133 Eh/a0 ::
         :: HOMO-LUMO gap              0.002888124558 eV    ::
         ::.................................................::
         :: SCC energy               -92.181373914065 Eh    ::
         :: -> isotropic ES            0.008002547905 Eh    ::
         :: -> anisotropic ES          0.006773759331 Eh    ::
         :: -> anisotropic XC          0.064291476472 Eh    ::
         :: -> dispersion             -0.053938333450 Eh    ::
         :: repulsion energy           1.098468245645 Eh    ::
         :: add. restraining           0.000000000000 Eh    ::
         :: total charge               0.000000000004 e     ::
         :::::::::::::::::::::::::::::::::::::::::::::::::::::

           -------------------------------------------------
          |                Property Printout                |
           -------------------------------------------------

    * Orbital Energies and Occupations

         #    Occupation            Energy/Eh            Energy/eV
      -------------------------------------------------------------
         1        2.0000           -0.7878943             -21.4397
       ...           ...                  ...                  ...
        72        2.0000           -0.4490928             -12.2204
        73        2.0000           -0.4477931             -12.1851
        74        2.0000           -0.4396624             -11.9638
        75        2.0000           -0.4322596             -11.7624
        76        2.0000           -0.4290524             -11.6751
        77        2.0000           -0.4268632             -11.6155
        78        1.9996           -0.4245331             -11.5521
        79        1.9314           -0.4195555             -11.4167
        80        1.9055           -0.4192353             -11.4080
        81        1.8887           -0.4190697             -11.4035
        82        1.7117           -0.4180517             -11.3758
        83        1.5865           -0.4176217             -11.3641
        84        0.9121           -0.4160903             -11.3224 (HOMO)
        85        0.8604           -0.4159842             -11.3195 (LUMO)
        86        0.2039           -0.4141022             -11.2683
        87        0.0003           -0.4076153             -11.0918
        88        0.0000           -0.4013862             -10.9223
        89                         -0.3973159             -10.8115
        90                         -0.3920330             -10.6678
        91                         -0.3878029             -10.5527
        92                         -0.3827884             -10.4162
        93                         -0.3652027              -9.9377
        94                         -0.3631525              -9.8819
        95                         -0.3589064              -9.7663
       ...                                ...                  ...
       156                          1.0427401              28.3744
      -------------------------------------------------------------
                  HL-Gap            0.0001061 Eh            0.0029 eV
             Fermi-level           -0.4162693 Eh          -11.3273 eV

     #   Z          covCN         q      C6AA      α(0)
     1   6 C        0.976    -0.099    39.024    10.490
     2   6 C        1.842     0.083    29.061     8.709
     3   8 O        1.703    -0.106    15.928     5.388
     4   6 C        2.861     0.164    24.455     8.106
     5   6 C        2.002    -0.086    33.378     9.330
     6   6 C        2.952     0.120    25.361     8.260
     7   7 N        1.845    -0.115    24.264     7.300
     8   6 C        1.971     0.066    29.389     8.755
     9   6 C        2.958     0.032    27.291     8.569
    10   6 C        1.907     0.122    28.097     8.561
    11   7 N        0.911    -0.183    24.964     7.226
    12   6 C        2.911     0.131    25.142     8.222
    13   7 N        1.828    -0.147    24.957     7.403
    14   6 C        2.892     0.142    24.908     8.183
    15   6 C        1.990    -0.073    33.024     9.280
    16   6 C        1.990    -0.047    32.318     9.181
    17   6 C        2.854     0.200    23.752     7.988
    18   8 O        1.703    -0.114    16.042     5.408
    19   6 C        1.845     0.058    29.676     8.800
    20   6 C        2.958     0.076    26.303     8.412
    21   6 C        1.990    -0.019    31.565     9.073
    22   6 C        1.985    -0.005    31.192     9.019
    23   6 C        1.987     0.039    30.064     8.855
    24   6 C        1.986    -0.008    31.253     9.028
    25   6 C        1.989    -0.034    31.969     9.131
    26   6 C        1.986    -0.080    33.224     9.308
    27   6 C        1.994    -0.017    31.494     9.063
    28   6 C        2.977     0.020    27.553     8.610
    29   6 C        1.990    -0.044    32.231     9.168
    30   6 C        2.895     0.114    25.494     8.278
    31   7 N        1.836    -0.218    26.581     7.640
    32   6 C        2.753     0.323    21.514     7.595
    33   8 O        0.857    -0.340    20.511     6.072
    34   6 C        1.971    -0.002    31.119     9.009
    35   6 C        1.965     0.029    30.324     8.893
    36   6 C        1.906    -0.003    31.193     9.020
    37   7 N        2.721     0.194    18.035     6.307
    38   6 C        0.931    -0.089    38.362    10.377
    39   6 C        0.931    -0.085    38.237    10.360

 Mol. C6AA /au·bohr⁶  :      42336.926593
 Mol. C8AA /au·bohr⁸  :    1164432.023220
 Mol. α(0) /au        :        328.377413


Wiberg/Mayer (AO) data.
largest (>0.10) Wiberg bond orders for each atom

 ---------------------------------------------------------------------------
     #   Z sym  total        # sym  WBO       # sym  WBO       # sym  WBO
 ---------------------------------------------------------------------------
     1   6 C    2.141 --     2 C    1.957
     2   6 C    3.258 --     1 C    1.957     3 O    1.131
     3   8 O    2.409 --     2 C    1.131     4 C    1.091
     4   6 C    3.881 --     5 C    1.477     3 O    1.091    30 C    1.064
     5   6 C    3.636 --     4 C    1.477     6 C    1.390    29 C    0.443
     6   6 C    3.900 --     5 C    1.390     7 N    1.240    28 C    1.065
     7   7 N    3.268 --     8 C    1.668     6 C    1.240
     8   6 C    3.506 --     7 N    1.668     9 C    1.380    13 N    0.156
     9   6 C    3.925 --     8 C    1.380    12 C    1.231    10 C    1.081
    10   6 C    3.943 --    11 N    2.814     9 C    1.081
    11   7 N    2.996 --    10 C    2.814
    12   6 C    3.936 --     9 C    1.231    13 N    1.229    28 C    1.192
    13   7 N    3.111 --    14 C    1.317    12 C    1.229     8 C    0.156
    14   6 C    3.890 --    13 N    1.317    15 C    1.201    27 C    1.195
    15   6 C    3.468 --    16 C    1.601    14 C    1.201    27 C    0.335
                            26 C    0.111
    16   6 C    3.401 --    15 C    1.601    17 C    1.223    26 C    0.312
    17   6 C    3.837 --    26 C    1.251    16 C    1.223    18 O    1.097
    18   8 O    2.442 --    19 C    1.134    17 C    1.097
    19   6 C    2.981 --    20 C    1.217    18 O    1.134
    20   6 C    3.896 --    25 C    1.247    21 C    1.247    19 C    1.217
    21   6 C    3.488 --    22 C    1.611    20 C    1.247    24 C    0.235
                            23 C    0.195
    22   6 C    3.623 --    21 C    1.611    23 C    1.606    25 C    0.264
    23   6 C    3.753 --    22 C    1.606    24 C    1.586    21 C    0.195
                            25 C    0.188
    24   6 C    3.616 --    25 C    1.594    23 C    1.586    21 C    0.235
    25   6 C    3.486 --    24 C    1.594    20 C    1.247    22 C    0.264
                            23 C    0.188
    26   6 C    3.442 --    27 C    1.614    17 C    1.251    16 C    0.312
Note: The following floating-point exceptions are signalling: IEEE_UNDERFLOW_FLAG IEEE_DENORMAL
normal termination of xtb
                            15 C    0.111
    27   6 C    3.419 --    26 C    1.614    14 C    1.195    15 C    0.335
    28   6 C    3.936 --    29 C    1.429    12 C    1.192     6 C    1.065
    29   6 C    3.644 --    28 C    1.429    30 C    1.390     5 C    0.443
    30   6 C    3.920 --    29 C    1.390    31 N    1.276     4 C    1.064
    31   7 N    2.943 --    30 C    1.276    32 C    1.203    33 O    0.112
    32   6 C    3.914 --    33 O    1.644    31 N    1.203    34 C    0.982
    33   8 O    2.092 --    32 C    1.644    31 N    0.112
    34   6 C    3.779 --    35 C    2.259    32 C    0.982    38 C    0.147
                            39 C    0.136
    35   6 C    3.829 --    34 C    2.259    36 C    1.364
    36   6 C    3.378 --    35 C    1.364    37 N    0.961    39 C    0.448
                            38 C    0.447
    37   7 N    3.703 --    39 C    1.357    38 C    1.351    36 C    0.961
    38   6 C    2.509 --    37 N    1.351    39 C    0.496    36 C    0.447
                            34 C    0.147
    39   6 C    2.517 --    37 N    1.357    38 C    0.496    36 C    0.448
                            34 C    0.136
 ---------------------------------------------------------------------------

Topologies differ in total number of bonds
Writing topology from bond orders to xtbtopo.mol

molecular dipole:
                 x           y           z       tot (Debye)
 q only:       -0.560      -0.704      -0.169
   full:       -0.537      -1.153      -0.599       3.574
molecular quadrupole (traceless):
                xx          xy          yy          xz          yz          zz
 q only:       -4.643       5.073       6.541       0.443      -5.671      -1.898
  q+dip:       -1.099       5.134      -0.052       1.090      -5.710       1.151
   full:        5.970       9.311      -2.764       0.195      -7.668      -3.206


           -------------------------------------------------
          | TOTAL ENERGY              -91.083068157803 Eh   |
          | GRADIENT NORM               0.539087087133 Eh/α |
          | HOMO-LUMO GAP               0.002888124558 eV   |
           -------------------------------------------------

------------------------------------------------------------------------
 * finished run on 2026/07/23 at 16:42:39.757     
------------------------------------------------------------------------
 total:
 * wall-time:     0 d,  0 h,  0 min,  1.075 sec
 *  cpu-time:     0 d,  0 h,  0 min,  1.068 sec
 * ratio c/w:     0.994 speedup
 SCF:
 * wall-time:     0 d,  0 h,  0 min,  1.051 sec
 *  cpu-time:     0 d,  0 h,  0 min,  1.038 sec
 * ratio c/w:     0.988 speedup

