      -----------------------------------------------------------      
     |                   =====================                   |     
     |                           x T B                           |     
     |                   =====================                   |     
     |                         S. Grimme                         |     
     |          Mulliken Center for Theoretical Chemistry        |     
     |                    University of Bonn                     |     
      -----------------------------------------------------------      

   * xtb version 6.6.1 (unknown) compiled by 'builduser@buildhost' on 2023-08-07

   xtb is free software: you can redistribute it and/or modify it under
   the terms of the GNU Lesser General Public License as published by
   the Free Software Foundation, either version 3 of the License, or
   (at your option) any later version.
   
   xtb is distributed in the hope that it will be useful,
   but WITHOUT ANY WARRANTY; without even the implied warranty of
   MERCHANTABILITY or FITNESS FOR A PARTICULAR PURPOSE.  See the
   GNU Lesser General Public License for more details.
   
   Cite this work as:
   * C. Bannwarth, E. Caldeweyher, S. Ehlert, A. Hansen, P. Pracht,
     J. Seibert, S. Spicher, S. Grimme, WIREs Comput. Mol. Sci., 2020, 11,
     e01493. DOI: 10.1002/wcms.1493
   
   for GFN2-xTB:
   * C. Bannwarth, S. Ehlert and S. Grimme., J. Chem. Theory Comput., 2019,
     15, 1652-1671. DOI: 10.1021/acs.jctc.8b01176
   for GFN1-xTB:
   * S. Grimme, C. Bannwarth, P. Shushkov, J. Chem. Theory Comput., 2017,
     13, 1989-2009. DOI: 10.1021/acs.jctc.7b00118
   for GFN0-xTB:
   * P. Pracht, E. Caldeweyher, S. Ehlert, S. Grimme, ChemRxiv, 2019, preprint.
     DOI: 10.26434/chemrxiv.8326202.v1
   for GFN-FF:
   * S. Spicher and S. Grimme, Angew. Chem. Int. Ed., 2020, 59, 15665-15673.
     DOI: 10.1002/anie.202004239
   
   for ALPB and GBSA implicit solvation:
   * S. Ehlert, M. Stahn, S. Spicher, S. Grimme, J. Chem. Theory Comput.,
     2021, 17, 4250-4261. DOI: 10.1021/acs.jctc.1c00471
   
   for DFT-D4:
   * E. Caldeweyher, C. Bannwarth and S. Grimme, J. Chem. Phys., 2017,
     147, 034112. DOI: 10.1063/1.4993215
   * E. Caldeweyher, S. Ehlert, A. Hansen, H. Neugebauer, S. Spicher,
     C. Bannwarth and S. Grimme, J. Chem. Phys., 2019, 150, 154122.
     DOI: 10.1063/1.5090222
   * E. Caldeweyher, J.-M. Mewes, S. Ehlert and S. Grimme, Phys. Chem. Chem. Phys.
     2020, 22, 8499-8512. DOI: 10.1039/D0CP00502A
   
   for sTDA-xTB:
   * S. Grimme and C. Bannwarth, J. Chem. Phys., 2016, 145, 054103.
     DOI: 10.1063/1.4959605
   
   in the mass-spec context:
   * V. Asgeirsson, C. Bauer and S. Grimme, Chem. Sci., 2017, 8, 4879.
     DOI: 10.1039/c7sc00601b
   * J. Koopman and S. Grimme, ACS Omega 2019, 4, 12, 15120-15133.
     DOI: 10.1021/acsomega.9b02011
   
   for metadynamics refer to:
   * S. Grimme, J. Chem. Theory Comput., 2019, 155, 2847-2862
     DOI: 10.1021/acs.jctc.9b00143
   
   for SPH calculations refer to:
   * S. Spicher and S. Grimme, J. Chem. Theory Comput., 2021, 17, 1701-1714
     DOI: 10.1021/acs.jctc.0c01306
   
   with help from (in alphabetical order)
   P. Atkinson, C. Bannwarth, F. Bohle, G. Brandenburg, E. Caldeweyher
   M. Checinski, S. Dohm, S. Ehlert, S. Ehrlich, I. Gerasimov, C. Hölzer
   A. Katbashev, J. Koopman, C. Lavigne, S. Lehtola, F. März, M. Müller,
   F. Musil, H. Neugebauer, J. Pisarek, C. Plett, P. Pracht, F. Pultar,
   J. Seibert, P. Shushkov, S. Spicher, M. Stahn, M. Steiner, T. Strunk,
   J. Stückrath, T. Rose, and J. Unsleber
   
 * started run on 2026/07/23 at 16:39:26.897     

           -------------------------------------------------
          |                Calculation Setup                |
           -------------------------------------------------

          program call               : xtb /home/selva/covalent_quantum_benchmark/data/quantum/erbB_xyz/EGFR__CHEMBL92961__state00.xyz --gfn2 --chrg 0 --uhf 0 --iterations 300
          coordinate file            : /home/selva/covalent_quantum_benchmark/data/quantum/erbB_xyz/EGFR__CHEMBL92961__state00.xyz
          omp threads                :                    24

   ID    Z sym.   atoms
    1    6 C      1-3, 5-8, 11-14, 16, 18, 20-24, 26-31
    2    7 N      4, 10, 15, 17, 19
    3    8 O      9
    4   35 Br     25

           -------------------------------------------------
          |                 G F N 2 - x T B                 |
           -------------------------------------------------

        Reference                      10.1021/acs.jctc.8b01176
      * Hamiltonian:
        H0-scaling (s, p, d)           1.850000    2.230000    2.230000
        zeta-weighting                 0.500000
      * Dispersion:
        s8                             2.700000
        a1                             0.520000
        a2                             5.000000
        s9                             5.000000
      * Repulsion:
        kExp                           1.500000    1.000000
        rExp                           1.000000
      * Coulomb:
        alpha                          2.000000
        third order                    shell-resolved
        anisotropic                    true
        a3                             3.000000
        a5                             4.000000
        cn-shift                       1.200000
        cn-exp                         4.000000
        max-rad                        5.000000


          ...................................................
          :                      SETUP                      :
          :.................................................:
          :  # basis functions                 130          :
          :  # atomic orbitals                 129          :
          :  # shells                           63          :
          :  # electrons                       134          :
          :  max. iterations                   300          :
          :  Hamiltonian                  GFN2-xTB          :
          :  restarted?                      false          :
          :  GBSA solvation                  false          :
          :  PC potential                    false          :
          :  electronic temp.          300.0000000     K    :
          :  accuracy                    1.0000000          :
          :  -> integral cutoff          0.2500000E+02      :
          :  -> integral neglect         0.1000000E-07      :
          :  -> SCF convergence          0.1000000E-05 Eh   :
          :  -> wf. convergence          0.1000000E-03 e    :
          :  Broyden damping             0.4000000          :
          ...................................................

 iter      E             dE          RMSdq      gap      omega  full diag
   1    -72.4402856 -0.724403E+02  0.974E+00    0.21       0.0  T
   2    -47.4280007  0.250123E+02  0.145E+01    0.05       1.0  T
   3    -21.0228790  0.264051E+02  0.158E+01    0.07       1.0  T
   4    -19.8750505  0.114783E+01  0.163E+01    0.05       1.0  T
   5    -67.4734550 -0.475984E+02  0.997E+00    0.09       1.0  T
   6    -70.2007977 -0.272734E+01  0.773E+00    0.53       1.0  T
   7    -71.3252875 -0.112449E+01  0.676E+00    0.21       1.0  T
   8    -71.2982178  0.270697E-01  0.576E+00    0.04       1.0  T
   9    -71.0792329  0.218985E+00  0.558E+00    0.07       1.0  T
  10    -72.4724405 -0.139321E+01  0.437E+00    0.44       1.0  T
  11    -72.5794364 -0.106996E+00  0.392E+00    0.40       1.0  T
  12    -72.6186805 -0.392441E-01  0.360E+00    0.26       1.0  T
  13    -72.7642025 -0.145522E+00  0.288E+00    0.06       1.0  T
  14    -73.0012964 -0.237094E+00  0.238E+00    0.08       1.0  T
  15    -72.9777874  0.235090E-01  0.234E+00    0.10       1.0  T
  16    -73.1400176 -0.162230E+00  0.195E+00    0.02       1.0  T
  17    -73.1390036  0.101398E-02  0.187E+00    0.04       1.0  T
  18    -72.9535899  0.185414E+00  0.259E+00    0.08       1.0  T
  19    -72.9212407  0.323492E-01  0.242E+00    0.04       1.0  T
  20    -72.9635014 -0.422607E-01  0.225E+00    0.06       1.0  T
  21    -73.1768649 -0.213363E+00  0.140E+00    0.04       1.0  T
  22    -73.1691579  0.770703E-02  0.126E+00    0.02       1.0  T
  23    -73.1167682  0.523897E-01  0.142E+00    0.04       1.0  T
  24    -73.2287506 -0.111982E+00  0.952E-01    0.01       1.0  T
  25    -72.9940458  0.234705E+00  0.168E+00    0.03       1.0  T
  26    -73.0402535 -0.462077E-01  0.153E+00    0.04       1.0  T
  27    -73.2085151 -0.168262E+00  0.858E-01    0.00       1.0  T
  28    -73.2617339 -0.532187E-01  0.430E-01    0.02       1.0  T
  29    -73.2235115  0.382223E-01  0.795E-01    0.02       1.0  T
  30    -73.2441510 -0.206395E-01  0.608E-01    0.03       1.0  T
  31    -73.2581488 -0.139978E-01  0.445E-01    0.02       1.0  T
  32    -73.2736115 -0.154627E-01  0.141E-01    0.03       1.0  T
  33    -73.2733162  0.295332E-03  0.130E-01    0.03       1.0  T
  34    -73.2741624 -0.846237E-03  0.900E-02    0.03       1.0  T
  35    -73.2740427  0.119746E-03  0.692E-02    0.03       1.0  T
  36    -73.2744387 -0.395983E-03  0.293E-02    0.03       1.0  T
  37    -73.2741765  0.262194E-03  0.563E-02    0.03       1.0  T
  38    -73.2744631 -0.286579E-03  0.205E-02    0.03       1.0  T
  39    -73.2744481  0.149352E-04  0.242E-02    0.03       1.0  T
  40    -73.2744275  0.206781E-04  0.280E-02    0.03       1.0  T
  41    -73.2744631 -0.356778E-04  0.208E-02    0.03       1.0  T
  42    -73.2744553  0.785298E-05  0.216E-02    0.03       1.0  T
  43    -73.2744704 -0.151159E-04  0.175E-02    0.03       1.0  T
  44    -73.2744765 -0.614354E-05  0.151E-02    0.03       1.2  T
  45    -73.2744828 -0.627706E-05  0.123E-02    0.03       1.5  T
  46    -73.2744877 -0.489423E-05  0.928E-03    0.03       1.9  T
  47    -73.2744919 -0.423801E-05  0.571E-03    0.03       3.1  T
  48    -73.2744930 -0.103016E-05  0.437E-03    0.03       4.1  T
  49    -73.2744943 -0.131821E-05  0.199E-03    0.03       9.0  T
  50    -73.2744944 -0.141858E-06  0.133E-03    0.03      13.5  T
  51    -73.2744946 -0.135926E-06  0.439E-04    0.03      40.9  T
  52    -73.2744946 -0.550109E-08  0.361E-04    0.03      49.8  T

   *** convergence criteria satisfied after 52 iterations ***

         #    Occupation            Energy/Eh            Energy/eV
      -------------------------------------------------------------
         1        2.0000           -0.8681690             -23.6241
       ...           ...                  ...                  ...
        61        2.0000           -0.4372175             -11.8973
        62        2.0000           -0.4360763             -11.8662
        63        2.0000           -0.4316842             -11.7467
        64        2.0000           -0.4302424             -11.7075
        65        1.9676           -0.4229734             -11.5097
        66        1.8843           -0.4217226             -11.4757
        67        1.2766           -0.4196112             -11.4182 (HOMO)
        68        0.6732           -0.4184272             -11.3860 (LUMO)
        69        0.1973           -0.4169700             -11.3463
        70        0.0009           -0.4117792             -11.2051
        71        0.0001           -0.4094678             -11.1422
        72        0.0000           -0.4033878             -10.9767
       ...           ...                  ...                  ...
       129                          1.3068558              35.5614
      -------------------------------------------------------------
                  HL-Gap            0.0011841 Eh            0.0322 eV
             Fermi-level           -0.4190717 Eh          -11.4035 eV

 SCC (total)                   0 d,  0 h,  0 min,  0.669 sec
 SCC setup                      ...        0 min,  0.000 sec (  0.056%)
 Dispersion                     ...        0 min,  0.001 sec (  0.138%)
 classical contributions        ...        0 min,  0.006 sec (  0.895%)
 integral evaluation            ...        0 min,  0.008 sec (  1.229%)
 iterations                     ...        0 min,  0.632 sec ( 94.390%)
 molecular gradient             ...        0 min,  0.021 sec (  3.067%)
 printout                       ...        0 min,  0.001 sec (  0.217%)

         :::::::::::::::::::::::::::::::::::::::::::::::::::::
         ::                     SUMMARY                     ::
         :::::::::::::::::::::::::::::::::::::::::::::::::::::
         :: total energy             -72.422511086826 Eh    ::
         :: gradient norm              0.473603907641 Eh/a0 ::
         :: HOMO-LUMO gap              0.032220305075 eV    ::
         ::.................................................::
         :: SCC energy               -73.274494580207 Eh    ::
         :: -> isotropic ES           -0.014470129427 Eh    ::
         :: -> anisotropic ES          0.007717062315 Eh    ::
         :: -> anisotropic XC          0.051613404529 Eh    ::
         :: -> dispersion             -0.043216568953 Eh    ::
         :: repulsion energy           0.852298649099 Eh    ::
         :: add. restraining           0.000000000000 Eh    ::
         :: total charge              -0.000000000023 e     ::
         :::::::::::::::::::::::::::::::::::::::::::::::::::::

           -------------------------------------------------
          |                Property Printout                |
           -------------------------------------------------

    * Orbital Energies and Occupations

         #    Occupation            Energy/Eh            Energy/eV
      -------------------------------------------------------------
         1        2.0000           -0.8681690             -23.6241
       ...           ...                  ...                  ...
        55        2.0000           -0.4600126             -12.5176
        56        2.0000           -0.4570247             -12.4363
        57        2.0000           -0.4540641             -12.3557
        58        2.0000           -0.4511324             -12.2759
        59        2.0000           -0.4453067             -12.1174
        60        2.0000           -0.4389826             -11.9453
        61        2.0000           -0.4372175             -11.8973
        62        2.0000           -0.4360763             -11.8662
        63        2.0000           -0.4316842             -11.7467
        64        2.0000           -0.4302424             -11.7075
        65        1.9676           -0.4229734             -11.5097
        66        1.8843           -0.4217226             -11.4757
        67        1.2766           -0.4196112             -11.4182 (HOMO)
        68        0.6732           -0.4184272             -11.3860 (LUMO)
        69        0.1973           -0.4169700             -11.3463
        70        0.0009           -0.4117792             -11.2051
        71        0.0001           -0.4094678             -11.1422
        72        0.0000           -0.4033878             -10.9767
        73                         -0.3985459             -10.8450
        74                         -0.3966739             -10.7940
        75                         -0.3891410             -10.5891
        76                         -0.3855156             -10.4904
        77                         -0.3598896              -9.7931
        78                         -0.3547384              -9.6529
       ...                                ...                  ...
       129                          1.3068558              35.5614
      -------------------------------------------------------------
                  HL-Gap            0.0011841 Eh            0.0322 eV
             Fermi-level           -0.4190717 Eh          -11.4035 eV

     #   Z          covCN         q      C6AA      α(0)
     1   6 C        0.978    -0.097    38.982    10.485
     2   6 C        2.861     0.142    24.895     8.178
     3   6 C        0.978    -0.084    38.556    10.428
     4   7 N        2.721     0.011    21.065     6.817
     5   6 C        1.893     0.021    30.580     8.931
     6   6 C        1.961     0.035    30.176     8.871
     7   6 C        1.975     0.031    30.278     8.886
     8   6 C        2.749     0.324    21.488     7.590
     9   8 O        0.860    -0.350    20.705     6.101
    10   7 N        1.838    -0.199    26.157     7.579
    11   6 C        2.894     0.152    24.711     8.150
    12   6 C        1.990    -0.010    31.321     9.038
    13   6 C        2.005    -0.023    31.655     9.086
    14   6 C        2.985     0.140    24.939     8.192
    15   7 N        1.843    -0.139    24.796     7.380
    16   6 C        1.957     0.153    27.380     8.450
    17   7 N        1.831    -0.176    25.616     7.500
    18   6 C        2.891     0.195    23.854     8.008
    19   7 N        1.829    -0.172    25.535     7.488
    20   6 C        2.891     0.134    25.065     8.208
    21   6 C        1.991     0.009    30.802     8.963
    22   6 C        1.986    -0.023    31.656     9.086
    23   6 C        2.062     0.015    30.583     8.933
    24   6 C        2.905     0.113    25.510     8.282
    25  35 Br       1.068    -0.061   186.702    22.031
    26   6 C        2.066    -0.068    32.780     9.248
    27   6 C        2.980     0.009    27.813     8.651
    28   6 C        1.998    -0.038    32.053     9.143
    29   6 C        2.860     0.134    25.069     8.207
    30   6 C        0.980    -0.087    38.639    10.440
    31   6 C        0.980    -0.089    38.721    10.451

 Mol. C6AA /au·bohr⁶  :      30138.229845
 Mol. C8AA /au·bohr⁸  :     898639.491532
 Mol. α(0) /au        :        278.803098


Wiberg/Mayer (AO) data.
largest (>0.10) Wiberg bond orders for each atom

 ---------------------------------------------------------------------------
     #   Z sym  total        # sym  WBO       # sym  WBO       # sym  WBO
 ---------------------------------------------------------------------------
     1   6 C    2.519 --     2 C    1.449     3 C    0.667     5 C    0.151
     2   6 C    3.887 --     3 C    1.473     1 C    1.449     4 N    0.907
     3   6 C    2.526 --     2 C    1.473     1 C    0.667    31 C    0.142
     4   7 N    3.408 --     5 C    1.181    29 C    0.979     2 C    0.907
     5   6 C    3.194 --     6 C    1.305     4 N    1.181    30 C    0.158
                             1 C    0.151
     6   6 C    3.942 --     7 C    2.484     5 C    1.305
     7   6 C    3.864 --     6 C    2.484     8 C    1.024
     8   6 C    3.936 --     9 O    1.640    10 N    1.193     7 C    1.024
     9   8 O    1.965 --     8 C    1.640    10 N    0.118
    10   7 N    2.955 --    11 C    1.262     8 C    1.193    13 C    0.119
                             9 O    0.118
    11   6 C    3.900 --    28 C    1.283    10 N    1.262    12 C    1.206
    12   6 C    3.704 --    13 C    1.764    11 C    1.206    28 C    0.215
                            16 C    0.150
    13   6 C    3.501 --    12 C    1.764    14 C    1.268    28 C    0.148
                            10 N    0.119
    14   6 C    3.884 --    13 C    1.268    15 N    1.234    27 C    1.132
    15   7 N    3.153 --    16 C    1.591    14 C    1.234
    16   6 C    3.786 --    15 N    1.591    17 N    1.591    19 N    0.151
                            12 C    0.150
    17   7 N    3.155 --    16 C    1.591    18 C    1.218
    18   6 C    3.953 --    19 N    1.343    17 N    1.218    27 C    1.164
    19   7 N    3.120 --    18 C    1.343    20 C    1.186    16 C    0.151
    20   6 C    3.943 --    26 C    1.313    21 C    1.278    19 N    1.186
    21   6 C    3.716 --    22 C    1.629    20 C    1.278    23 C    0.396
                            26 C    0.159
    22   6 C    3.746 --    21 C    1.629    23 C    1.620    26 C    0.382
    23   6 C    3.707 --    22 C    1.620    24 C    1.359    21 C    0.396
                            26 C    0.147
    24   6 C    3.930 --    26 C    1.427    23 C    1.359    25 Br   0.995
    25  35 Br   1.198 --    24 C    0.995
    26   6 C    3.546 --    24 C    1.427    20 C    1.313    22 C    0.382
                            21 C    0.159    23 C    0.147
    27   6 C    3.947 --    28 C    1.395    18 C    1.164    14 C    1.132
    28   6 C    3.392 --    27 C    1.395    11 C    1.283    12 C    0.215
                            13 C    0.148
    29   6 C    3.879 --    31 C    1.439    30 C    1.402     4 N    0.979
    30   6 C    2.373 --    29 C    1.402    31 C    0.661     5 C    0.158
    31   6 C    2.464 --    29 C    1.439    30 C    0.661     3 C    0.142
Note: The following floating-point exceptions are signalling: IEEE_UNDERFLOW_FLAG IEEE_DENORMAL
normal termination of xtb
 ---------------------------------------------------------------------------

Topologies differ in total number of bonds
Writing topology from bond orders to xtbtopo.mol

molecular dipole:
                 x           y           z       tot (Debye)
 q only:       -1.012      -0.699       0.508
   full:       -2.090      -0.432       0.126       5.434
molecular quadrupole (traceless):
                xx          xy          yy          xz          yz          zz
 q only:       12.273       9.708      -6.326      -0.634       7.703      -5.947
  q+dip:       26.133      14.683     -18.901       1.808       9.850      -7.233
   full:       21.966      12.611     -17.874       0.584      14.707      -4.092


           -------------------------------------------------
          | TOTAL ENERGY              -72.422511086826 Eh   |
          | GRADIENT NORM               0.473603907641 Eh/α |
          | HOMO-LUMO GAP               0.032220305075 eV   |
           -------------------------------------------------

------------------------------------------------------------------------
 * finished run on 2026/07/23 at 16:39:27.597     
------------------------------------------------------------------------
 total:
 * wall-time:     0 d,  0 h,  0 min,  0.700 sec
 *  cpu-time:     0 d,  0 h,  0 min,  0.632 sec
 * ratio c/w:     0.903 speedup
 SCF:
 * wall-time:     0 d,  0 h,  0 min,  0.670 sec
 *  cpu-time:     0 d,  0 h,  0 min,  0.608 sec
 * ratio c/w:     0.908 speedup

