      -----------------------------------------------------------      
     |                   =====================                   |     
     |                           x T B                           |     
     |                   =====================                   |     
     |                         S. Grimme                         |     
     |          Mulliken Center for Theoretical Chemistry        |     
     |                    University of Bonn                     |     
      -----------------------------------------------------------      

   * xtb version 6.6.1 (unknown) compiled by 'builduser@buildhost' on 2023-08-07

   xtb is free software: you can redistribute it and/or modify it under
   the terms of the GNU Lesser General Public License as published by
   the Free Software Foundation, either version 3 of the License, or
   (at your option) any later version.
   
   xtb is distributed in the hope that it will be useful,
   but WITHOUT ANY WARRANTY; without even the implied warranty of
   MERCHANTABILITY or FITNESS FOR A PARTICULAR PURPOSE.  See the
   GNU Lesser General Public License for more details.
   
   Cite this work as:
   * C. Bannwarth, E. Caldeweyher, S. Ehlert, A. Hansen, P. Pracht,
     J. Seibert, S. Spicher, S. Grimme, WIREs Comput. Mol. Sci., 2020, 11,
     e01493. DOI: 10.1002/wcms.1493
   
   for GFN2-xTB:
   * C. Bannwarth, S. Ehlert and S. Grimme., J. Chem. Theory Comput., 2019,
     15, 1652-1671. DOI: 10.1021/acs.jctc.8b01176
   for GFN1-xTB:
   * S. Grimme, C. Bannwarth, P. Shushkov, J. Chem. Theory Comput., 2017,
     13, 1989-2009. DOI: 10.1021/acs.jctc.7b00118
   for GFN0-xTB:
   * P. Pracht, E. Caldeweyher, S. Ehlert, S. Grimme, ChemRxiv, 2019, preprint.
     DOI: 10.26434/chemrxiv.8326202.v1
   for GFN-FF:
   * S. Spicher and S. Grimme, Angew. Chem. Int. Ed., 2020, 59, 15665-15673.
     DOI: 10.1002/anie.202004239
   
   for ALPB and GBSA implicit solvation:
   * S. Ehlert, M. Stahn, S. Spicher, S. Grimme, J. Chem. Theory Comput.,
     2021, 17, 4250-4261. DOI: 10.1021/acs.jctc.1c00471
   
   for DFT-D4:
   * E. Caldeweyher, C. Bannwarth and S. Grimme, J. Chem. Phys., 2017,
     147, 034112. DOI: 10.1063/1.4993215
   * E. Caldeweyher, S. Ehlert, A. Hansen, H. Neugebauer, S. Spicher,
     C. Bannwarth and S. Grimme, J. Chem. Phys., 2019, 150, 154122.
     DOI: 10.1063/1.5090222
   * E. Caldeweyher, J.-M. Mewes, S. Ehlert and S. Grimme, Phys. Chem. Chem. Phys.
     2020, 22, 8499-8512. DOI: 10.1039/D0CP00502A
   
   for sTDA-xTB:
   * S. Grimme and C. Bannwarth, J. Chem. Phys., 2016, 145, 054103.
     DOI: 10.1063/1.4959605
   
   in the mass-spec context:
   * V. Asgeirsson, C. Bauer and S. Grimme, Chem. Sci., 2017, 8, 4879.
     DOI: 10.1039/c7sc00601b
   * J. Koopman and S. Grimme, ACS Omega 2019, 4, 12, 15120-15133.
     DOI: 10.1021/acsomega.9b02011
   
   for metadynamics refer to:
   * S. Grimme, J. Chem. Theory Comput., 2019, 155, 2847-2862
     DOI: 10.1021/acs.jctc.9b00143
   
   for SPH calculations refer to:
   * S. Spicher and S. Grimme, J. Chem. Theory Comput., 2021, 17, 1701-1714
     DOI: 10.1021/acs.jctc.0c01306
   
   with help from (in alphabetical order)
   P. Atkinson, C. Bannwarth, F. Bohle, G. Brandenburg, E. Caldeweyher
   M. Checinski, S. Dohm, S. Ehlert, S. Ehrlich, I. Gerasimov, C. Hölzer
   A. Katbashev, J. Koopman, C. Lavigne, S. Lehtola, F. März, M. Müller,
   F. Musil, H. Neugebauer, J. Pisarek, C. Plett, P. Pracht, F. Pultar,
   J. Seibert, P. Shushkov, S. Spicher, M. Stahn, M. Steiner, T. Strunk,
   J. Stückrath, T. Rose, and J. Unsleber
   
 * started run on 2026/07/23 at 16:42:47.139     

           -------------------------------------------------
          |                Calculation Setup                |
           -------------------------------------------------

          program call               : xtb /home/selva/covalent_quantum_benchmark/data/quantum/erbB_xyz/ERBB2__CHEMBL419501__state01.xyz --gfn2 --chrg 0 --uhf 0 --iterations 300
          coordinate file            : /home/selva/covalent_quantum_benchmark/data/quantum/erbB_xyz/ERBB2__CHEMBL419501__state01.xyz
          omp threads                :                    24

   ID    Z sym.   atoms
    1    6 C      1, 3-7, 9-12, 15-18, 20, 22, 24-28, 30-32
    2    8 O      2, 13
    3    7 N      8, 14, 19, 21, 23
    4   35 Br     29

           -------------------------------------------------
          |                 G F N 2 - x T B                 |
           -------------------------------------------------

        Reference                      10.1021/acs.jctc.8b01176
      * Hamiltonian:
        H0-scaling (s, p, d)           1.850000    2.230000    2.230000
        zeta-weighting                 0.500000
      * Dispersion:
        s8                             2.700000
        a1                             0.520000
        a2                             5.000000
        s9                             5.000000
      * Repulsion:
        kExp                           1.500000    1.000000
        rExp                           1.000000
      * Coulomb:
        alpha                          2.000000
        third order                    shell-resolved
        anisotropic                    true
        a3                             3.000000
        a5                             4.000000
        cn-shift                       1.200000
        cn-exp                         4.000000
        max-rad                        5.000000


          ...................................................
          :                      SETUP                      :
          :.................................................:
          :  # basis functions                 134          :
          :  # atomic orbitals                 133          :
          :  # shells                           65          :
          :  # electrons                       140          :
          :  max. iterations                   300          :
          :  Hamiltonian                  GFN2-xTB          :
          :  restarted?                      false          :
          :  GBSA solvation                  false          :
          :  PC potential                    false          :
          :  electronic temp.          300.0000000     K    :
          :  accuracy                    1.0000000          :
          :  -> integral cutoff          0.2500000E+02      :
          :  -> integral neglect         0.1000000E-07      :
          :  -> SCF convergence          0.1000000E-05 Eh   :
          :  -> wf. convergence          0.1000000E-03 e    :
          :  Broyden damping             0.4000000          :
          ...................................................

 iter      E             dE          RMSdq      gap      omega  full diag
   1    -76.2544295 -0.762544E+02  0.860E+00    0.20       0.0  T
   2    -64.3812725  0.118732E+02  0.126E+01    0.04       1.0  T
   3    -63.8318589  0.549414E+00  0.102E+01    0.14       1.0  T
   4    -54.9852605  0.884660E+01  0.114E+01    0.07       1.0  T
   5    -49.9511756  0.503408E+01  0.124E+01    0.13       1.0  T
   6    -70.7144923 -0.207633E+02  0.676E+00    0.13       1.0  T
   7    -74.3875131 -0.367302E+01  0.544E+00    0.16       1.0  T
   8    -74.9048226 -0.517309E+00  0.461E+00    0.08       1.0  T
   9    -76.3543923 -0.144957E+01  0.370E+00    0.32       1.0  T
  10    -76.4863315 -0.131939E+00  0.331E+00    0.19       1.0  T
  11    -76.5791341 -0.928026E-01  0.316E+00    0.25       1.0  T
  12    -76.5977743 -0.186402E-01  0.288E+00    0.21       1.0  T
  13    -77.0953446 -0.497570E+00  0.211E+00    0.09       1.0  T
  14    -77.1614786 -0.661340E-01  0.206E+00    0.05       1.0  T
  15    -77.0098629  0.151616E+00  0.183E+00    0.10       1.0  T
  16    -77.1737076 -0.163845E+00  0.184E+00    0.10       1.0  T
  17    -77.1914859 -0.177783E-01  0.123E+00    0.08       1.0  T
  18    -76.8389741  0.352512E+00  0.272E+00    0.04       1.0  T
  19    -77.1580688 -0.319095E+00  0.172E+00    0.00       1.0  T
  20    -77.2496669 -0.915981E-01  0.149E+00    0.02       1.0  T
  21    -77.0160575  0.233609E+00  0.210E+00    0.03       1.0  T
  22    -77.2423103 -0.226253E+00  0.143E+00    0.02       1.0  T
  23    -77.3632700 -0.120960E+00  0.632E-01    0.07       1.0  T
  24    -77.2460390  0.117231E+00  0.124E+00    0.01       1.0  T
  25    -77.3452530 -0.992140E-01  0.700E-01    0.03       1.0  T
  26    -77.3452521  0.854312E-06  0.700E-01    0.03       1.0  T
  27    -77.3150528  0.301993E-01  0.900E-01    0.02       1.0  T
  28    -77.3703261 -0.552733E-01  0.391E-01    0.04       1.0  T
  29    -77.3699319  0.394270E-03  0.392E-01    0.04       1.0  T
  30    -77.3786571 -0.872520E-02  0.274E-01    0.04       1.0  T
  31    -77.3573712  0.212859E-01  0.500E-01    0.03       1.0  T
  32    -77.3799310 -0.225599E-01  0.214E-01    0.04       1.0  T
  33    -77.3828304 -0.289936E-02  0.731E-02    0.04       1.0  T
  34    -77.3820383  0.792103E-03  0.101E-01    0.05       1.0  T
  35    -77.3801749  0.186336E-02  0.168E-01    0.05       1.0  T
  36    -77.3810113 -0.836359E-03  0.140E-01    0.05       1.0  T
  37    -77.3813190 -0.307654E-03  0.136E-01    0.04       1.0  T
  38    -77.3828353 -0.151637E-02  0.501E-02    0.04       1.0  T
  39    -77.3824510  0.384296E-03  0.761E-02    0.04       1.0  T
  40    -77.3829109 -0.459894E-03  0.378E-02    0.04       1.0  T
  41    -77.3827824  0.128514E-03  0.520E-02    0.04       1.0  T
  42    -77.3829967 -0.214241E-03  0.202E-02    0.04       1.0  T
  43    -77.3830220 -0.253065E-04  0.842E-03    0.04       2.1  T
  44    -77.3830244 -0.244248E-05  0.521E-03    0.04       3.4  T
  45    -77.3830251 -0.746791E-06  0.337E-03    0.04       5.2  T
  46    -77.3830254 -0.206870E-06  0.276E-03    0.04       6.4  T
  47    -77.3830260 -0.612764E-06  0.140E-03    0.04      12.6  T
  48    -77.3830261 -0.144619E-06  0.676E-04    0.04      26.1  T
  49    -77.3830261 -0.330726E-08  0.586E-04    0.04      30.2  T

   *** convergence criteria satisfied after 49 iterations ***

         #    Occupation            Energy/Eh            Energy/eV
      -------------------------------------------------------------
         1        2.0000           -0.8663593             -23.5748
       ...           ...                  ...                  ...
        64        2.0000           -0.4346147             -11.8265
        65        2.0000           -0.4307939             -11.7225
        66        1.9999           -0.4256409             -11.5823
        67        1.9989           -0.4235301             -11.5248
        68        1.9591           -0.4200832             -11.4310
        69        1.7440           -0.4182306             -11.3806
        70        1.3534           -0.4171094             -11.3501 (HOMO)
        71        0.5586           -0.4155071             -11.3065 (LUMO)
        72        0.3860           -0.4150485             -11.2940
        73        0.0001           -0.4072954             -11.0831
        74                         -0.3981270             -10.8336
        75                         -0.3955837             -10.7644
       ...                                ...                  ...
       133                          0.6150023              16.7351
      -------------------------------------------------------------
                  HL-Gap            0.0016023 Eh            0.0436 eV
             Fermi-level           -0.4164077 Eh          -11.3310 eV

 SCC (total)                   0 d,  0 h,  0 min,  0.589 sec
 SCC setup                      ...        0 min,  0.000 sec (  0.061%)
 Dispersion                     ...        0 min,  0.001 sec (  0.194%)
 classical contributions        ...        0 min,  0.001 sec (  0.104%)
 integral evaluation            ...        0 min,  0.008 sec (  1.321%)
 iterations                     ...        0 min,  0.557 sec ( 94.580%)
 molecular gradient             ...        0 min,  0.020 sec (  3.452%)
 printout                       ...        0 min,  0.002 sec (  0.282%)

         :::::::::::::::::::::::::::::::::::::::::::::::::::::
         ::                     SUMMARY                     ::
         :::::::::::::::::::::::::::::::::::::::::::::::::::::
         :: total energy             -76.585624336322 Eh    ::
         :: gradient norm              0.488224554060 Eh/a0 ::
         :: HOMO-LUMO gap              0.043601790116 eV    ::
         ::.................................................::
         :: SCC energy               -77.383026115399 Eh    ::
         :: -> isotropic ES            0.025163180254 Eh    ::
         :: -> anisotropic ES          0.008682564898 Eh    ::
         :: -> anisotropic XC          0.039506904482 Eh    ::
         :: -> dispersion             -0.044198554524 Eh    ::
         :: repulsion energy           0.797895952122 Eh    ::
         :: add. restraining           0.000000000000 Eh    ::
         :: total charge               0.000000000002 e     ::
         :::::::::::::::::::::::::::::::::::::::::::::::::::::

           -------------------------------------------------
          |                Property Printout                |
           -------------------------------------------------

    * Orbital Energies and Occupations

         #    Occupation            Energy/Eh            Energy/eV
      -------------------------------------------------------------
         1        2.0000           -0.8663593             -23.5748
       ...           ...                  ...                  ...
        58        2.0000           -0.4515952             -12.2885
        59        2.0000           -0.4508897             -12.2693
        60        2.0000           -0.4458586             -12.1324
        61        2.0000           -0.4433749             -12.0648
        62        2.0000           -0.4414581             -12.0127
        63        2.0000           -0.4354423             -11.8490
        64        2.0000           -0.4346147             -11.8265
        65        2.0000           -0.4307939             -11.7225
        66        1.9999           -0.4256409             -11.5823
        67        1.9989           -0.4235301             -11.5248
        68        1.9591           -0.4200832             -11.4310
        69        1.7440           -0.4182306             -11.3806
        70        1.3534           -0.4171094             -11.3501 (HOMO)
        71        0.5586           -0.4155071             -11.3065 (LUMO)
        72        0.3860           -0.4150485             -11.2940
        73        0.0001           -0.4072954             -11.0831
        74                         -0.3981270             -10.8336
        75                         -0.3955837             -10.7644
        76                         -0.3910959             -10.6423
        77                         -0.3897408             -10.6054
        78                         -0.3577675              -9.7353
        79                         -0.3563661              -9.6972
        80                         -0.3541741              -9.6376
        81                         -0.3499768              -9.5234
       ...                                ...                  ...
       133                          0.6150023              16.7351
      -------------------------------------------------------------
                  HL-Gap            0.0016023 Eh            0.0436 eV
             Fermi-level           -0.4164077 Eh          -11.3310 eV

     #   Z          covCN         q      C6AA      α(0)
     1   6 C        0.877    -0.009    35.484     9.951
     2   8 O        1.697    -0.032    14.902     5.212
     3   6 C        1.850     0.003    31.070     9.004
     4   6 C        2.896     0.073    26.365     8.419
     5   6 C        1.982    -0.027    31.786     9.105
     6   6 C        1.972    -0.023    31.672     9.088
     7   6 C        1.935    -0.014    31.467     9.059
     8   7 N        2.751     0.040    20.553     6.733
     9   6 C        1.904    -0.001    31.141     9.012
    10   6 C        1.967     0.026    30.396     8.903
    11   6 C        1.971    -0.001    31.106     9.007
    12   6 C        2.753     0.321    21.544     7.601
    13   8 O        0.857    -0.332    20.365     6.050
    14   7 N        1.836    -0.191    25.963     7.551
    15   6 C        2.895     0.150    24.750     8.157
    16   6 C        1.989    -0.018    31.529     9.068
    17   6 C        1.990    -0.020    31.570     9.074
    18   6 C        2.923     0.136    25.039     8.206
    19   7 N        1.831    -0.166    25.390     7.467
    20   6 C        1.908     0.168    27.059     8.401
    21   7 N        1.831    -0.189    25.912     7.543
    22   6 C        2.909     0.201    23.740     7.989
    23   7 N        1.839    -0.148    24.986     7.408
    24   6 C        2.934     0.131    25.132     8.222
    25   6 C        1.992     0.008    30.843     8.969
    26   6 C        1.986    -0.022    31.634     9.083
    27   6 C        2.061     0.010    30.713     8.952
    28   6 C        2.906     0.113    25.503     8.281
    29  35 Br       1.068    -0.065   186.808    22.037
    30   6 C        2.065    -0.082    33.178     9.304
    31   6 C        2.978     0.003    27.961     8.674
    32   6 C        1.995    -0.041    32.147     9.156

 Mol. C6AA /au·bohr⁶  :      31052.962107
 Mol. C8AA /au·bohr⁸  :     919117.017108
 Mol. α(0) /au        :        280.686301


Wiberg/Mayer (AO) data.
largest (>0.10) Wiberg bond orders for each atom

 ---------------------------------------------------------------------------
     #   Z sym  total        # sym  WBO       # sym  WBO       # sym  WBO
 ---------------------------------------------------------------------------
     1   6 C    2.216 --     2 O    1.485     4 C    0.208     6 C    0.157
                             5 C    0.106
     2   8 O    2.673 --     1 C    1.485     3 C    1.105
     3   6 C    2.972 --     4 C    1.139     2 O    1.105     6 C    0.207
                             7 C    0.198     5 C    0.146
     4   6 C    3.711 --     3 C    1.139     5 C    1.032     8 N    0.928
                             1 C    0.208     6 C    0.160     7 C    0.139
     5   6 C    3.330 --     6 C    1.591     4 C    1.032     7 C    0.249
                             3 C    0.146     9 C    0.133     1 C    0.106
     6   6 C    3.561 --     5 C    1.591     7 C    1.301     3 C    0.207
                             4 C    0.160     1 C    0.157
     7   6 C    3.177 --     6 C    1.301     8 N    1.118     5 C    0.249
                             3 C    0.198     4 C    0.139
     8   7 N    3.546 --     9 C    1.261     7 C    1.118     4 C    0.928
     9   6 C    3.241 --    10 C    1.356     8 N    1.261    11 C    0.137
                             5 C    0.133
    10   6 C    3.807 --    11 C    2.261     9 C    1.356
    11   6 C    3.643 --    10 C    2.261    12 C    0.989     9 C    0.137
                            13 O    0.114
    12   6 C    3.925 --    13 O    1.658    14 N    1.194    11 C    0.989
    13   8 O    2.063 --    12 C    1.658    11 C    0.114
    14   7 N    2.841 --    15 C    1.283    12 C    1.194    17 C    0.111
    15   6 C    3.879 --    14 N    1.283    32 C    1.248    16 C    1.203
    16   6 C    3.680 --    17 C    1.760    15 C    1.203    32 C    0.223
                            20 C    0.128
    17   6 C    3.479 --    16 C    1.760    18 C    1.278    32 C    0.147
                            14 N    0.111
    18   6 C    3.861 --    17 C    1.278    19 N    1.181    31 C    1.165
    19   7 N    3.094 --    20 C    1.564    18 C    1.181
    20   6 C    3.830 --    21 N    1.728    19 N    1.564    23 N    0.135
                            16 C    0.128
    21   7 N    3.158 --    20 C    1.728    22 C    1.089
    22   6 C    3.950 --    23 N    1.599    21 N    1.089    31 C    1.053
    23   7 N    3.227 --    22 C    1.599    24 C    1.087    20 C    0.135
    24   6 C    3.953 --    30 C    1.357    25 C    1.322    23 N    1.087
                            27 C    0.101
    25   6 C    3.746 --    26 C    1.623    24 C    1.322    27 C    0.391
                            30 C    0.157    28 C    0.102
    26   6 C    3.758 --    27 C    1.632    25 C    1.623    30 C    0.401
    27   6 C    3.745 --    26 C    1.632    28 C    1.366    25 C    0.391
                            30 C    0.155    24 C    0.101
    28   6 C    3.927 --    30 C    1.416    27 C    1.366    29 Br   0.994
Note: The following floating-point exceptions are signalling: IEEE_UNDERFLOW_FLAG IEEE_DENORMAL
normal termination of xtb
                            25 C    0.102
    29  35 Br   1.196 --    28 C    0.994
    30   6 C    3.611 --    28 C    1.416    24 C    1.357    26 C    0.401
                            25 C    0.157    27 C    0.155
    31   6 C    3.938 --    32 C    1.461    18 C    1.165    22 C    1.053
    32   6 C    3.380 --    31 C    1.461    15 C    1.248    16 C    0.223
                            17 C    0.147
 ---------------------------------------------------------------------------

Topologies differ in total number of bonds
Writing topology from bond orders to xtbtopo.mol

molecular dipole:
                 x           y           z       tot (Debye)
 q only:        0.500       0.629       0.462
   full:       -0.466       0.611       0.772       2.768
molecular quadrupole (traceless):
                xx          xy          yy          xz          yz          zz
 q only:       -5.479      -2.532       3.009      -0.102       6.965       2.470
  q+dip:      -16.758       0.997       4.273      -3.408      16.015      12.485
   full:      -16.849      -3.086       7.079      -4.287      12.795       9.770


           -------------------------------------------------
          | TOTAL ENERGY              -76.585624336322 Eh   |
          | GRADIENT NORM               0.488224554060 Eh/α |
          | HOMO-LUMO GAP               0.043601790116 eV   |
           -------------------------------------------------

------------------------------------------------------------------------
 * finished run on 2026/07/23 at 16:42:47.746     
------------------------------------------------------------------------
 total:
 * wall-time:     0 d,  0 h,  0 min,  0.607 sec
 *  cpu-time:     0 d,  0 h,  0 min,  0.617 sec
 * ratio c/w:     1.017 speedup
 SCF:
 * wall-time:     0 d,  0 h,  0 min,  0.589 sec
 *  cpu-time:     0 d,  0 h,  0 min,  0.594 sec
 * ratio c/w:     1.007 speedup

