      -----------------------------------------------------------      
     |                   =====================                   |     
     |                           x T B                           |     
     |                   =====================                   |     
     |                         S. Grimme                         |     
     |          Mulliken Center for Theoretical Chemistry        |     
     |                    University of Bonn                     |     
      -----------------------------------------------------------      

   * xtb version 6.6.1 (unknown) compiled by 'builduser@buildhost' on 2023-08-07

   xtb is free software: you can redistribute it and/or modify it under
   the terms of the GNU Lesser General Public License as published by
   the Free Software Foundation, either version 3 of the License, or
   (at your option) any later version.
   
   xtb is distributed in the hope that it will be useful,
   but WITHOUT ANY WARRANTY; without even the implied warranty of
   MERCHANTABILITY or FITNESS FOR A PARTICULAR PURPOSE.  See the
   GNU Lesser General Public License for more details.
   
   Cite this work as:
   * C. Bannwarth, E. Caldeweyher, S. Ehlert, A. Hansen, P. Pracht,
     J. Seibert, S. Spicher, S. Grimme, WIREs Comput. Mol. Sci., 2020, 11,
     e01493. DOI: 10.1002/wcms.1493
   
   for GFN2-xTB:
   * C. Bannwarth, S. Ehlert and S. Grimme., J. Chem. Theory Comput., 2019,
     15, 1652-1671. DOI: 10.1021/acs.jctc.8b01176
   for GFN1-xTB:
   * S. Grimme, C. Bannwarth, P. Shushkov, J. Chem. Theory Comput., 2017,
     13, 1989-2009. DOI: 10.1021/acs.jctc.7b00118
   for GFN0-xTB:
   * P. Pracht, E. Caldeweyher, S. Ehlert, S. Grimme, ChemRxiv, 2019, preprint.
     DOI: 10.26434/chemrxiv.8326202.v1
   for GFN-FF:
   * S. Spicher and S. Grimme, Angew. Chem. Int. Ed., 2020, 59, 15665-15673.
     DOI: 10.1002/anie.202004239
   
   for ALPB and GBSA implicit solvation:
   * S. Ehlert, M. Stahn, S. Spicher, S. Grimme, J. Chem. Theory Comput.,
     2021, 17, 4250-4261. DOI: 10.1021/acs.jctc.1c00471
   
   for DFT-D4:
   * E. Caldeweyher, C. Bannwarth and S. Grimme, J. Chem. Phys., 2017,
     147, 034112. DOI: 10.1063/1.4993215
   * E. Caldeweyher, S. Ehlert, A. Hansen, H. Neugebauer, S. Spicher,
     C. Bannwarth and S. Grimme, J. Chem. Phys., 2019, 150, 154122.
     DOI: 10.1063/1.5090222
   * E. Caldeweyher, J.-M. Mewes, S. Ehlert and S. Grimme, Phys. Chem. Chem. Phys.
     2020, 22, 8499-8512. DOI: 10.1039/D0CP00502A
   
   for sTDA-xTB:
   * S. Grimme and C. Bannwarth, J. Chem. Phys., 2016, 145, 054103.
     DOI: 10.1063/1.4959605
   
   in the mass-spec context:
   * V. Asgeirsson, C. Bauer and S. Grimme, Chem. Sci., 2017, 8, 4879.
     DOI: 10.1039/c7sc00601b
   * J. Koopman and S. Grimme, ACS Omega 2019, 4, 12, 15120-15133.
     DOI: 10.1021/acsomega.9b02011
   
   for metadynamics refer to:
   * S. Grimme, J. Chem. Theory Comput., 2019, 155, 2847-2862
     DOI: 10.1021/acs.jctc.9b00143
   
   for SPH calculations refer to:
   * S. Spicher and S. Grimme, J. Chem. Theory Comput., 2021, 17, 1701-1714
     DOI: 10.1021/acs.jctc.0c01306
   
   with help from (in alphabetical order)
   P. Atkinson, C. Bannwarth, F. Bohle, G. Brandenburg, E. Caldeweyher
   M. Checinski, S. Dohm, S. Ehlert, S. Ehrlich, I. Gerasimov, C. Hölzer
   A. Katbashev, J. Koopman, C. Lavigne, S. Lehtola, F. März, M. Müller,
   F. Musil, H. Neugebauer, J. Pisarek, C. Plett, P. Pracht, F. Pultar,
   J. Seibert, P. Shushkov, S. Spicher, M. Stahn, M. Steiner, T. Strunk,
   J. Stückrath, T. Rose, and J. Unsleber
   
 * started run on 2026/07/23 at 16:39:05.516     

           -------------------------------------------------
          |                Calculation Setup                |
           -------------------------------------------------

          program call               : xtb /home/selva/covalent_quantum_benchmark/data/quantum/erbB_xyz/EGFR__CHEMBL66570__state01.xyz --gfn2 --chrg 0 --uhf 0 --iterations 300
          coordinate file            : /home/selva/covalent_quantum_benchmark/data/quantum/erbB_xyz/EGFR__CHEMBL66570__state01.xyz
          omp threads                :                    24

   ID    Z sym.   atoms
    1    6 C      1-5, 8, 9, 11-14, 16-19, 22, 24, 26, 28-31, 33, 35, 36
    2    8 O      6, 20
    3    7 N      7, 10, 15, 21, 23, 25, 27
    4    9 F      32
    5   17 Cl     34

           -------------------------------------------------
          |                 G F N 2 - x T B                 |
           -------------------------------------------------

        Reference                      10.1021/acs.jctc.8b01176
      * Hamiltonian:
        H0-scaling (s, p, d)           1.850000    2.230000    2.230000
        zeta-weighting                 0.500000
      * Dispersion:
        s8                             2.700000
        a1                             0.520000
        a2                             5.000000
        s9                             5.000000
      * Repulsion:
        kExp                           1.500000    1.000000
        rExp                           1.000000
      * Coulomb:
        alpha                          2.000000
        third order                    shell-resolved
        anisotropic                    true
        a3                             3.000000
        a5                             4.000000
        cn-shift                       1.200000
        cn-exp                         4.000000
        max-rad                        5.000000


          ...................................................
          :                      SETUP                      :
          :.................................................:
          :  # basis functions                 150          :
          :  # atomic orbitals                 149          :
          :  # shells                           73          :
          :  # electrons                       161          :
          :  max. iterations                   300          :
          :  Hamiltonian                  GFN2-xTB          :
          :  restarted?                      false          :
          :  GBSA solvation                  false          :
          :  PC potential                    false          :
          :  electronic temp.          300.0000000     K    :
          :  accuracy                    1.0000000          :
          :  -> integral cutoff          0.2500000E+02      :
          :  -> integral neglect         0.1000000E-07      :
          :  -> SCF convergence          0.1000000E-05 Eh   :
          :  -> wf. convergence          0.1000000E-03 e    :
          :  Broyden damping             0.4000000          :
          ...................................................

 iter      E             dE          RMSdq      gap      omega  full diag
   1    -89.8736691 -0.898737E+02  0.823E+00    0.26       0.0  T
   2    -78.2836042  0.115901E+02  0.110E+01    0.04       1.0  T
   3    -70.3227406  0.796086E+01  0.118E+01    0.95       1.0  T
   4    -83.1663644 -0.128436E+02  0.784E+00    0.07       1.0  T
   5    -82.4584396  0.707925E+00  0.850E+00    0.10       1.0  T
   6    -86.6765975 -0.421816E+01  0.597E+00    0.05       1.0  T
   7    -88.2594773 -0.158288E+01  0.564E+00    0.20       1.0  T
   8    -89.3777815 -0.111830E+01  0.442E+00    0.22       1.0  T
   9    -89.2877996  0.899819E-01  0.370E+00    0.02       1.0  T
  10    -87.9263831  0.136142E+01  0.495E+00    0.09       1.0  T
  11    -89.4439759 -0.151759E+01  0.351E+00    0.01       1.0  T
  12    -90.0747892 -0.630813E+00  0.256E+00    0.03       1.0  T
  13    -90.3199994 -0.245210E+00  0.227E+00    0.02       1.0  T
  14    -90.1391147  0.180885E+00  0.259E+00    0.03       1.0  T
  15    -90.2540564 -0.114942E+00  0.247E+00    0.03       1.0  T
  16    -90.5141361 -0.260080E+00  0.159E+00    0.03       1.0  T
  17    -90.3056169  0.208519E+00  0.222E+00    0.04       1.0  T
  18    -90.4480906 -0.142474E+00  0.198E+00    0.04       1.0  T
  19    -90.5291482 -0.810576E-01  0.168E+00    0.07       1.0  T
  20    -90.5791435 -0.499953E-01  0.151E+00    0.07       1.0  T
  21    -90.5949309 -0.157874E-01  0.144E+00    0.07       1.0  T
  22    -90.5549762  0.399547E-01  0.134E+00    0.06       1.0  T
  23    -90.6948449 -0.139869E+00  0.727E-01    0.02       1.0  T
  24    -90.6196118  0.752331E-01  0.108E+00    0.01       1.0  T
  25    -90.6972374 -0.776256E-01  0.559E-01    0.04       1.0  T
  26    -90.7168471 -0.196097E-01  0.363E-01    0.03       1.0  T
  27    -90.7164130  0.434110E-03  0.351E-01    0.05       1.0  T
  28    -90.7239059 -0.749293E-02  0.192E-01    0.03       1.0  T
  29    -90.7257621 -0.185625E-02  0.105E-01    0.04       1.0  T
  30    -90.7241876  0.157453E-02  0.171E-01    0.04       1.0  T
  31    -90.7251400 -0.952439E-03  0.137E-01    0.04       1.0  T
  32    -90.7255352 -0.395124E-03  0.114E-01    0.04       1.0  T
  33    -90.7262968 -0.761590E-03  0.531E-02    0.04       1.0  T
  34    -90.7264152 -0.118429E-03  0.370E-02    0.04       1.0  T
  35    -90.7264879 -0.727462E-04  0.231E-02    0.04       1.0  T
  36    -90.7263555  0.132434E-03  0.406E-02    0.04       1.0  T
  37    -90.7264485 -0.930089E-04  0.270E-02    0.04       1.0  T
  38    -90.7264406  0.795660E-05  0.281E-02    0.04       1.0  T
  39    -90.7264941 -0.535474E-04  0.157E-02    0.04       1.1  T
  40    -90.7265114 -0.172566E-04  0.744E-03    0.04       2.2  T
  41    -90.7265020  0.939245E-05  0.122E-02    0.04       1.4  T
  42    -90.7265135 -0.114895E-04  0.472E-03    0.04       3.5  T
  43    -90.7265133  0.125153E-06  0.477E-03    0.04       3.5  T
  44    -90.7265146 -0.125143E-05  0.245E-03    0.04       6.8  T
  45    -90.7265149 -0.316835E-06  0.135E-03    0.04      12.3  T
  46    -90.7265149 -0.156073E-07  0.101E-03    0.04      16.4  T
  47    -90.7265148  0.160039E-06  0.182E-03    0.04       9.1  T
  48    -90.7265149 -0.189615E-06  0.941E-04    0.04      17.7  T
  49    -90.7265150 -0.632859E-07  0.223E-04    0.04      74.7  T

   *** convergence criteria satisfied after 49 iterations ***

         #    Occupation            Energy/Eh            Energy/eV
      -------------------------------------------------------------
         1        2.0000           -1.0977738             -29.8719
       ...           ...                  ...                  ...
        75        2.0000           -0.4452532             -12.1160
        76        2.0000           -0.4439873             -12.0815
        77        1.9980           -0.4370232             -11.8920
        78        1.8399           -0.4327762             -11.7764
        79        1.6215           -0.4318112             -11.7502
        80        1.4290           -0.4312744             -11.7356
        81        1.3019           -0.4309773             -11.7275 (HOMO)
        82        0.6103           -0.4295053             -11.6874 (LUMO)
        83        0.1880           -0.4280787             -11.6486
        84        0.0114           -0.4253083             -11.5732
        85        0.0000           -0.4145543             -11.2806
        86                         -0.4005890             -10.9006
       ...                                ...                  ...
       149                          0.6217307              16.9182
      -------------------------------------------------------------
                  HL-Gap            0.0014721 Eh            0.0401 eV
             Fermi-level           -0.4303422 Eh          -11.7102 eV

 SCC (total)                   0 d,  0 h,  0 min,  0.535 sec
 SCC setup                      ...        0 min,  0.000 sec (  0.070%)
 Dispersion                     ...        0 min,  0.001 sec (  0.253%)
 classical contributions        ...        0 min,  0.001 sec (  0.094%)
 integral evaluation            ...        0 min,  0.010 sec (  1.783%)
 iterations                     ...        0 min,  0.493 sec ( 92.163%)
 molecular gradient             ...        0 min,  0.024 sec (  4.397%)
 printout                       ...        0 min,  0.007 sec (  1.235%)

         :::::::::::::::::::::::::::::::::::::::::::::::::::::
         ::                     SUMMARY                     ::
         :::::::::::::::::::::::::::::::::::::::::::::::::::::
         :: total energy             -89.830064943809 Eh    ::
         :: gradient norm              0.509399554406 Eh/a0 ::
         :: HOMO-LUMO gap              0.040057177638 eV    ::
         ::.................................................::
         :: SCC energy               -90.726515005787 Eh    ::
         :: -> isotropic ES            0.052604023280 Eh    ::
         :: -> anisotropic ES          0.008157231029 Eh    ::
         :: -> anisotropic XC          0.044997345973 Eh    ::
         :: -> dispersion             -0.056962872049 Eh    ::
         :: repulsion energy           0.894720827704 Eh    ::
         :: add. restraining           0.000000000000 Eh    ::
         :: total charge               0.000000000085 e     ::
         :::::::::::::::::::::::::::::::::::::::::::::::::::::

           -------------------------------------------------
          |                Property Printout                |
           -------------------------------------------------

    * Orbital Energies and Occupations

         #    Occupation            Energy/Eh            Energy/eV
      -------------------------------------------------------------
         1        2.0000           -1.0977738             -29.8719
       ...           ...                  ...                  ...
        69        2.0000           -0.4612373             -12.5509
        70        2.0000           -0.4576153             -12.4523
        71        2.0000           -0.4560808             -12.4106
        72        2.0000           -0.4526702             -12.3178
        73        2.0000           -0.4513966             -12.2831
        74        2.0000           -0.4503656             -12.2551
        75        2.0000           -0.4452532             -12.1160
        76        2.0000           -0.4439873             -12.0815
        77        1.9980           -0.4370232             -11.8920
        78        1.8399           -0.4327762             -11.7764
        79        1.6215           -0.4318112             -11.7502
        80        1.4290           -0.4312744             -11.7356
        81        1.3019           -0.4309773             -11.7275 (HOMO)
        82        0.6103           -0.4295053             -11.6874 (LUMO)
        83        0.1880           -0.4280787             -11.6486
        84        0.0114           -0.4253083             -11.5732
        85        0.0000           -0.4145543             -11.2806
        86                         -0.4005890             -10.9006
        87                         -0.3944629             -10.7339
        88                         -0.3870243             -10.5315
        89                         -0.3738897             -10.1741
        90                         -0.3681622             -10.0182
        91                         -0.3598574              -9.7922
        92                         -0.3391399              -9.2285
       ...                                ...                  ...
       149                          0.6217307              16.9182
      -------------------------------------------------------------
                  HL-Gap            0.0014721 Eh            0.0401 eV
             Fermi-level           -0.4303422 Eh          -11.7102 eV

     #   Z          covCN         q      C6AA      α(0)
     1   6 C        0.989    -0.070    38.165    10.381
     2   6 C        3.089     0.080    26.122     8.378
     3   6 C        2.029    -0.025    31.658     9.087
     4   6 C        3.051     0.095    25.843     8.337
     5   6 C        2.758     0.300    21.901     7.664
     6   8 O        0.858    -0.313    20.017     5.998
     7   7 N        2.730     0.026    20.790     6.772
     8   6 C        1.894     0.008    30.898     8.978
     9   6 C        1.900    -0.042    32.227     9.168
    10   7 N        2.719     0.104    19.456     6.551
    11   6 C        1.898     0.030    30.351     8.898
    12   6 C        0.976    -0.093    38.823    10.463
    13   6 C        1.893    -0.021    31.685     9.091
    14   6 C        1.888    -0.068    32.959     9.272
    15   7 N        1.897    -0.194    26.021     7.563
    16   6 C        2.965     0.135    25.042     8.208
    17   6 C        1.968     0.019    30.575     8.930
    18   6 C        2.964     0.011    27.766     8.643
    19   6 C        2.830     0.304    21.844     7.659
    20   8 O        0.856    -0.278    19.393     5.904
    21   7 N        1.870    -0.229    26.866     7.683
    22   6 C        3.035     0.197    23.781     7.999
    23   7 N        1.830    -0.138    24.776     7.376
    24   6 C        1.980     0.165    27.095     8.406
    25   7 N        1.837    -0.163    25.319     7.457
    26   6 C        2.877     0.185    24.046     8.039
    27   7 N        1.831    -0.145    24.911     7.396
    28   6 C        2.890     0.141    24.931     8.186
    29   6 C        1.995    -0.027    31.750     9.100
    30   6 C        1.986    -0.031    31.890     9.120
    31   6 C        2.806     0.200    23.745     7.983
    32   9 F        0.787    -0.143    10.659     3.856
    33   6 C        2.877     0.090    25.988     8.357
    34  17 Cl       0.961    -0.054   100.859    15.364
    35   6 C        2.028    -0.072    32.958     9.272
    36   6 C        3.028     0.013    27.697     8.632

 Mol. C6AA /au·bohr⁶  :      36032.064265
 Mol. C8AA /au·bohr⁸  :     993452.801368
 Mol. α(0) /au        :        300.170959


Wiberg/Mayer (AO) data.
largest (>0.10) Wiberg bond orders for each atom

 ---------------------------------------------------------------------------
     #   Z sym  total        # sym  WBO       # sym  WBO       # sym  WBO
 ---------------------------------------------------------------------------
     1   6 C    2.373 --     2 C    1.846    15 N    0.159     3 C    0.129
                            16 C    0.102
     2   6 C    3.940 --     1 C    1.846     3 C    1.070    16 C    0.931
     3   6 C    3.157 --     4 C    1.532     2 C    1.070    17 C    0.142
                             1 C    0.129
     4   6 C    3.920 --     3 C    1.532    15 N    1.208     5 C    0.948
     5   6 C    3.933 --     6 O    1.781     7 N    1.109     4 C    0.948
     6   8 O    2.075 --     5 C    1.781     7 N    0.108
     7   7 N    3.623 --    14 C    1.139     8 C    1.109     5 C    1.109
                             6 O    0.108
     8   6 C    3.309 --     9 C    1.660     7 N    1.109    12 C    0.152
                            11 C    0.115    14 C    0.102
     9   6 C    3.165 --     8 C    1.660    10 N    1.056    13 C    0.145
    10   7 N    3.616 --    11 C    1.172    13 C    1.109     9 C    1.056
                            12 C    0.113
    11   6 C    3.655 --    12 C    2.086    10 N    1.172    13 C    0.132
                             8 C    0.115
    12   6 C    2.642 --    11 C    2.086     8 C    0.152    13 C    0.115
                            10 N    0.113    14 C    0.104
    13   6 C    3.047 --    14 C    1.400    10 N    1.109     9 C    0.145
                            11 C    0.132    12 C    0.115
    14   6 C    3.074 --    13 C    1.400     7 N    1.139    12 C    0.104
                             8 C    0.102
    15   7 N    3.018 --    16 C    1.288     4 C    1.208     1 C    0.159
    16   6 C    3.952 --    17 C    1.491    15 N    1.288     2 C    0.931
                             1 C    0.102
    17   6 C    3.579 --    16 C    1.491    18 C    1.443     3 C    0.142
    18   6 C    3.834 --    17 C    1.443    36 C    1.116    19 C    0.847
    19   6 C    3.922 --    20 O    1.756    21 N    1.195    18 C    0.847
    20   8 O    2.073 --    19 C    1.756    21 N    0.108
    21   7 N    3.000 --    22 C    1.295    19 C    1.195    20 O    0.108
    22   6 C    3.940 --    21 N    1.295    23 N    1.257    36 C    1.179
    23   7 N    3.203 --    24 C    1.560    22 C    1.257
    24   6 C    3.687 --    25 N    1.669    23 N    1.560    27 N    0.150
    25   7 N    3.183 --    24 C    1.669    26 C    1.173
    26   6 C    3.948 --    27 N    1.285    36 C    1.284    25 N    1.173
    27   7 N    3.116 --    26 C    1.285    28 C    1.267    24 C    0.150
Note: The following floating-point exceptions are signalling: IEEE_UNDERFLOW_FLAG IEEE_DENORMAL
normal termination of xtb
    28   6 C    3.905 --    27 N    1.267    35 C    1.265    29 C    1.206
    29   6 C    3.622 --    30 C    1.791    28 C    1.206    35 C    0.305
    30   6 C    3.441 --    29 C    1.791    31 C    1.358    35 C    0.158
    31   6 C    3.782 --    30 C    1.358    33 C    1.237    32 F    1.015
    32   9 F    1.163 --    31 C    1.015
    33   6 C    3.890 --    35 C    1.467    31 C    1.237    34 Cl   1.012
    34  17 Cl   1.198 --    33 C    1.012
    35   6 C    3.397 --    33 C    1.467    28 C    1.265    29 C    0.305
                            30 C    0.158
    36   6 C    3.879 --    26 C    1.284    22 C    1.179    18 C    1.116
 ---------------------------------------------------------------------------

Topologies differ in total number of bonds
Writing topology from bond orders to xtbtopo.mol

molecular dipole:
                 x           y           z       tot (Debye)
 q only:        0.357       0.922       0.119
   full:        1.017       0.984      -0.543       3.851
molecular quadrupole (traceless):
                xx          xy          yy          xz          yz          zz
 q only:        8.087     -15.503      -9.803       8.102      12.758       1.716
  q+dip:       17.972     -14.066     -15.225      15.389      17.446      -2.747
   full:       17.535     -14.429     -17.641      20.621      19.456       0.106


           -------------------------------------------------
          | TOTAL ENERGY              -89.830064943809 Eh   |
          | GRADIENT NORM               0.509399554406 Eh/α |
          | HOMO-LUMO GAP               0.040057177638 eV   |
           -------------------------------------------------

------------------------------------------------------------------------
 * finished run on 2026/07/23 at 16:39:06.068     
------------------------------------------------------------------------
 total:
 * wall-time:     0 d,  0 h,  0 min,  0.551 sec
 *  cpu-time:     0 d,  0 h,  0 min,  0.548 sec
 * ratio c/w:     0.994 speedup
 SCF:
 * wall-time:     0 d,  0 h,  0 min,  0.535 sec
 *  cpu-time:     0 d,  0 h,  0 min,  0.532 sec
 * ratio c/w:     0.994 speedup

