      -----------------------------------------------------------      
     |                   =====================                   |     
     |                           x T B                           |     
     |                   =====================                   |     
     |                         S. Grimme                         |     
     |          Mulliken Center for Theoretical Chemistry        |     
     |                    University of Bonn                     |     
      -----------------------------------------------------------      

   * xtb version 6.6.1 (unknown) compiled by 'builduser@buildhost' on 2023-08-07

   xtb is free software: you can redistribute it and/or modify it under
   the terms of the GNU Lesser General Public License as published by
   the Free Software Foundation, either version 3 of the License, or
   (at your option) any later version.
   
   xtb is distributed in the hope that it will be useful,
   but WITHOUT ANY WARRANTY; without even the implied warranty of
   MERCHANTABILITY or FITNESS FOR A PARTICULAR PURPOSE.  See the
   GNU Lesser General Public License for more details.
   
   Cite this work as:
   * C. Bannwarth, E. Caldeweyher, S. Ehlert, A. Hansen, P. Pracht,
     J. Seibert, S. Spicher, S. Grimme, WIREs Comput. Mol. Sci., 2020, 11,
     e01493. DOI: 10.1002/wcms.1493
   
   for GFN2-xTB:
   * C. Bannwarth, S. Ehlert and S. Grimme., J. Chem. Theory Comput., 2019,
     15, 1652-1671. DOI: 10.1021/acs.jctc.8b01176
   for GFN1-xTB:
   * S. Grimme, C. Bannwarth, P. Shushkov, J. Chem. Theory Comput., 2017,
     13, 1989-2009. DOI: 10.1021/acs.jctc.7b00118
   for GFN0-xTB:
   * P. Pracht, E. Caldeweyher, S. Ehlert, S. Grimme, ChemRxiv, 2019, preprint.
     DOI: 10.26434/chemrxiv.8326202.v1
   for GFN-FF:
   * S. Spicher and S. Grimme, Angew. Chem. Int. Ed., 2020, 59, 15665-15673.
     DOI: 10.1002/anie.202004239
   
   for ALPB and GBSA implicit solvation:
   * S. Ehlert, M. Stahn, S. Spicher, S. Grimme, J. Chem. Theory Comput.,
     2021, 17, 4250-4261. DOI: 10.1021/acs.jctc.1c00471
   
   for DFT-D4:
   * E. Caldeweyher, C. Bannwarth and S. Grimme, J. Chem. Phys., 2017,
     147, 034112. DOI: 10.1063/1.4993215
   * E. Caldeweyher, S. Ehlert, A. Hansen, H. Neugebauer, S. Spicher,
     C. Bannwarth and S. Grimme, J. Chem. Phys., 2019, 150, 154122.
     DOI: 10.1063/1.5090222
   * E. Caldeweyher, J.-M. Mewes, S. Ehlert and S. Grimme, Phys. Chem. Chem. Phys.
     2020, 22, 8499-8512. DOI: 10.1039/D0CP00502A
   
   for sTDA-xTB:
   * S. Grimme and C. Bannwarth, J. Chem. Phys., 2016, 145, 054103.
     DOI: 10.1063/1.4959605
   
   in the mass-spec context:
   * V. Asgeirsson, C. Bauer and S. Grimme, Chem. Sci., 2017, 8, 4879.
     DOI: 10.1039/c7sc00601b
   * J. Koopman and S. Grimme, ACS Omega 2019, 4, 12, 15120-15133.
     DOI: 10.1021/acsomega.9b02011
   
   for metadynamics refer to:
   * S. Grimme, J. Chem. Theory Comput., 2019, 155, 2847-2862
     DOI: 10.1021/acs.jctc.9b00143
   
   for SPH calculations refer to:
   * S. Spicher and S. Grimme, J. Chem. Theory Comput., 2021, 17, 1701-1714
     DOI: 10.1021/acs.jctc.0c01306
   
   with help from (in alphabetical order)
   P. Atkinson, C. Bannwarth, F. Bohle, G. Brandenburg, E. Caldeweyher
   M. Checinski, S. Dohm, S. Ehlert, S. Ehrlich, I. Gerasimov, C. Hölzer
   A. Katbashev, J. Koopman, C. Lavigne, S. Lehtola, F. März, M. Müller,
   F. Musil, H. Neugebauer, J. Pisarek, C. Plett, P. Pracht, F. Pultar,
   J. Seibert, P. Shushkov, S. Spicher, M. Stahn, M. Steiner, T. Strunk,
   J. Stückrath, T. Rose, and J. Unsleber
   
 * started run on 2026/07/23 at 16:37:41.604     

           -------------------------------------------------
          |                Calculation Setup                |
           -------------------------------------------------

          program call               : xtb /home/selva/covalent_quantum_benchmark/data/quantum/erbB_xyz/EGFR__CHEMBL2112370__state02.xyz --gfn2 --chrg 0 --uhf 0 --iterations 300
          coordinate file            : /home/selva/covalent_quantum_benchmark/data/quantum/erbB_xyz/EGFR__CHEMBL2112370__state02.xyz
          omp threads                :                    24

   ID    Z sym.   atoms
    1    6 C      1, 3-7, 9-12, 15-18, 20, 22, 24-28, 30-32
    2    8 O      2, 13
    3    7 N      8, 14, 19, 21, 23
    4   35 Br     29

           -------------------------------------------------
          |                 G F N 2 - x T B                 |
           -------------------------------------------------

        Reference                      10.1021/acs.jctc.8b01176
      * Hamiltonian:
        H0-scaling (s, p, d)           1.850000    2.230000    2.230000
        zeta-weighting                 0.500000
      * Dispersion:
        s8                             2.700000
        a1                             0.520000
        a2                             5.000000
        s9                             5.000000
      * Repulsion:
        kExp                           1.500000    1.000000
        rExp                           1.000000
      * Coulomb:
        alpha                          2.000000
        third order                    shell-resolved
        anisotropic                    true
        a3                             3.000000
        a5                             4.000000
        cn-shift                       1.200000
        cn-exp                         4.000000
        max-rad                        5.000000


          ...................................................
          :                      SETUP                      :
          :.................................................:
          :  # basis functions                 134          :
          :  # atomic orbitals                 133          :
          :  # shells                           65          :
          :  # electrons                       140          :
          :  max. iterations                   300          :
          :  Hamiltonian                  GFN2-xTB          :
          :  restarted?                      false          :
          :  GBSA solvation                  false          :
          :  PC potential                    false          :
          :  electronic temp.          300.0000000     K    :
          :  accuracy                    1.0000000          :
          :  -> integral cutoff          0.2500000E+02      :
          :  -> integral neglect         0.1000000E-07      :
          :  -> SCF convergence          0.1000000E-05 Eh   :
          :  -> wf. convergence          0.1000000E-03 e    :
          :  Broyden damping             0.4000000          :
          ...................................................

 iter      E             dE          RMSdq      gap      omega  full diag
   1    -76.1674382 -0.761674E+02  0.897E+00    0.19       0.0  T
   2    -59.9010805  0.162664E+02  0.131E+01    0.11       1.0  T
   3    -58.8386048  0.106248E+01  0.114E+01    0.12       1.0  T
   4    -52.1598457  0.667876E+01  0.118E+01    0.15       1.0  T
   5    -59.4128882 -0.725304E+01  0.102E+01    0.16       1.0  T
   6    -69.7991325 -0.103862E+02  0.775E+00    0.45       1.0  T
   7    -75.4271832 -0.562805E+01  0.574E+00    0.10       1.0  T
   8    -76.3182432 -0.891060E+00  0.410E+00    0.04       1.0  T
   9    -76.0290337  0.289209E+00  0.456E+00    0.02       1.0  T
  10    -76.7672983 -0.738265E+00  0.321E+00    0.19       1.0  T
  11    -75.7961537  0.971145E+00  0.358E+00    0.03       1.0  T
  12    -76.6633692 -0.867215E+00  0.317E+00    0.32       1.0  T
  13    -76.8819775 -0.218608E+00  0.272E+00    0.14       1.0  T
  14    -76.1564811  0.725496E+00  0.465E+00    0.03       1.0  T
  15    -77.1685375 -0.101206E+01  0.217E+00    0.01       1.0  T
  16    -76.5535575  0.614980E+00  0.392E+00    0.04       1.0  T
  17    -76.5335797  0.199777E-01  0.398E+00    0.04       1.0  T
  18    -77.2023015 -0.668722E+00  0.155E+00    0.07       1.0  T
  19    -76.5744415  0.627860E+00  0.281E+00    0.08       1.0  T
  20    -77.2948010 -0.720360E+00  0.132E+00    0.01       1.0  T
  21    -77.3532057 -0.584047E-01  0.904E-01    0.02       1.0  T
  22    -76.8618194  0.491386E+00  0.217E+00    0.05       1.0  T
  23    -77.3360771 -0.474258E+00  0.894E-01    0.01       1.0  T
  24    -77.3495668 -0.134897E-01  0.756E-01    0.01       1.0  T
  25    -77.2992115  0.503553E-01  0.984E-01    0.01       1.0  T
  26    -77.3669702 -0.677587E-01  0.517E-01    0.01       1.0  T
  27    -77.3738453 -0.687505E-02  0.395E-01    0.04       1.0  T
  28    -77.3246365  0.492088E-01  0.806E-01    0.01       1.0  T
  29    -77.3537390 -0.291026E-01  0.609E-01    0.00       1.0  T
  30    -77.3336148  0.201243E-01  0.760E-01    0.01       1.0  T
  31    -77.3472971 -0.136823E-01  0.637E-01    0.00       1.0  T
  32    -77.3723880 -0.250909E-01  0.427E-01    0.04       1.0  T
  33    -77.3732331 -0.845078E-03  0.400E-01    0.04       1.0  T
  34    -77.3714295  0.180355E-02  0.404E-01    0.03       1.0  T
  35    -77.3772706 -0.584107E-02  0.334E-01    0.03       1.0  T
  36    -77.3831935 -0.592288E-02  0.178E-01    0.03       1.0  T
  37    -77.3837987 -0.605204E-03  0.161E-01    0.03       1.0  T
  38    -77.3858892 -0.209054E-02  0.574E-02    0.02       1.0  T
  39    -77.3859116 -0.224294E-04  0.543E-02    0.02       1.0  T
  40    -77.3860793 -0.167704E-03  0.428E-02    0.02       1.0  T
  41    -77.3860841 -0.476859E-05  0.365E-02    0.02       1.0  T
  42    -77.3860481  0.359892E-04  0.411E-02    0.02       1.0  T
  43    -77.3859734  0.747342E-04  0.501E-02    0.02       1.0  T
  44    -77.3860915 -0.118156E-03  0.335E-02    0.02       1.0  T
  45    -77.3861569 -0.653543E-04  0.160E-02    0.02       1.1  T
  46    -77.3861748 -0.179431E-04  0.701E-03    0.02       2.5  T
  47    -77.3861761 -0.122194E-05  0.528E-03    0.02       3.4  T
  48    -77.3861784 -0.231337E-05  0.206E-03    0.02       8.6  T
  49    -77.3861784 -0.361959E-07  0.188E-03    0.02       9.4  T
  50    -77.3861786 -0.242108E-06  0.111E-03    0.02      16.0  T
  51    -77.3861785  0.128601E-06  0.159E-03    0.02      11.1  T
  52    -77.3861788 -0.248074E-06  0.287E-04    0.02      61.7  T
  53    -77.3861788 -0.261871E-08  0.197E-04    0.02      89.9  T

   *** convergence criteria satisfied after 53 iterations ***

         #    Occupation            Energy/Eh            Energy/eV
      -------------------------------------------------------------
         1        2.0000           -0.8649148             -23.5355
       ...           ...                  ...                  ...
        64        2.0000           -0.4328910             -11.7796
        65        2.0000           -0.4298791             -11.6976
        66        2.0000           -0.4265275             -11.6064
        67        1.9989           -0.4222148             -11.4890
        68        1.9546           -0.4186617             -11.3924
        69        1.6653           -0.4166119             -11.3366
        70        1.1979           -0.4154685             -11.3055 (HOMO)
        71        0.8380           -0.4147770             -11.2867 (LUMO)
        72        0.2645           -0.4133002             -11.2465
        73        0.0809           -0.4120787             -11.2132
        74        0.0000           -0.4030593             -10.9678
        75        0.0000           -0.3999164             -10.8823
       ...           ...                  ...                  ...
       133                          0.6146041              16.7242
      -------------------------------------------------------------
                  HL-Gap            0.0006915 Eh            0.0188 eV
             Fermi-level           -0.4150875 Eh          -11.2951 eV

 SCC (total)                   0 d,  0 h,  0 min,  0.453 sec
 SCC setup                      ...        0 min,  0.000 sec (  0.080%)
 Dispersion                     ...        0 min,  0.001 sec (  0.186%)
 classical contributions        ...        0 min,  0.000 sec (  0.108%)
 integral evaluation            ...        0 min,  0.003 sec (  0.760%)
 iterations                     ...        0 min,  0.420 sec ( 92.758%)
 molecular gradient             ...        0 min,  0.026 sec (  5.727%)
 printout                       ...        0 min,  0.002 sec (  0.373%)

         :::::::::::::::::::::::::::::::::::::::::::::::::::::
         ::                     SUMMARY                     ::
         :::::::::::::::::::::::::::::::::::::::::::::::::::::
         :: total energy             -76.593152611586 Eh    ::
         :: gradient norm              0.492078692082 Eh/a0 ::
         :: HOMO-LUMO gap              0.018816062479 eV    ::
         ::.................................................::
         :: SCC energy               -77.386178770655 Eh    ::
         :: -> isotropic ES            0.025257986087 Eh    ::
         :: -> anisotropic ES          0.007503462472 Eh    ::
         :: -> anisotropic XC          0.038802047301 Eh    ::
         :: -> dispersion             -0.043971179897 Eh    ::
         :: repulsion energy           0.793454276063 Eh    ::
         :: add. restraining           0.000000000000 Eh    ::
         :: total charge               0.000000000000 e     ::
         :::::::::::::::::::::::::::::::::::::::::::::::::::::

           -------------------------------------------------
          |                Property Printout                |
           -------------------------------------------------

    * Orbital Energies and Occupations

         #    Occupation            Energy/Eh            Energy/eV
      -------------------------------------------------------------
         1        2.0000           -0.8649148             -23.5355
       ...           ...                  ...                  ...
        58        2.0000           -0.4514193             -12.2837
        59        2.0000           -0.4459620             -12.1352
        60        2.0000           -0.4407022             -11.9921
        61        2.0000           -0.4393902             -11.9564
        62        2.0000           -0.4365478             -11.8791
        63        2.0000           -0.4355625             -11.8523
        64        2.0000           -0.4328910             -11.7796
        65        2.0000           -0.4298791             -11.6976
        66        2.0000           -0.4265275             -11.6064
        67        1.9989           -0.4222148             -11.4890
        68        1.9546           -0.4186617             -11.3924
        69        1.6653           -0.4166119             -11.3366
        70        1.1979           -0.4154685             -11.3055 (HOMO)
        71        0.8380           -0.4147770             -11.2867 (LUMO)
        72        0.2645           -0.4133002             -11.2465
        73        0.0809           -0.4120787             -11.2132
        74        0.0000           -0.4030593             -10.9678
        75        0.0000           -0.3999164             -10.8823
        76                         -0.3925743             -10.6825
        77                         -0.3885161             -10.5721
        78                         -0.3590494              -9.7702
        79                         -0.3555068              -9.6738
        80                         -0.3484211              -9.4810
        81                         -0.3260166              -8.8714
       ...                                ...                  ...
       133                          0.6146041              16.7242
      -------------------------------------------------------------
                  HL-Gap            0.0006915 Eh            0.0188 eV
             Fermi-level           -0.4150875 Eh          -11.2951 eV

     #   Z          covCN         q      C6AA      α(0)
     1   6 C        0.877     0.008    34.979     9.880
     2   8 O        1.697    -0.002    14.505     5.142
     3   6 C        1.851    -0.024    31.799     9.109
     4   6 C        2.905     0.086    26.079     8.374
     5   6 C        1.970    -0.038    32.085     9.147
     6   6 C        1.969    -0.026    31.747     9.099
     7   6 C        1.936    -0.017    31.548     9.071
     8   7 N        2.734     0.015    20.984     6.803
     9   6 C        1.897     0.031    30.310     8.892
    10   6 C        1.965     0.023    30.488     8.917
    11   6 C        1.971     0.005    30.925     8.981
    12   6 C        2.753     0.322    21.537     7.599
    13   8 O        0.857    -0.330    20.332     6.046
    14   7 N        1.836    -0.195    26.050     7.564
    15   6 C        2.895     0.146    24.829     8.170
    16   6 C        1.988    -0.022    31.641     9.084
    17   6 C        1.992    -0.010    31.304     9.036
    18   6 C        2.950     0.123    25.298     8.250
    19   7 N        1.830    -0.157    25.178     7.436
    20   6 C        1.889     0.167    27.093     8.407
    21   7 N        1.832    -0.210    26.396     7.613
    22   6 C        2.857     0.204    23.667     7.974
    23   7 N        1.836    -0.160    25.262     7.448
    24   6 C        2.934     0.132    25.106     8.217
    25   6 C        1.992     0.006    30.886     8.975
    26   6 C        1.987    -0.021    31.616     9.080
    27   6 C        2.062     0.007    30.774     8.961
    28   6 C        2.907     0.113    25.515     8.283
    29  35 Br       1.069    -0.066   186.838    22.039
    30   6 C        2.066    -0.080    33.141     9.299
    31   6 C        2.978     0.005    27.910     8.666
    32   6 C        1.993    -0.036    31.996     9.135

 Mol. C6AA /au·bohr⁶  :      31055.670218
 Mol. C8AA /au·bohr⁸  :     919151.838132
 Mol. α(0) /au        :        280.694769


Wiberg/Mayer (AO) data.
largest (>0.10) Wiberg bond orders for each atom

 ---------------------------------------------------------------------------
     #   Z sym  total        # sym  WBO       # sym  WBO       # sym  WBO
 ---------------------------------------------------------------------------
     1   6 C    2.082 --     2 O    1.610     3 C    0.210     4 C    0.142
     2   8 O    2.695 --     1 C    1.610     3 C    1.050
     3   6 C    3.031 --     4 C    1.362     2 O    1.050     1 C    0.210
                             5 C    0.136     6 C    0.125     7 C    0.103
     4   6 C    3.784 --     3 C    1.362     5 C    1.132     8 N    0.972
                             1 C    0.142
     5   6 C    3.250 --     6 C    1.397     4 C    1.132     7 C    0.291
                             3 C    0.136     9 C    0.109
     6   6 C    3.224 --     5 C    1.397     7 C    1.382     9 C    0.135
                             3 C    0.125
     7   6 C    2.962 --     6 C    1.382     8 N    1.002     5 C    0.291
                             3 C    0.103
     8   7 N    3.397 --     9 C    1.122     7 C    1.002     4 C    0.972
     9   6 C    3.222 --    10 C    1.404     8 N    1.122    11 C    0.137
                             6 C    0.135     5 C    0.109
    10   6 C    3.801 --    11 C    2.199     9 C    1.404
    11   6 C    3.639 --    10 C    2.199    12 C    0.970     9 C    0.137
                            13 O    0.127
    12   6 C    3.929 --    13 O    1.636    14 N    1.227    11 C    0.970
    13   8 O    2.110 --    12 C    1.636    11 C    0.127    14 N    0.117
    14   7 N    2.886 --    15 C    1.239    12 C    1.227    17 C    0.120
                            13 O    0.117
    15   6 C    3.887 --    32 C    1.271    14 N    1.239    16 C    1.223
    16   6 C    3.664 --    17 C    1.723    15 C    1.223    32 C    0.234
                            20 C    0.105
    17   6 C    3.480 --    16 C    1.723    18 C    1.313    32 C    0.137
                            14 N    0.120
    18   6 C    3.853 --    17 C    1.313    31 C    1.196    19 N    1.087
    19   7 N    3.107 --    20 C    1.700    18 C    1.087
    20   6 C    3.834 --    19 N    1.700    21 N    1.624    23 N    0.118
                            16 C    0.105
    21   7 N    3.188 --    20 C    1.624    22 C    1.156    23 N    0.113
    22   6 C    3.954 --    23 N    1.578    21 N    1.156    31 C    1.027
    23   7 N    3.211 --    22 C    1.578    24 C    1.089    20 C    0.118
                            21 N    0.113
    24   6 C    3.953 --    30 C    1.357    25 C    1.320    23 N    1.089
                            27 C    0.101
    25   6 C    3.744 --    26 C    1.623    24 C    1.320    27 C    0.387
                            30 C    0.156    28 C    0.101
Note: The following floating-point exceptions are signalling: IEEE_UNDERFLOW_FLAG IEEE_DENORMAL
normal termination of xtb
    26   6 C    3.741 --    27 C    1.630    25 C    1.623    30 C    0.384
    27   6 C    3.744 --    26 C    1.630    28 C    1.366    25 C    0.387
                            30 C    0.155    24 C    0.101
    28   6 C    3.925 --    30 C    1.415    27 C    1.366    29 Br   0.993
                            25 C    0.101
    29  35 Br   1.195 --    28 C    0.993
    30   6 C    3.587 --    28 C    1.415    24 C    1.357    26 C    0.384
                            25 C    0.156    27 C    0.155
    31   6 C    3.940 --    32 C    1.448    18 C    1.196    22 C    1.027
    32   6 C    3.380 --    31 C    1.448    15 C    1.271    16 C    0.234
                            17 C    0.137
 ---------------------------------------------------------------------------

Topologies differ in total number of bonds
Writing topology from bond orders to xtbtopo.mol

molecular dipole:
                 x           y           z       tot (Debye)
 q only:       -0.117       0.521      -0.632
   full:        0.183      -0.109      -0.468       1.307
molecular quadrupole (traceless):
                xx          xy          yy          xz          yz          zz
 q only:       -9.744       1.434      10.412      -1.107       6.709      -0.668
  q+dip:      -35.310      -7.391      20.091      -7.241      14.816      15.219
   full:      -34.657      -8.035      19.126     -11.531      14.037      15.531


           -------------------------------------------------
          | TOTAL ENERGY              -76.593152611586 Eh   |
          | GRADIENT NORM               0.492078692082 Eh/α |
          | HOMO-LUMO GAP               0.018816062479 eV   |
           -------------------------------------------------

------------------------------------------------------------------------
 * finished run on 2026/07/23 at 16:37:42.082     
------------------------------------------------------------------------
 total:
 * wall-time:     0 d,  0 h,  0 min,  0.478 sec
 *  cpu-time:     0 d,  0 h,  0 min,  0.477 sec
 * ratio c/w:     0.998 speedup
 SCF:
 * wall-time:     0 d,  0 h,  0 min,  0.453 sec
 *  cpu-time:     0 d,  0 h,  0 min,  0.456 sec
 * ratio c/w:     1.007 speedup

