      -----------------------------------------------------------      
     |                   =====================                   |     
     |                           x T B                           |     
     |                   =====================                   |     
     |                         S. Grimme                         |     
     |          Mulliken Center for Theoretical Chemistry        |     
     |                    University of Bonn                     |     
      -----------------------------------------------------------      

   * xtb version 6.6.1 (unknown) compiled by 'builduser@buildhost' on 2023-08-07

   xtb is free software: you can redistribute it and/or modify it under
   the terms of the GNU Lesser General Public License as published by
   the Free Software Foundation, either version 3 of the License, or
   (at your option) any later version.
   
   xtb is distributed in the hope that it will be useful,
   but WITHOUT ANY WARRANTY; without even the implied warranty of
   MERCHANTABILITY or FITNESS FOR A PARTICULAR PURPOSE.  See the
   GNU Lesser General Public License for more details.
   
   Cite this work as:
   * C. Bannwarth, E. Caldeweyher, S. Ehlert, A. Hansen, P. Pracht,
     J. Seibert, S. Spicher, S. Grimme, WIREs Comput. Mol. Sci., 2020, 11,
     e01493. DOI: 10.1002/wcms.1493
   
   for GFN2-xTB:
   * C. Bannwarth, S. Ehlert and S. Grimme., J. Chem. Theory Comput., 2019,
     15, 1652-1671. DOI: 10.1021/acs.jctc.8b01176
   for GFN1-xTB:
   * S. Grimme, C. Bannwarth, P. Shushkov, J. Chem. Theory Comput., 2017,
     13, 1989-2009. DOI: 10.1021/acs.jctc.7b00118
   for GFN0-xTB:
   * P. Pracht, E. Caldeweyher, S. Ehlert, S. Grimme, ChemRxiv, 2019, preprint.
     DOI: 10.26434/chemrxiv.8326202.v1
   for GFN-FF:
   * S. Spicher and S. Grimme, Angew. Chem. Int. Ed., 2020, 59, 15665-15673.
     DOI: 10.1002/anie.202004239
   
   for ALPB and GBSA implicit solvation:
   * S. Ehlert, M. Stahn, S. Spicher, S. Grimme, J. Chem. Theory Comput.,
     2021, 17, 4250-4261. DOI: 10.1021/acs.jctc.1c00471
   
   for DFT-D4:
   * E. Caldeweyher, C. Bannwarth and S. Grimme, J. Chem. Phys., 2017,
     147, 034112. DOI: 10.1063/1.4993215
   * E. Caldeweyher, S. Ehlert, A. Hansen, H. Neugebauer, S. Spicher,
     C. Bannwarth and S. Grimme, J. Chem. Phys., 2019, 150, 154122.
     DOI: 10.1063/1.5090222
   * E. Caldeweyher, J.-M. Mewes, S. Ehlert and S. Grimme, Phys. Chem. Chem. Phys.
     2020, 22, 8499-8512. DOI: 10.1039/D0CP00502A
   
   for sTDA-xTB:
   * S. Grimme and C. Bannwarth, J. Chem. Phys., 2016, 145, 054103.
     DOI: 10.1063/1.4959605
   
   in the mass-spec context:
   * V. Asgeirsson, C. Bauer and S. Grimme, Chem. Sci., 2017, 8, 4879.
     DOI: 10.1039/c7sc00601b
   * J. Koopman and S. Grimme, ACS Omega 2019, 4, 12, 15120-15133.
     DOI: 10.1021/acsomega.9b02011
   
   for metadynamics refer to:
   * S. Grimme, J. Chem. Theory Comput., 2019, 155, 2847-2862
     DOI: 10.1021/acs.jctc.9b00143
   
   for SPH calculations refer to:
   * S. Spicher and S. Grimme, J. Chem. Theory Comput., 2021, 17, 1701-1714
     DOI: 10.1021/acs.jctc.0c01306
   
   with help from (in alphabetical order)
   P. Atkinson, C. Bannwarth, F. Bohle, G. Brandenburg, E. Caldeweyher
   M. Checinski, S. Dohm, S. Ehlert, S. Ehrlich, I. Gerasimov, C. Hölzer
   A. Katbashev, J. Koopman, C. Lavigne, S. Lehtola, F. März, M. Müller,
   F. Musil, H. Neugebauer, J. Pisarek, C. Plett, P. Pracht, F. Pultar,
   J. Seibert, P. Shushkov, S. Spicher, M. Stahn, M. Steiner, T. Strunk,
   J. Stückrath, T. Rose, and J. Unsleber
   
 * started run on 2026/07/23 at 16:37:56.991     

           -------------------------------------------------
          |                Calculation Setup                |
           -------------------------------------------------

          program call               : xtb /home/selva/covalent_quantum_benchmark/data/quantum/erbB_xyz/EGFR__CHEMBL302552__state01.xyz --gfn2 --chrg 0 --uhf 0 --iterations 300
          coordinate file            : /home/selva/covalent_quantum_benchmark/data/quantum/erbB_xyz/EGFR__CHEMBL302552__state01.xyz
          omp threads                :                    24

   ID    Z sym.   atoms
    1    8 O      1, 9, 18
    2    6 C      2, 4, 5, 7, 8, 10-12, 14-17, 20, 22, 24, 26-29, 31, 33-36
    3    7 N      3, 6, 13, 19, 21, 23, 25
    4    9 F      30
    5   17 Cl     32

           -------------------------------------------------
          |                 G F N 2 - x T B                 |
           -------------------------------------------------

        Reference                      10.1021/acs.jctc.8b01176
      * Hamiltonian:
        H0-scaling (s, p, d)           1.850000    2.230000    2.230000
        zeta-weighting                 0.500000
      * Dispersion:
        s8                             2.700000
        a1                             0.520000
        a2                             5.000000
        s9                             5.000000
      * Repulsion:
        kExp                           1.500000    1.000000
        rExp                           1.000000
      * Coulomb:
        alpha                          2.000000
        third order                    shell-resolved
        anisotropic                    true
        a3                             3.000000
        a5                             4.000000
        cn-shift                       1.200000
        cn-exp                         4.000000
        max-rad                        5.000000


          ...................................................
          :                      SETUP                      :
          :.................................................:
          :  # basis functions                 150          :
          :  # atomic orbitals                 149          :
          :  # shells                           73          :
          :  # electrons                       163          :
          :  max. iterations                   300          :
          :  Hamiltonian                  GFN2-xTB          :
          :  restarted?                      false          :
          :  GBSA solvation                  false          :
          :  PC potential                    false          :
          :  electronic temp.          300.0000000     K    :
          :  accuracy                    1.0000000          :
          :  -> integral cutoff          0.2500000E+02      :
          :  -> integral neglect         0.1000000E-07      :
          :  -> SCF convergence          0.1000000E-05 Eh   :
          :  -> wf. convergence          0.1000000E-03 e    :
          :  Broyden damping             0.4000000          :
          ...................................................

 iter      E             dE          RMSdq      gap      omega  full diag
   1    -91.8562894 -0.918563E+02  0.757E+00    0.13       0.0  T
   2    -81.4289585  0.104273E+02  0.104E+01    0.27       1.0  T
   3    -72.1386509  0.929031E+01  0.113E+01    0.07       1.0  T
   4    -81.6212586 -0.948261E+01  0.851E+00    0.07       1.0  T
   5    -84.8087830 -0.318752E+01  0.826E+00    0.11       1.0  T
   6    -88.2144640 -0.340568E+01  0.655E+00    0.20       1.0  T
   7    -90.3021682 -0.208770E+01  0.528E+00    0.05       1.0  T
   8    -90.8578846 -0.555716E+00  0.447E+00    0.05       1.0  T
   9    -91.4286275 -0.570743E+00  0.370E+00    0.10       1.0  T
  10    -91.8743046 -0.445677E+00  0.343E+00    0.16       1.0  T
  11    -92.2570171 -0.382712E+00  0.246E+00    0.04       1.0  T
  12    -92.1263743  0.130643E+00  0.259E+00    0.04       1.0  T
  13    -92.3875951 -0.261221E+00  0.225E+00    0.04       1.0  T
  14    -92.4681904 -0.805954E-01  0.192E+00    0.02       1.0  T
  15    -92.4817833 -0.135928E-01  0.198E+00    0.01       1.0  T
  16    -92.4749047  0.687859E-02  0.185E+00    0.07       1.0  T
  17    -92.5277837 -0.528790E-01  0.168E+00    0.06       1.0  T
  18    -92.5928235 -0.650398E-01  0.137E+00    0.08       1.0  T
  19    -92.6754522 -0.826287E-01  0.982E-01    0.07       1.0  T
  20    -92.5256719  0.149780E+00  0.163E+00    0.05       1.0  T
  21    -92.5922877 -0.666158E-01  0.129E+00    0.08       1.0  T
  22    -92.6320504 -0.397627E-01  0.113E+00    0.04       1.0  T
  23    -92.6489407 -0.168903E-01  0.877E-01    0.05       1.0  T
  24    -92.6569404 -0.799976E-02  0.885E-01    0.04       1.0  T
  25    -92.7167935 -0.598531E-01  0.381E-01    0.04       1.0  T
  26    -92.7161487  0.644844E-03  0.367E-01    0.03       1.0  T
  27    -92.7195214 -0.337276E-02  0.320E-01    0.05       1.0  T
  28    -92.7248463 -0.532486E-02  0.210E-01    0.04       1.0  T
  29    -92.7250979 -0.251559E-03  0.213E-01    0.04       1.0  T
  30    -92.7261365 -0.103861E-02  0.173E-01    0.04       1.0  T
  31    -92.7263010 -0.164555E-03  0.154E-01    0.04       1.0  T
  32    -92.7277303 -0.142932E-02  0.683E-02    0.04       1.0  T
  33    -92.7273952  0.335096E-03  0.770E-02    0.03       1.0  T
  34    -92.7278738 -0.478593E-03  0.432E-02    0.04       1.0  T
  35    -92.7280002 -0.126336E-03  0.267E-02    0.04       1.0  T
  36    -92.7279907  0.946946E-05  0.243E-02    0.04       1.0  T
  37    -92.7280177 -0.270413E-04  0.212E-02    0.04       1.0  T
  38    -92.7280348 -0.170574E-04  0.156E-02    0.04       1.1  T
  39    -92.7280434 -0.856407E-05  0.110E-02    0.04       1.5  T
  40    -92.7280369  0.647926E-05  0.126E-02    0.04       1.3  T
  41    -92.7280521 -0.152059E-04  0.400E-03    0.04       4.2  T
  42    -92.7280524 -0.343481E-06  0.331E-03    0.04       5.0  T
  43    -92.7280528 -0.396791E-06  0.255E-03    0.04       6.5  T
  44    -92.7280534 -0.592257E-06  0.107E-03    0.04      15.6  T
  45    -92.7280535 -0.330763E-07  0.790E-04    0.04      21.1  T
  46    -92.7280535 -0.439663E-07  0.304E-04    0.04      54.8  T

   *** convergence criteria satisfied after 46 iterations ***

         #    Occupation            Energy/Eh            Energy/eV
      -------------------------------------------------------------
         1        2.0000           -1.0935227             -29.7563
       ...           ...                  ...                  ...
        76        2.0000           -0.4401136             -11.9761
        77        1.9997           -0.4360757             -11.8662
        78        1.9795           -0.4319589             -11.7542
        79        1.8750           -0.4301706             -11.7055
        80        1.7910           -0.4296247             -11.6907
        81        1.5422           -0.4286921             -11.6653
        82        1.1832           -0.4278175             -11.6415 (HOMO)
        83        0.5761           -0.4264788             -11.6051 (LUMO)
        84        0.0530           -0.4238204             -11.5327
        85        0.0001           -0.4181916             -11.3796
        86        0.0000           -0.4119683             -11.2102
        87                         -0.4070475             -11.0763
       ...                                ...                  ...
       149                          0.6159052              16.7596
      -------------------------------------------------------------
                  HL-Gap            0.0013387 Eh            0.0364 eV
             Fermi-level           -0.4274267 Eh          -11.6309 eV

 SCC (total)                   0 d,  0 h,  0 min,  0.796 sec
 SCC setup                      ...        0 min,  0.000 sec (  0.061%)
 Dispersion                     ...        0 min,  0.001 sec (  0.152%)
 classical contributions        ...        0 min,  0.001 sec (  0.076%)
 integral evaluation            ...        0 min,  0.006 sec (  0.713%)
 iterations                     ...        0 min,  0.736 sec ( 92.434%)
 molecular gradient             ...        0 min,  0.042 sec (  5.239%)
 printout                       ...        0 min,  0.010 sec (  1.317%)

         :::::::::::::::::::::::::::::::::::::::::::::::::::::
         ::                     SUMMARY                     ::
         :::::::::::::::::::::::::::::::::::::::::::::::::::::
         :: total energy             -91.842580747599 Eh    ::
         :: gradient norm              0.488560841938 Eh/a0 ::
         :: HOMO-LUMO gap              0.036426536676 eV    ::
         ::.................................................::
         :: SCC energy               -92.728053506332 Eh    ::
         :: -> isotropic ES            0.086590762126 Eh    ::
         :: -> anisotropic ES          0.008954920453 Eh    ::
         :: -> anisotropic XC          0.039869535299 Eh    ::
         :: -> dispersion             -0.056532031165 Eh    ::
         :: repulsion energy           0.883572079551 Eh    ::
         :: add. restraining           0.000000000000 Eh    ::
         :: total charge               0.000000000072 e     ::
         :::::::::::::::::::::::::::::::::::::::::::::::::::::

           -------------------------------------------------
          |                Property Printout                |
           -------------------------------------------------

    * Orbital Energies and Occupations

         #    Occupation            Energy/Eh            Energy/eV
      -------------------------------------------------------------
         1        2.0000           -1.0935227             -29.7563
       ...           ...                  ...                  ...
        70        2.0000           -0.4582060             -12.4684
        71        2.0000           -0.4550862             -12.3835
        72        2.0000           -0.4515284             -12.2867
        73        2.0000           -0.4474074             -12.1746
        74        2.0000           -0.4436612             -12.0726
        75        2.0000           -0.4420475             -12.0287
        76        2.0000           -0.4401136             -11.9761
        77        1.9997           -0.4360757             -11.8662
        78        1.9795           -0.4319589             -11.7542
        79        1.8750           -0.4301706             -11.7055
        80        1.7910           -0.4296247             -11.6907
        81        1.5422           -0.4286921             -11.6653
        82        1.1832           -0.4278175             -11.6415 (HOMO)
        83        0.5761           -0.4264788             -11.6051 (LUMO)
        84        0.0530           -0.4238204             -11.5327
        85        0.0001           -0.4181916             -11.3796
        86        0.0000           -0.4119683             -11.2102
        87                         -0.4070475             -11.0763
        88                         -0.3835436             -10.4368
        89                         -0.3741377             -10.1808
        90                         -0.3655583              -9.9473
        91                         -0.3630358              -9.8787
        92                         -0.3604841              -9.8093
        93                         -0.3523102              -9.5868
       ...                                ...                  ...
       149                          0.6159052              16.7596
      -------------------------------------------------------------
                  HL-Gap            0.0013387 Eh            0.0364 eV
             Fermi-level           -0.4274267 Eh          -11.6309 eV

     #   Z          covCN         q      C6AA      α(0)
     1   8 O        0.857    -0.329    20.305     6.041
     2   6 C        2.751     0.302    21.876     7.659
     3   7 N        1.823    -0.118    24.340     7.310
     4   6 C        1.888     0.076    29.212     8.729
     5   6 C        1.896     0.014    30.759     8.957
     6   7 N        2.720     0.082    19.820     6.612
     7   6 C        1.898    -0.054    32.565     9.216
     8   6 C        1.842     0.050    29.872     8.829
     9   8 O        1.695    -0.123    16.174     5.430
    10   6 C        1.841     0.041    30.107     8.864
    11   6 C        1.899    -0.030    31.907     9.123
    12   6 C        3.336     0.125    23.026     7.599
    13   7 N        1.869    -0.213    26.475     7.627
    14   6 C        3.200     0.139    24.462     8.060
    15   6 C        1.975     0.030    30.278     8.886
    16   6 C        2.965     0.009    27.817     8.651
    17   6 C        2.840     0.301    21.895     7.668
    18   8 O        0.856    -0.285    19.520     5.924
    19   7 N        1.874    -0.236    27.029     7.707
    20   6 C        3.050     0.198    23.756     7.994
    21   7 N        1.830    -0.138    24.770     7.375
    22   6 C        1.987     0.165    27.076     8.403
    23   7 N        1.836    -0.160    25.262     7.448
    24   6 C        2.887     0.189    23.975     8.028
    25   7 N        1.832    -0.131    24.622     7.353
    26   6 C        2.892     0.138    24.998     8.197
    27   6 C        1.992    -0.038    32.056     9.143
    28   6 C        1.987    -0.025    31.714     9.094
    29   6 C        2.806     0.195    23.850     8.001
    30   9 F        0.787    -0.148    10.714     3.866
    31   6 C        2.878     0.089    26.008     8.360
    32  17 Cl       0.962    -0.061   101.065    15.380
    33   6 C        2.031    -0.071    32.933     9.269
    34   6 C        3.034     0.016    27.625     8.621
    35   6 C        2.199     0.018    30.015     8.865
    36   6 C        2.039    -0.017    31.437     9.056

 Mol. C6AA /au·bohr⁶  :      34991.536695
 Mol. C8AA /au·bohr⁸  :     956451.150579
 Mol. α(0) /au        :        293.346967


Wiberg/Mayer (AO) data.
largest (>0.10) Wiberg bond orders for each atom

 ---------------------------------------------------------------------------
     #   Z sym  total        # sym  WBO       # sym  WBO       # sym  WBO
 ---------------------------------------------------------------------------
     1   8 O    2.000 --     2 C    1.701
     2   6 C    3.909 --     1 O    1.701     3 N    1.159    12 C    0.953
     3   7 N    3.319 --     4 C    1.638     2 C    1.159     5 C    0.142
     4   6 C    3.499 --     3 N    1.638     5 C    1.490    11 C    0.106
     5   6 C    3.375 --     4 C    1.490     6 N    1.208     8 C    0.190
                             3 N    0.142    11 C    0.109
     6   7 N    3.582 --     5 C    1.208     7 C    1.077    11 C    1.072
     7   6 C    3.013 --     8 C    1.509     6 N    1.077    11 C    0.159
     8   6 C    3.144 --     7 C    1.509     9 O    1.120     5 C    0.190
                            10 C    0.114
     9   8 O    2.489 --    10 C    1.171     8 C    1.120
    10   6 C    2.887 --    11 C    1.341     9 O    1.171     8 C    0.114
    11   6 C    2.990 --    10 C    1.341     6 N    1.072     7 C    0.159
                             5 C    0.109     4 C    0.106
    12   6 C    3.890 --    13 N    1.517    36 C    1.058     2 C    0.953
                            15 C    0.106    35 C    0.105
    13   7 N    2.995 --    12 C    1.517    14 C    1.120    35 C    0.111
    14   6 C    3.919 --    15 C    1.573    13 N    1.120    35 C    1.051
    15   6 C    3.594 --    14 C    1.573    16 C    1.385    36 C    0.126
                            12 C    0.106
    16   6 C    3.773 --    15 C    1.385    34 C    1.163    17 C    0.864
    17   6 C    3.919 --    18 O    1.751    19 N    1.188    16 C    0.864
    18   8 O    2.031 --    17 C    1.751
    19   7 N    2.923 --    20 C    1.308    17 C    1.188
    20   6 C    3.941 --    19 N    1.308    21 N    1.254    34 C    1.167
    21   7 N    3.197 --    22 C    1.554    20 C    1.254
    22   6 C    3.704 --    23 N    1.669    21 N    1.554    25 N    0.173
    23   7 N    3.201 --    22 C    1.669    24 C    1.171
    24   6 C    3.953 --    25 N    1.311    34 C    1.265    23 N    1.171
    25   7 N    3.207 --    24 C    1.311    26 C    1.233    22 C    0.173
    26   6 C    3.922 --    33 C    1.282    25 N    1.233    27 C    1.217
    27   6 C    3.604 --    28 C    1.694    26 C    1.217    33 C    0.371
    28   6 C    3.425 --    27 C    1.694    29 C    1.361    33 C    0.158
    29   6 C    3.799 --    28 C    1.361    31 C    1.248    30 F    1.009
    30   9 F    1.157 --    29 C    1.009
    31   6 C    3.898 --    33 C    1.463    29 C    1.248    32 Cl   1.009
    32  17 Cl   1.192 --    31 C    1.009
    33   6 C    3.483 --    31 C    1.463    26 C    1.282    27 C    0.371
                            28 C    0.158
    34   6 C    3.884 --    24 C    1.265    20 C    1.167    16 C    1.163
    35   6 C    3.566 --    36 C    2.167    14 C    1.051    13 N    0.111
Note: The following floating-point exceptions are signalling: IEEE_UNDERFLOW_FLAG IEEE_DENORMAL
normal termination of xtb
                            12 C    0.105
    36   6 C    3.581 --    35 C    2.167    12 C    1.058    15 C    0.126
 ---------------------------------------------------------------------------

Topologies differ in total number of bonds
Writing topology from bond orders to xtbtopo.mol

molecular dipole:
                 x           y           z       tot (Debye)
 q only:        0.255       0.092      -0.160
   full:        0.214      -0.575       0.236       1.671
molecular quadrupole (traceless):
                xx          xy          yy          xz          yz          zz
 q only:        8.993      -0.251     -23.651       6.392      -7.303      14.658
  q+dip:       13.021      -5.061     -34.838      -0.431     -12.273      21.817
   full:       15.371      -5.031     -37.596       2.175     -13.546      22.225


           -------------------------------------------------
          | TOTAL ENERGY              -91.842580747599 Eh   |
          | GRADIENT NORM               0.488560841938 Eh/α |
          | HOMO-LUMO GAP               0.036426536676 eV   |
           -------------------------------------------------

------------------------------------------------------------------------
 * finished run on 2026/07/23 at 16:37:57.819     
------------------------------------------------------------------------
 total:
 * wall-time:     0 d,  0 h,  0 min,  0.828 sec
 *  cpu-time:     0 d,  0 h,  0 min,  0.835 sec
 * ratio c/w:     1.009 speedup
 SCF:
 * wall-time:     0 d,  0 h,  0 min,  0.798 sec
 *  cpu-time:     0 d,  0 h,  0 min,  0.803 sec
 * ratio c/w:     1.007 speedup

