      -----------------------------------------------------------      
     |                   =====================                   |     
     |                           x T B                           |     
     |                   =====================                   |     
     |                         S. Grimme                         |     
     |          Mulliken Center for Theoretical Chemistry        |     
     |                    University of Bonn                     |     
      -----------------------------------------------------------      

   * xtb version 6.6.1 (unknown) compiled by 'builduser@buildhost' on 2023-08-07

   xtb is free software: you can redistribute it and/or modify it under
   the terms of the GNU Lesser General Public License as published by
   the Free Software Foundation, either version 3 of the License, or
   (at your option) any later version.
   
   xtb is distributed in the hope that it will be useful,
   but WITHOUT ANY WARRANTY; without even the implied warranty of
   MERCHANTABILITY or FITNESS FOR A PARTICULAR PURPOSE.  See the
   GNU Lesser General Public License for more details.
   
   Cite this work as:
   * C. Bannwarth, E. Caldeweyher, S. Ehlert, A. Hansen, P. Pracht,
     J. Seibert, S. Spicher, S. Grimme, WIREs Comput. Mol. Sci., 2020, 11,
     e01493. DOI: 10.1002/wcms.1493
   
   for GFN2-xTB:
   * C. Bannwarth, S. Ehlert and S. Grimme., J. Chem. Theory Comput., 2019,
     15, 1652-1671. DOI: 10.1021/acs.jctc.8b01176
   for GFN1-xTB:
   * S. Grimme, C. Bannwarth, P. Shushkov, J. Chem. Theory Comput., 2017,
     13, 1989-2009. DOI: 10.1021/acs.jctc.7b00118
   for GFN0-xTB:
   * P. Pracht, E. Caldeweyher, S. Ehlert, S. Grimme, ChemRxiv, 2019, preprint.
     DOI: 10.26434/chemrxiv.8326202.v1
   for GFN-FF:
   * S. Spicher and S. Grimme, Angew. Chem. Int. Ed., 2020, 59, 15665-15673.
     DOI: 10.1002/anie.202004239
   
   for ALPB and GBSA implicit solvation:
   * S. Ehlert, M. Stahn, S. Spicher, S. Grimme, J. Chem. Theory Comput.,
     2021, 17, 4250-4261. DOI: 10.1021/acs.jctc.1c00471
   
   for DFT-D4:
   * E. Caldeweyher, C. Bannwarth and S. Grimme, J. Chem. Phys., 2017,
     147, 034112. DOI: 10.1063/1.4993215
   * E. Caldeweyher, S. Ehlert, A. Hansen, H. Neugebauer, S. Spicher,
     C. Bannwarth and S. Grimme, J. Chem. Phys., 2019, 150, 154122.
     DOI: 10.1063/1.5090222
   * E. Caldeweyher, J.-M. Mewes, S. Ehlert and S. Grimme, Phys. Chem. Chem. Phys.
     2020, 22, 8499-8512. DOI: 10.1039/D0CP00502A
   
   for sTDA-xTB:
   * S. Grimme and C. Bannwarth, J. Chem. Phys., 2016, 145, 054103.
     DOI: 10.1063/1.4959605
   
   in the mass-spec context:
   * V. Asgeirsson, C. Bauer and S. Grimme, Chem. Sci., 2017, 8, 4879.
     DOI: 10.1039/c7sc00601b
   * J. Koopman and S. Grimme, ACS Omega 2019, 4, 12, 15120-15133.
     DOI: 10.1021/acsomega.9b02011
   
   for metadynamics refer to:
   * S. Grimme, J. Chem. Theory Comput., 2019, 155, 2847-2862
     DOI: 10.1021/acs.jctc.9b00143
   
   for SPH calculations refer to:
   * S. Spicher and S. Grimme, J. Chem. Theory Comput., 2021, 17, 1701-1714
     DOI: 10.1021/acs.jctc.0c01306
   
   with help from (in alphabetical order)
   P. Atkinson, C. Bannwarth, F. Bohle, G. Brandenburg, E. Caldeweyher
   M. Checinski, S. Dohm, S. Ehlert, S. Ehrlich, I. Gerasimov, C. Hölzer
   A. Katbashev, J. Koopman, C. Lavigne, S. Lehtola, F. März, M. Müller,
   F. Musil, H. Neugebauer, J. Pisarek, C. Plett, P. Pracht, F. Pultar,
   J. Seibert, P. Shushkov, S. Spicher, M. Stahn, M. Steiner, T. Strunk,
   J. Stückrath, T. Rose, and J. Unsleber
   
 * started run on 2026/07/23 at 16:37:17.874     

           -------------------------------------------------
          |                Calculation Setup                |
           -------------------------------------------------

          program call               : xtb /home/selva/covalent_quantum_benchmark/data/quantum/erbB_xyz/EGFR__CHEMBL136102__state00.xyz --gfn2 --chrg 0 --uhf 0 --iterations 300
          coordinate file            : /home/selva/covalent_quantum_benchmark/data/quantum/erbB_xyz/EGFR__CHEMBL136102__state00.xyz
          omp threads                :                    24

   ID    Z sym.   atoms
    1    6 C      1, 3-6, 8, 10-12, 15-19, 21-25, 27, 29, 31, 32
    2    7 N      2, 7, 14, 20, 28, 30, 33
    3    8 O      9, 13
    4   35 Br     26

           -------------------------------------------------
          |                 G F N 2 - x T B                 |
           -------------------------------------------------

        Reference                      10.1021/acs.jctc.8b01176
      * Hamiltonian:
        H0-scaling (s, p, d)           1.850000    2.230000    2.230000
        zeta-weighting                 0.500000
      * Dispersion:
        s8                             2.700000
        a1                             0.520000
        a2                             5.000000
        s9                             5.000000
      * Repulsion:
        kExp                           1.500000    1.000000
        rExp                           1.000000
      * Coulomb:
        alpha                          2.000000
        third order                    shell-resolved
        anisotropic                    true
        a3                             3.000000
        a5                             4.000000
        cn-shift                       1.200000
        cn-exp                         4.000000
        max-rad                        5.000000


          ...................................................
          :                      SETUP                      :
          :.................................................:
          :  # basis functions                 138          :
          :  # atomic orbitals                 137          :
          :  # shells                           67          :
          :  # electrons                       146          :
          :  max. iterations                   300          :
          :  Hamiltonian                  GFN2-xTB          :
          :  restarted?                      false          :
          :  GBSA solvation                  false          :
          :  PC potential                    false          :
          :  electronic temp.          300.0000000     K    :
          :  accuracy                    1.0000000          :
          :  -> integral cutoff          0.2500000E+02      :
          :  -> integral neglect         0.1000000E-07      :
          :  -> SCF convergence          0.1000000E-05 Eh   :
          :  -> wf. convergence          0.1000000E-03 e    :
          :  Broyden damping             0.4000000          :
          ...................................................

 iter      E             dE          RMSdq      gap      omega  full diag
   1    -80.1680294 -0.801680E+02  0.858E+00    0.10       0.0  T
   2    -65.8944022  0.142736E+02  0.131E+01    0.12       1.0  T
   3    -69.5688296 -0.367443E+01  0.993E+00    0.12       1.0  T
   4    -57.2176522  0.123512E+02  0.122E+01    0.16       1.0  T
   5    -78.6673358 -0.214497E+02  0.683E+00    0.33       1.0  T
   6    -78.4482282  0.219108E+00  0.554E+00    0.20       1.0  T
   7    -80.0268247 -0.157860E+01  0.477E+00    0.17       1.0  T
   8    -79.2282946  0.798530E+00  0.526E+00    0.14       1.0  T
   9    -79.7027414 -0.474447E+00  0.424E+00    0.01       1.0  T
  10    -80.2751628 -0.572421E+00  0.423E+00    0.23       1.0  T
  11    -80.4187537 -0.143591E+00  0.356E+00    0.10       1.0  T
  12    -80.8822239 -0.463470E+00  0.254E+00    0.07       1.0  T
  13    -80.6086100  0.273614E+00  0.333E+00    0.14       1.0  T
  14    -80.6158172 -0.720718E-02  0.327E+00    0.15       1.0  T
  15    -80.6269760 -0.111588E-01  0.318E+00    0.15       1.0  T
  16    -80.7395517 -0.112576E+00  0.278E+00    0.13       1.0  T
  17    -80.7672725 -0.277208E-01  0.253E+00    0.17       1.0  T
  18    -80.9613645 -0.194092E+00  0.183E+00    0.10       1.0  T
  19    -80.9662123 -0.484782E-02  0.181E+00    0.11       1.0  T
  20    -81.0547924 -0.885801E-01  0.138E+00    0.08       1.0  T
  21    -80.9925122  0.622802E-01  0.155E+00    0.02       1.0  T
  22    -81.0042824 -0.117702E-01  0.152E+00    0.03       1.0  T
  23    -81.1011671 -0.968847E-01  0.936E-01    0.04       1.0  T
  24    -81.0077247  0.934424E-01  0.133E+00    0.02       1.0  T
  25    -81.1094109 -0.101686E+00  0.758E-01    0.06       1.0  T
  26    -81.1154716 -0.606065E-02  0.708E-01    0.06       1.0  T
  27    -81.1240926 -0.862105E-02  0.604E-01    0.06       1.0  T
  28    -81.1272021 -0.310948E-02  0.642E-01    0.04       1.0  T
  29    -81.1394977 -0.122956E-01  0.513E-01    0.04       1.0  T
  30    -81.1459218 -0.642417E-02  0.405E-01    0.04       1.0  T
  31    -81.1471242 -0.120233E-02  0.370E-01    0.04       1.0  T
  32    -81.1470931  0.310401E-04  0.369E-01    0.04       1.0  T
  33    -81.1493096 -0.221648E-02  0.311E-01    0.04       1.0  T
  34    -81.1487987  0.510850E-03  0.303E-01    0.04       1.0  T
  35    -81.1510955 -0.229671E-02  0.225E-01    0.04       1.0  T
  36    -81.1512889 -0.193414E-03  0.205E-01    0.04       1.0  T
  37    -81.1526207 -0.133187E-02  0.144E-01    0.04       1.0  T
  38    -81.1528875 -0.266784E-03  0.130E-01    0.04       1.0  T
  39    -81.1530431 -0.155590E-03  0.126E-01    0.04       1.0  T
  40    -81.1532303 -0.187159E-03  0.115E-01    0.04       1.0  T
  41    -81.1533350 -0.104694E-03  0.108E-01    0.04       1.0  T
  42    -81.1536693 -0.334320E-03  0.842E-02    0.04       1.0  T
  43    -81.1540404 -0.371080E-03  0.427E-02    0.04       1.0  T
  44    -81.1541310 -0.906319E-04  0.273E-02    0.04       1.0  T
  45    -81.1541754 -0.444195E-04  0.133E-02    0.04       1.3  T
  46    -81.1541880 -0.125280E-04  0.376E-03    0.04       4.6  T
  47    -81.1541884 -0.468249E-06  0.156E-03    0.04      11.2  T
  48    -81.1541879  0.538315E-06  0.321E-03    0.04       5.4  T
  49    -81.1541882 -0.301923E-06  0.206E-03    0.04       8.5  T
  50    -81.1541884 -0.240198E-06  0.141E-03    0.04      12.3  T
  51    -81.1541886 -0.139408E-06  0.553E-04    0.04      31.5  T
  52    -81.1541886 -0.156630E-07  0.399E-04    0.04      43.6  T

   *** convergence criteria satisfied after 52 iterations ***

         #    Occupation            Energy/Eh            Energy/eV
      -------------------------------------------------------------
         1        2.0000           -0.8643065             -23.5190
       ...           ...                  ...                  ...
        67        2.0000           -0.4413471             -12.0097
        68        2.0000           -0.4329467             -11.7811
        69        2.0000           -0.4321252             -11.7587
        70        2.0000           -0.4265995             -11.6084
        71        2.0000           -0.4231116             -11.5135
        72        1.9464           -0.4159150             -11.3176
        73        1.3997           -0.4133070             -11.2467 (HOMO)
        74        0.5919           -0.4116794             -11.2024 (LUMO)
        75        0.0620           -0.4092324             -11.1358
        76        0.0000           -0.4013311             -10.9208
        77                         -0.3963637             -10.7856
        78                         -0.3920651             -10.6686
       ...                                ...                  ...
       137                          0.5779866              15.7278
      -------------------------------------------------------------
                  HL-Gap            0.0016276 Eh            0.0443 eV
             Fermi-level           -0.4125027 Eh          -11.2248 eV

 SCC (total)                   0 d,  0 h,  0 min,  0.670 sec
 SCC setup                      ...        0 min,  0.000 sec (  0.037%)
 Dispersion                     ...        0 min,  0.001 sec (  0.177%)
 classical contributions        ...        0 min,  0.001 sec (  0.104%)
 integral evaluation            ...        0 min,  0.005 sec (  0.717%)
 iterations                     ...        0 min,  0.637 sec ( 95.062%)
 molecular gradient             ...        0 min,  0.024 sec (  3.560%)
 printout                       ...        0 min,  0.002 sec (  0.338%)

         :::::::::::::::::::::::::::::::::::::::::::::::::::::
         ::                     SUMMARY                     ::
         :::::::::::::::::::::::::::::::::::::::::::::::::::::
         :: total energy             -80.337279480554 Eh    ::
         :: gradient norm              0.562344618392 Eh/a0 ::
         :: HOMO-LUMO gap              0.044289391778 eV    ::
         ::.................................................::
         :: SCC energy               -81.154188579032 Eh    ::
         :: -> isotropic ES            0.022408801243 Eh    ::
         :: -> anisotropic ES          0.009844017394 Eh    ::
         :: -> anisotropic XC          0.042607484583 Eh    ::
         :: -> dispersion             -0.047170240998 Eh    ::
         :: repulsion energy           0.816375277618 Eh    ::
         :: add. restraining           0.000000000000 Eh    ::
         :: total charge               0.000000000001 e     ::
         :::::::::::::::::::::::::::::::::::::::::::::::::::::

           -------------------------------------------------
          |                Property Printout                |
           -------------------------------------------------

    * Orbital Energies and Occupations

         #    Occupation            Energy/Eh            Energy/eV
      -------------------------------------------------------------
         1        2.0000           -0.8643065             -23.5190
       ...           ...                  ...                  ...
        61        2.0000           -0.4677873             -12.7291
        62        2.0000           -0.4642399             -12.6326
        63        2.0000           -0.4608851             -12.5413
        64        2.0000           -0.4568375             -12.4312
        65        2.0000           -0.4491666             -12.2224
        66        2.0000           -0.4459024             -12.1336
        67        2.0000           -0.4413471             -12.0097
        68        2.0000           -0.4329467             -11.7811
        69        2.0000           -0.4321252             -11.7587
        70        2.0000           -0.4265995             -11.6084
        71        2.0000           -0.4231116             -11.5135
        72        1.9464           -0.4159150             -11.3176
        73        1.3997           -0.4133070             -11.2467 (HOMO)
        74        0.5919           -0.4116794             -11.2024 (LUMO)
        75        0.0620           -0.4092324             -11.1358
        76        0.0000           -0.4013311             -10.9208
        77                         -0.3963637             -10.7856
        78                         -0.3920651             -10.6686
        79                         -0.3909221             -10.6375
        80                         -0.3849127             -10.4740
        81                         -0.3817246             -10.3873
        82                         -0.3661926              -9.9646
        83                         -0.3627388              -9.8706
        84                         -0.3578753              -9.7383
       ...                                ...                  ...
       137                          0.5779866              15.7278
      -------------------------------------------------------------
                  HL-Gap            0.0016276 Eh            0.0443 eV
             Fermi-level           -0.4125027 Eh          -11.2248 eV

     #   Z          covCN         q      C6AA      α(0)
     1   6 C        0.931    -0.085    38.227    10.358
     2   7 N        2.720     0.189    18.113     6.321
     3   6 C        0.931    -0.089    38.380    10.379
     4   6 C        1.901    -0.012    31.435     9.055
     5   6 C        1.951    -0.025    31.742     9.098
     6   6 C        1.892     0.080    29.105     8.713
     7   7 N        1.829    -0.139    24.785     7.377
     8   6 C        2.767     0.326    21.454     7.586
     9   8 O        0.858    -0.327    20.274     6.037
    10   6 C        1.979    -0.029    31.836     9.112
    11   6 C        1.979    -0.011    31.361     9.044
    12   6 C        2.766     0.309    21.758     7.639
    13   8 O        0.859    -0.300    19.782     5.963
    14   7 N        2.733     0.066    20.095     6.658
    15   6 C        0.927    -0.067    37.625    10.274
    16   6 C        2.862     0.154    24.660     8.140
    17   6 C        1.988    -0.083    33.307     9.320
    18   6 C        2.997     0.030    27.320     8.574
    19   6 C        2.889     0.193    23.894     8.014
    20   7 N        1.829    -0.158    25.207     7.440
    21   6 C        2.891     0.134    25.076     8.210
    22   6 C        1.991     0.004    30.934     8.982
    23   6 C        1.986    -0.029    31.823     9.110
    24   6 C        2.062     0.012    30.649     8.943
    25   6 C        2.905     0.112    25.530     8.285
    26  35 Br       1.068    -0.064   186.766    22.035
    27   6 C        2.066    -0.059    32.536     9.214
    28   7 N        1.832    -0.173    25.558     7.491
    29   6 C        1.954     0.157    27.277     8.434
    30   7 N        1.838    -0.151    25.066     7.420
    31   6 C        2.982     0.132    25.106     8.219
    32   6 C        1.973     0.013    30.727     8.952
    33   7 N        1.836    -0.110    24.160     7.284

 Mol. C6AA /au·bohr⁶  :      32719.583663
 Mol. C8AA /au·bohr⁸  :     954926.154990
 Mol. α(0) /au        :        287.680754


Wiberg/Mayer (AO) data.
largest (>0.10) Wiberg bond orders for each atom

 ---------------------------------------------------------------------------
     #   Z sym  total        # sym  WBO       # sym  WBO       # sym  WBO
 ---------------------------------------------------------------------------
     1   6 C    2.574 --     2 N    1.336     3 C    0.519     4 C    0.393
                             5 C    0.174
     2   7 N    3.703 --     3 C    1.345     1 C    1.336     4 C    0.968
     3   6 C    2.361 --     2 N    1.345     1 C    0.519     4 C    0.267
                             5 C    0.124     6 C    0.107
     4   6 C    3.529 --     5 C    1.724     2 N    0.968     1 C    0.393
                             3 C    0.267
     5   6 C    3.570 --     4 C    1.724     6 C    1.399     1 C    0.174
                             3 C    0.124
     6   6 C    3.448 --     7 N    1.637     5 C    1.399     3 C    0.107
     7   7 N    3.154 --     6 C    1.637     8 C    1.165
     8   6 C    3.924 --     9 O    1.695     7 N    1.165    10 C    0.980
     9   8 O    2.097 --     8 C    1.695
    10   6 C    3.814 --    11 C    2.523     8 C    0.980
    11   6 C    3.830 --    10 C    2.523    12 C    1.020
    12   6 C    3.929 --    13 O    1.782    14 N    1.029    11 C    1.020
    13   8 O    2.122 --    12 C    1.782
    14   7 N    3.703 --    15 C    1.485    12 C    1.029    16 C    1.016
    15   6 C    1.763 --    14 N    1.485
    16   6 C    3.923 --    17 C    1.443    33 N    1.253    14 N    1.016
    17   6 C    3.754 --    16 C    1.443    18 C    1.409    32 C    0.471
                            33 N    0.115
    18   6 C    3.972 --    17 C    1.409    31 C    1.153    19 C    1.127
    19   6 C    3.946 --    20 N    1.395    28 N    1.206    18 C    1.127
    20   7 N    3.284 --    19 C    1.395    21 C    1.168    29 C    0.226
                            28 N    0.128
    21   6 C    3.953 --    27 C    1.321    22 C    1.286    20 N    1.168
    22   6 C    3.735 --    23 C    1.627    21 C    1.286    24 C    0.402
                            27 C    0.155
    23   6 C    3.750 --    22 C    1.627    24 C    1.606    27 C    0.398
    24   6 C    3.720 --    23 C    1.606    25 C    1.359    22 C    0.402
                            27 C    0.162
    25   6 C    3.931 --    27 C    1.431    24 C    1.359    26 Br   0.993
    26  35 Br   1.193 --    25 C    0.993
    27   6 C    3.587 --    25 C    1.431    21 C    1.321    23 C    0.398
                            24 C    0.162    22 C    0.155
    28   7 N    3.197 --    29 C    1.596    19 C    1.206    20 N    0.128
    29   6 C    3.672 --    28 N    1.596    30 N    1.586    20 N    0.226
    30   7 N    3.194 --    29 C    1.586    31 C    1.216
Note: The following floating-point exceptions are signalling: IEEE_UNDERFLOW_FLAG IEEE_DENORMAL
normal termination of xtb
    31   6 C    3.944 --    32 C    1.320    30 N    1.216    18 C    1.153
    32   6 C    3.774 --    33 N    1.703    31 C    1.320    17 C    0.471
    33   7 N    3.338 --    32 C    1.703    16 C    1.253    17 C    0.115
 ---------------------------------------------------------------------------

Topologies differ in total number of bonds
Writing topology from bond orders to xtbtopo.mol

molecular dipole:
                 x           y           z       tot (Debye)
 q only:        0.493      -0.995       0.849
   full:        0.554      -1.676       1.329       5.617
molecular quadrupole (traceless):
                xx          xy          yy          xz          yz          zz
 q only:        3.733       1.242       8.328       0.735      -1.806     -12.061
  q+dip:       -3.811       4.667      14.871       6.278      -8.318     -11.060
   full:       -6.134       5.188      18.477       9.897      -7.389     -12.343


           -------------------------------------------------
          | TOTAL ENERGY              -80.337279480554 Eh   |
          | GRADIENT NORM               0.562344618392 Eh/α |
          | HOMO-LUMO GAP               0.044289391778 eV   |
           -------------------------------------------------

------------------------------------------------------------------------
 * finished run on 2026/07/23 at 16:37:18.563     
------------------------------------------------------------------------
 total:
 * wall-time:     0 d,  0 h,  0 min,  0.688 sec
 *  cpu-time:     0 d,  0 h,  0 min,  0.733 sec
 * ratio c/w:     1.065 speedup
 SCF:
 * wall-time:     0 d,  0 h,  0 min,  0.671 sec
 *  cpu-time:     0 d,  0 h,  0 min,  0.709 sec
 * ratio c/w:     1.057 speedup

