      -----------------------------------------------------------      
     |                   =====================                   |     
     |                           x T B                           |     
     |                   =====================                   |     
     |                         S. Grimme                         |     
     |          Mulliken Center for Theoretical Chemistry        |     
     |                    University of Bonn                     |     
      -----------------------------------------------------------      

   * xtb version 6.6.1 (unknown) compiled by 'builduser@buildhost' on 2023-08-07

   xtb is free software: you can redistribute it and/or modify it under
   the terms of the GNU Lesser General Public License as published by
   the Free Software Foundation, either version 3 of the License, or
   (at your option) any later version.
   
   xtb is distributed in the hope that it will be useful,
   but WITHOUT ANY WARRANTY; without even the implied warranty of
   MERCHANTABILITY or FITNESS FOR A PARTICULAR PURPOSE.  See the
   GNU Lesser General Public License for more details.
   
   Cite this work as:
   * C. Bannwarth, E. Caldeweyher, S. Ehlert, A. Hansen, P. Pracht,
     J. Seibert, S. Spicher, S. Grimme, WIREs Comput. Mol. Sci., 2020, 11,
     e01493. DOI: 10.1002/wcms.1493
   
   for GFN2-xTB:
   * C. Bannwarth, S. Ehlert and S. Grimme., J. Chem. Theory Comput., 2019,
     15, 1652-1671. DOI: 10.1021/acs.jctc.8b01176
   for GFN1-xTB:
   * S. Grimme, C. Bannwarth, P. Shushkov, J. Chem. Theory Comput., 2017,
     13, 1989-2009. DOI: 10.1021/acs.jctc.7b00118
   for GFN0-xTB:
   * P. Pracht, E. Caldeweyher, S. Ehlert, S. Grimme, ChemRxiv, 2019, preprint.
     DOI: 10.26434/chemrxiv.8326202.v1
   for GFN-FF:
   * S. Spicher and S. Grimme, Angew. Chem. Int. Ed., 2020, 59, 15665-15673.
     DOI: 10.1002/anie.202004239
   
   for ALPB and GBSA implicit solvation:
   * S. Ehlert, M. Stahn, S. Spicher, S. Grimme, J. Chem. Theory Comput.,
     2021, 17, 4250-4261. DOI: 10.1021/acs.jctc.1c00471
   
   for DFT-D4:
   * E. Caldeweyher, C. Bannwarth and S. Grimme, J. Chem. Phys., 2017,
     147, 034112. DOI: 10.1063/1.4993215
   * E. Caldeweyher, S. Ehlert, A. Hansen, H. Neugebauer, S. Spicher,
     C. Bannwarth and S. Grimme, J. Chem. Phys., 2019, 150, 154122.
     DOI: 10.1063/1.5090222
   * E. Caldeweyher, J.-M. Mewes, S. Ehlert and S. Grimme, Phys. Chem. Chem. Phys.
     2020, 22, 8499-8512. DOI: 10.1039/D0CP00502A
   
   for sTDA-xTB:
   * S. Grimme and C. Bannwarth, J. Chem. Phys., 2016, 145, 054103.
     DOI: 10.1063/1.4959605
   
   in the mass-spec context:
   * V. Asgeirsson, C. Bauer and S. Grimme, Chem. Sci., 2017, 8, 4879.
     DOI: 10.1039/c7sc00601b
   * J. Koopman and S. Grimme, ACS Omega 2019, 4, 12, 15120-15133.
     DOI: 10.1021/acsomega.9b02011
   
   for metadynamics refer to:
   * S. Grimme, J. Chem. Theory Comput., 2019, 155, 2847-2862
     DOI: 10.1021/acs.jctc.9b00143
   
   for SPH calculations refer to:
   * S. Spicher and S. Grimme, J. Chem. Theory Comput., 2021, 17, 1701-1714
     DOI: 10.1021/acs.jctc.0c01306
   
   with help from (in alphabetical order)
   P. Atkinson, C. Bannwarth, F. Bohle, G. Brandenburg, E. Caldeweyher
   M. Checinski, S. Dohm, S. Ehlert, S. Ehrlich, I. Gerasimov, C. Hölzer
   A. Katbashev, J. Koopman, C. Lavigne, S. Lehtola, F. März, M. Müller,
   F. Musil, H. Neugebauer, J. Pisarek, C. Plett, P. Pracht, F. Pultar,
   J. Seibert, P. Shushkov, S. Spicher, M. Stahn, M. Steiner, T. Strunk,
   J. Stückrath, T. Rose, and J. Unsleber
   
 * started run on 2026/07/23 at 16:37:32.698     

           -------------------------------------------------
          |                Calculation Setup                |
           -------------------------------------------------

          program call               : xtb /home/selva/covalent_quantum_benchmark/data/quantum/erbB_xyz/EGFR__CHEMBL146694__state03.xyz --gfn2 --chrg 0 --uhf 0 --iterations 300
          coordinate file            : /home/selva/covalent_quantum_benchmark/data/quantum/erbB_xyz/EGFR__CHEMBL146694__state03.xyz
          omp threads                :                    24

   ID    Z sym.   atoms
    1    6 C      1-6, 9, 10, 12-15, 18-26, 28-31
    2    8 O      7, 8, 16, 27
    3    7 N      11, 17

           -------------------------------------------------
          |                 G F N 2 - x T B                 |
           -------------------------------------------------

        Reference                      10.1021/acs.jctc.8b01176
      * Hamiltonian:
        H0-scaling (s, p, d)           1.850000    2.230000    2.230000
        zeta-weighting                 0.500000
      * Dispersion:
        s8                             2.700000
        a1                             0.520000
        a2                             5.000000
        s9                             5.000000
      * Repulsion:
        kExp                           1.500000    1.000000
        rExp                           1.000000
      * Coulomb:
        alpha                          2.000000
        third order                    shell-resolved
        anisotropic                    true
        a3                             3.000000
        a5                             4.000000
        cn-shift                       1.200000
        cn-exp                         4.000000
        max-rad                        5.000000


          ...................................................
          :                      SETUP                      :
          :.................................................:
          :  # basis functions                 124          :
          :  # atomic orbitals                 124          :
          :  # shells                           62          :
          :  # electrons                       134          :
          :  max. iterations                   300          :
          :  Hamiltonian                  GFN2-xTB          :
          :  restarted?                      false          :
          :  GBSA solvation                  false          :
          :  PC potential                    false          :
          :  electronic temp.          300.0000000     K    :
          :  accuracy                    1.0000000          :
          :  -> integral cutoff          0.2500000E+02      :
          :  -> integral neglect         0.1000000E-07      :
          :  -> SCF convergence          0.1000000E-05 Eh   :
          :  -> wf. convergence          0.1000000E-03 e    :
          :  Broyden damping             0.4000000          :
          ...................................................

 iter      E             dE          RMSdq      gap      omega  full diag
   1    -74.1048033 -0.741048E+02  0.930E+00    0.51       0.0  T
   2    -61.1835867  0.129212E+02  0.128E+01    0.17       1.0  T
   3    -55.5223940  0.566119E+01  0.119E+01    0.03       1.0  T
   4    -47.7605804  0.776181E+01  0.126E+01    0.11       1.0  T
   5    -66.6987366 -0.189382E+02  0.945E+00    0.12       1.0  T
   6    -72.5731082 -0.587437E+01  0.664E+00    0.15       1.0  T
   7    -74.1208723 -0.154776E+01  0.485E+00    0.21       1.0  T
   8    -74.5880371 -0.467165E+00  0.352E+00    0.28       1.0  T
   9    -74.5219306  0.661065E-01  0.343E+00    0.42       1.0  T
  10    -74.6361929 -0.114262E+00  0.296E+00    0.36       1.0  T
  11    -74.7298146 -0.936217E-01  0.247E+00    0.14       1.0  T
  12    -74.3219621  0.407852E+00  0.336E+00    0.03       1.0  T
  13    -73.5131358  0.808826E+00  0.447E+00    0.11       1.0  T
  14    -73.3131358  0.200000E+00  0.467E+00    0.08       1.0  T
  15    -73.7117664 -0.398631E+00  0.424E+00    0.15       1.0  T
  16    -73.7638368 -0.520703E-01  0.421E+00    0.20       1.0  T
  17    -73.7693443 -0.550753E-02  0.420E+00    0.20       1.0  T
  18    -73.7201484  0.491959E-01  0.433E+00    0.19       1.0  T
  19    -72.1568411  0.156331E+01  0.646E+00    0.05       1.0  T
  20    -73.4750647 -0.131822E+01  0.459E+00    0.10       1.0  T
  21    -73.4615590  0.135057E-01  0.462E+00    0.09       1.0  T
  22    -72.2736306  0.118793E+01  0.624E+00    0.03       1.0  T
  23    -72.2898447 -0.162140E-01  0.622E+00    0.03       1.0  T
  24    -72.2724608  0.173838E-01  0.624E+00    0.03       1.0  T
  25    -74.0932267 -0.182077E+01  0.381E+00    0.03       1.0  T
  26    -74.2440988 -0.150872E+00  0.330E+00    0.01       1.0  T
  27    -74.2279261  0.161727E-01  0.395E+00    0.05       1.0  T
  28    -74.1943913  0.335348E-01  0.403E+00    0.06       1.0  T
  29    -74.0482750  0.146116E+00  0.446E+00    0.04       1.0  T
  30    -74.5402159 -0.491941E+00  0.320E+00    0.05       1.0  T
  31    -74.6972744 -0.157059E+00  0.230E+00    0.15       1.0  T
  32    -74.7534832 -0.562088E-01  0.180E+00    0.10       1.0  T
  33    -74.4981143  0.255369E+00  0.263E+00    0.08       1.0  T
  34    -74.8752493 -0.377135E+00  0.953E-01    0.07       1.0  T
  35    -74.8354598  0.397895E-01  0.123E+00    0.11       1.0  T
  36    -74.8417727 -0.631297E-02  0.118E+00    0.11       1.0  T
  37    -74.8940391 -0.522664E-01  0.651E-01    0.05       1.0  T
  38    -74.8880858  0.595334E-02  0.731E-01    0.07       1.0  T
  39    -74.8952856 -0.719982E-02  0.580E-01    0.05       1.0  T
  40    -74.8991471 -0.386152E-02  0.557E-01    0.05       1.0  T
  41    -74.9025378 -0.339072E-02  0.559E-01    0.05       1.0  T
  42    -74.8970052  0.553263E-02  0.548E-01    0.04       1.0  T
  43    -74.8998451 -0.283995E-02  0.726E-01    0.08       1.0  T
  44    -74.9022245 -0.237939E-02  0.682E-01    0.08       1.0  T
  45    -74.8971588  0.506568E-02  0.758E-01    0.09       1.0  T
  46    -74.9101600 -0.130012E-01  0.408E-01    0.05       1.0  T
  47    -74.9086418  0.151819E-02  0.406E-01    0.05       1.0  T
  48    -74.9123801 -0.373826E-02  0.314E-01    0.05       1.0  T
  49    -74.9044969  0.788318E-02  0.403E-01    0.05       1.0  T
  50    -74.9088942 -0.439733E-02  0.333E-01    0.05       1.0  T
  51    -74.9103061 -0.141183E-02  0.299E-01    0.05       1.0  T
  52    -74.9083789  0.192719E-02  0.327E-01    0.05       1.0  T
  53    -74.9069337  0.144514E-02  0.351E-01    0.05       1.0  T
  54    -74.9073915 -0.457739E-03  0.342E-01    0.05       1.0  T
  55    -74.9091555 -0.176399E-02  0.310E-01    0.05       1.0  T
  56    -74.9097903 -0.634830E-03  0.294E-01    0.05       1.0  T
  57    -74.9121014 -0.231107E-02  0.237E-01    0.05       1.0  T
  58    -74.9128148 -0.713387E-03  0.211E-01    0.06       1.0  T
  59    -74.9141653 -0.135055E-02  0.161E-01    0.06       1.0  T
  60    -74.9148002 -0.634938E-03  0.127E-01    0.06       1.0  T
  61    -74.9154892 -0.688974E-03  0.834E-02    0.06       1.0  T
  62    -74.9155569 -0.676943E-04  0.679E-02    0.06       1.0  T
  63    -74.9157260 -0.169113E-03  0.433E-02    0.06       1.0  T
  64    -74.9157117  0.143308E-04  0.282E-02    0.06       1.0  T
  65    -74.9157383 -0.266024E-04  0.170E-02    0.06       1.1  T
  66    -74.9157090  0.292915E-04  0.238E-02    0.06       1.0  T
  67    -74.9157412 -0.321746E-04  0.107E-02    0.06       1.7  T
  68    -74.9157456 -0.443918E-05  0.614E-03    0.06       2.9  T
  69    -74.9157452  0.360349E-06  0.461E-03    0.06       3.9  T
  70    -74.9157452  0.331673E-07  0.436E-03    0.06       4.1  T
  71    -74.9157465 -0.128137E-05  0.149E-03    0.06      12.1  T
  72    -74.9157465 -0.406836E-07  0.106E-03    0.06      17.0  T
  73    -74.9157466 -0.357208E-07  0.864E-04    0.06      20.8  T
  74    -74.9157466 -0.574020E-08  0.494E-04    0.06      36.4  T

   *** convergence criteria satisfied after 74 iterations ***

         #    Occupation            Energy/Eh            Energy/eV
      -------------------------------------------------------------
         1        2.0000           -0.8264392             -22.4886
       ...           ...                  ...                  ...
        61        2.0000           -0.4502486             -12.2519
        62        2.0000           -0.4486225             -12.2076
        63        2.0000           -0.4441627             -12.0863
        64        1.9999           -0.4392781             -11.9534
        65        1.8689           -0.4327440             -11.7756
        66        1.7781           -0.4321962             -11.7607
        67        1.6837           -0.4318077             -11.7501 (HOMO)
        68        0.6135           -0.4294447             -11.6858 (LUMO)
        69        0.0559           -0.4268478             -11.6151
        70        0.0000           -0.4169907             -11.3469
        71                         -0.4131622             -11.2427
        72                         -0.4121896             -11.2163
       ...                                ...                  ...
       124                          0.6213092              16.9067
      -------------------------------------------------------------
                  HL-Gap            0.0023631 Eh            0.0643 eV
             Fermi-level           -0.4302193 Eh          -11.7069 eV

 SCC (total)                   0 d,  0 h,  0 min,  0.749 sec
 SCC setup                      ...        0 min,  0.000 sec (  0.037%)
 Dispersion                     ...        0 min,  0.001 sec (  0.144%)
 classical contributions        ...        0 min,  0.001 sec (  0.070%)
 integral evaluation            ...        0 min,  0.004 sec (  0.499%)
 iterations                     ...        0 min,  0.721 sec ( 96.227%)
 molecular gradient             ...        0 min,  0.021 sec (  2.829%)
 printout                       ...        0 min,  0.001 sec (  0.188%)

         :::::::::::::::::::::::::::::::::::::::::::::::::::::
         ::                     SUMMARY                     ::
         :::::::::::::::::::::::::::::::::::::::::::::::::::::
         :: total energy             -74.065264469828 Eh    ::
         :: gradient norm              0.511171683685 Eh/a0 ::
         :: HOMO-LUMO gap              0.064302015192 eV    ::
         ::.................................................::
         :: SCC energy               -74.915746579228 Eh    ::
         :: -> isotropic ES            0.059855071299 Eh    ::
         :: -> anisotropic ES          0.007231587944 Eh    ::
         :: -> anisotropic XC          0.035754271190 Eh    ::
         :: -> dispersion             -0.044357217555 Eh    ::
         :: repulsion energy           0.850541146483 Eh    ::
         :: add. restraining           0.000000000000 Eh    ::
         :: total charge               0.000000000236 e     ::
         :::::::::::::::::::::::::::::::::::::::::::::::::::::

           -------------------------------------------------
          |                Property Printout                |
           -------------------------------------------------

    * Orbital Energies and Occupations

         #    Occupation            Energy/Eh            Energy/eV
      -------------------------------------------------------------
         1        2.0000           -0.8264392             -22.4886
       ...           ...                  ...                  ...
        55        2.0000           -0.4833924             -13.1538
        56        2.0000           -0.4789971             -13.0342
        57        2.0000           -0.4711795             -12.8214
        58        2.0000           -0.4651847             -12.6583
        59        2.0000           -0.4572086             -12.4413
        60        2.0000           -0.4523433             -12.3089
        61        2.0000           -0.4502486             -12.2519
        62        2.0000           -0.4486225             -12.2076
        63        2.0000           -0.4441627             -12.0863
        64        1.9999           -0.4392781             -11.9534
        65        1.8689           -0.4327440             -11.7756
        66        1.7781           -0.4321962             -11.7607
        67        1.6837           -0.4318077             -11.7501 (HOMO)
        68        0.6135           -0.4294447             -11.6858 (LUMO)
        69        0.0559           -0.4268478             -11.6151
        70        0.0000           -0.4169907             -11.3469
        71                         -0.4131622             -11.2427
        72                         -0.4121896             -11.2163
        73                         -0.4098214             -11.1518
        74                         -0.4037801             -10.9874
        75                         -0.3968818             -10.7997
        76                         -0.3863621             -10.5134
        77                         -0.3787422             -10.3061
        78                         -0.3656499              -9.9498
       ...                                ...                  ...
       124                          0.6213092              16.9067
      -------------------------------------------------------------
                  HL-Gap            0.0023631 Eh            0.0643 eV
             Fermi-level           -0.4302193 Eh          -11.7069 eV

     #   Z          covCN         q      C6AA      α(0)
     1   6 C        0.987    -0.077    38.364    10.407
     2   6 C        3.073     0.061    26.561     8.450
     3   6 C        3.009     0.097    25.824     8.336
     4   6 C        1.957    -0.003    31.161     9.015
     5   6 C        1.956    -0.015    31.486     9.062
     6   6 C        2.689     0.407    20.141     7.345
     7   8 O        0.856    -0.334    20.415     6.058
     8   8 O        0.855    -0.381    21.307     6.189
     9   6 C        3.011     0.149    24.745     8.160
    10   6 C        0.980    -0.058    37.698    10.312
    11   7 N        1.918    -0.164    25.345     7.464
    12   6 C        2.950     0.144    24.876     8.180
    13   6 C        1.966    -0.003    31.146     9.013
    14   6 C        2.954     0.017    27.633     8.622
    15   6 C        2.821     0.306    21.810     7.652
    16   8 O        0.856    -0.267    19.201     5.875
    17   7 N        1.862    -0.188    25.892     7.542
    18   6 C        2.986     0.113    25.498     8.283
    19   6 C        1.987    -0.067    32.865     9.258
    20   6 C        2.971     0.067    26.486     8.442
    21   6 C        2.966     0.049    26.888     8.505
    22   6 C        1.992    -0.025    31.704     9.093
    23   6 C        1.983     0.055    29.660     8.795
    24   6 C        1.986     0.045    29.901     8.831
    25   6 C        1.985    -0.051    32.419     9.195
    26   6 C        2.856     0.158    24.573     8.125
    27   8 O        1.703    -0.027    14.833     5.200
    28   6 C        0.867     0.001    35.098     9.892
    29   6 C        1.994    -0.024    31.674     9.089
    30   6 C        1.983    -0.027    31.764     9.102
    31   6 C        3.026     0.040    27.081     8.536

 Mol. C6AA /au·bohr⁶  :      26122.077205
 Mol. C8AA /au·bohr⁸  :     717623.282501
 Mol. α(0) /au        :        258.026362


Wiberg/Mayer (AO) data.
largest (>0.10) Wiberg bond orders for each atom

 ---------------------------------------------------------------------------
     #   Z sym  total        # sym  WBO       # sym  WBO       # sym  WBO
 ---------------------------------------------------------------------------
     1   6 C    2.516 --     2 C    1.839    11 N    0.208
     2   6 C    3.964 --     1 C    1.839     3 C    1.052    12 C    0.939
     3   6 C    3.956 --     4 C    1.266     9 C    1.202     2 C    1.052
                             5 C    0.161
     4   6 C    3.709 --     5 C    1.884     3 C    1.266     8 O    0.147
                             7 O    0.128    10 C    0.103
     5   6 C    3.379 --     4 C    1.884     6 C    0.856     8 O    0.184
                             3 C    0.161    10 C    0.104
     6   6 C    3.942 --     7 O    1.657     8 O    1.360     5 C    0.856
     7   8 O    2.101 --     6 C    1.657     8 O    0.223     4 C    0.128
     8   8 O    1.993 --     6 C    1.360     7 O    0.223     5 C    0.184
                             4 C    0.147
     9   6 C    3.968 --    10 C    1.485     3 C    1.202    11 N    1.175
    10   6 C    2.089 --     9 C    1.485     5 C    0.104     4 C    0.103
    11   7 N    3.097 --    12 C    1.364     9 C    1.175     1 C    0.208
                            14 C    0.121
    12   6 C    3.959 --    13 C    1.404    11 N    1.364     2 C    0.939
    13   6 C    3.827 --    14 C    1.593    12 C    1.404    17 N    0.168
Note: The following floating-point exceptions are signalling: IEEE_UNDERFLOW_FLAG IEEE_DENORMAL
normal termination of xtb
                            16 O    0.139    29 C    0.135
    14   6 C    3.770 --    13 C    1.593    31 C    1.029    15 C    0.779
                            11 N    0.121
    15   6 C    3.922 --    16 O    1.745    17 N    1.262    14 C    0.779
    16   8 O    2.170 --    15 C    1.745    17 N    0.157    13 C    0.139
    17   7 N    3.078 --    15 C    1.262    18 C    1.215    13 C    0.168
                            16 O    0.157
    18   6 C    3.899 --    19 C    1.378    17 N    1.215    31 C    1.117
    19   6 C    3.466 --    20 C    1.404    18 C    1.378    30 C    0.257
                            29 C    0.196
    20   6 C    3.927 --    19 C    1.404    29 C    1.305    21 C    1.000
    21   6 C    3.956 --    22 C    1.410    26 C    1.224    20 C    1.000
                            24 C    0.130
    22   6 C    3.760 --    23 C    1.651    21 C    1.410    25 C    0.368
                            24 C    0.151
    23   6 C    3.826 --    24 C    1.774    22 C    1.651    25 C    0.147
                            26 C    0.101
    24   6 C    3.832 --    23 C    1.774    25 C    1.650    22 C    0.151
                            21 C    0.130
    25   6 C    3.720 --    24 C    1.650    26 C    1.346    22 C    0.368
                            23 C    0.147    28 C    0.136
    26   6 C    3.865 --    25 C    1.346    21 C    1.224    27 O    1.023
                            23 C    0.101
    27   8 O    2.643 --    28 C    1.540    26 C    1.023
    28   6 C    1.989 --    27 O    1.540    25 C    0.136
    29   6 C    3.556 --    30 C    1.612    20 C    1.305    19 C    0.196
                            13 C    0.135
    30   6 C    3.585 --    29 C    1.612    31 C    1.456    19 C    0.257
    31   6 C    3.877 --    30 C    1.456    18 C    1.117    14 C    1.029
 ---------------------------------------------------------------------------

Topologies differ in total number of bonds
Writing topology from bond orders to xtbtopo.mol

molecular dipole:
                 x           y           z       tot (Debye)
 q only:        0.123       4.258       2.177
   full:        0.464       4.566       2.092      12.820
molecular quadrupole (traceless):
                xx          xy          yy          xz          yz          zz
 q only:        6.811     -29.918     -15.884     -31.080       3.034       9.073
  q+dip:       -0.994     -29.221     -10.698     -37.891      12.226      11.693
   full:       -1.679     -25.432      -9.938     -39.103      11.429      11.617


           -------------------------------------------------
          | TOTAL ENERGY              -74.065264469828 Eh   |
          | GRADIENT NORM               0.511171683685 Eh/α |
          | HOMO-LUMO GAP               0.064302015192 eV   |
           -------------------------------------------------

------------------------------------------------------------------------
 * finished run on 2026/07/23 at 16:37:33.463     
------------------------------------------------------------------------
 total:
 * wall-time:     0 d,  0 h,  0 min,  0.765 sec
 *  cpu-time:     0 d,  0 h,  0 min,  0.777 sec
 * ratio c/w:     1.015 speedup
 SCF:
 * wall-time:     0 d,  0 h,  0 min,  0.750 sec
 *  cpu-time:     0 d,  0 h,  0 min,  0.755 sec
 * ratio c/w:     1.007 speedup

