      -----------------------------------------------------------      
     |                   =====================                   |     
     |                           x T B                           |     
     |                   =====================                   |     
     |                         S. Grimme                         |     
     |          Mulliken Center for Theoretical Chemistry        |     
     |                    University of Bonn                     |     
      -----------------------------------------------------------      

   * xtb version 6.6.1 (unknown) compiled by 'builduser@buildhost' on 2023-08-07

   xtb is free software: you can redistribute it and/or modify it under
   the terms of the GNU Lesser General Public License as published by
   the Free Software Foundation, either version 3 of the License, or
   (at your option) any later version.
   
   xtb is distributed in the hope that it will be useful,
   but WITHOUT ANY WARRANTY; without even the implied warranty of
   MERCHANTABILITY or FITNESS FOR A PARTICULAR PURPOSE.  See the
   GNU Lesser General Public License for more details.
   
   Cite this work as:
   * C. Bannwarth, E. Caldeweyher, S. Ehlert, A. Hansen, P. Pracht,
     J. Seibert, S. Spicher, S. Grimme, WIREs Comput. Mol. Sci., 2020, 11,
     e01493. DOI: 10.1002/wcms.1493
   
   for GFN2-xTB:
   * C. Bannwarth, S. Ehlert and S. Grimme., J. Chem. Theory Comput., 2019,
     15, 1652-1671. DOI: 10.1021/acs.jctc.8b01176
   for GFN1-xTB:
   * S. Grimme, C. Bannwarth, P. Shushkov, J. Chem. Theory Comput., 2017,
     13, 1989-2009. DOI: 10.1021/acs.jctc.7b00118
   for GFN0-xTB:
   * P. Pracht, E. Caldeweyher, S. Ehlert, S. Grimme, ChemRxiv, 2019, preprint.
     DOI: 10.26434/chemrxiv.8326202.v1
   for GFN-FF:
   * S. Spicher and S. Grimme, Angew. Chem. Int. Ed., 2020, 59, 15665-15673.
     DOI: 10.1002/anie.202004239
   
   for ALPB and GBSA implicit solvation:
   * S. Ehlert, M. Stahn, S. Spicher, S. Grimme, J. Chem. Theory Comput.,
     2021, 17, 4250-4261. DOI: 10.1021/acs.jctc.1c00471
   
   for DFT-D4:
   * E. Caldeweyher, C. Bannwarth and S. Grimme, J. Chem. Phys., 2017,
     147, 034112. DOI: 10.1063/1.4993215
   * E. Caldeweyher, S. Ehlert, A. Hansen, H. Neugebauer, S. Spicher,
     C. Bannwarth and S. Grimme, J. Chem. Phys., 2019, 150, 154122.
     DOI: 10.1063/1.5090222
   * E. Caldeweyher, J.-M. Mewes, S. Ehlert and S. Grimme, Phys. Chem. Chem. Phys.
     2020, 22, 8499-8512. DOI: 10.1039/D0CP00502A
   
   for sTDA-xTB:
   * S. Grimme and C. Bannwarth, J. Chem. Phys., 2016, 145, 054103.
     DOI: 10.1063/1.4959605
   
   in the mass-spec context:
   * V. Asgeirsson, C. Bauer and S. Grimme, Chem. Sci., 2017, 8, 4879.
     DOI: 10.1039/c7sc00601b
   * J. Koopman and S. Grimme, ACS Omega 2019, 4, 12, 15120-15133.
     DOI: 10.1021/acsomega.9b02011
   
   for metadynamics refer to:
   * S. Grimme, J. Chem. Theory Comput., 2019, 155, 2847-2862
     DOI: 10.1021/acs.jctc.9b00143
   
   for SPH calculations refer to:
   * S. Spicher and S. Grimme, J. Chem. Theory Comput., 2021, 17, 1701-1714
     DOI: 10.1021/acs.jctc.0c01306
   
   with help from (in alphabetical order)
   P. Atkinson, C. Bannwarth, F. Bohle, G. Brandenburg, E. Caldeweyher
   M. Checinski, S. Dohm, S. Ehlert, S. Ehrlich, I. Gerasimov, C. Hölzer
   A. Katbashev, J. Koopman, C. Lavigne, S. Lehtola, F. März, M. Müller,
   F. Musil, H. Neugebauer, J. Pisarek, C. Plett, P. Pracht, F. Pultar,
   J. Seibert, P. Shushkov, S. Spicher, M. Stahn, M. Steiner, T. Strunk,
   J. Stückrath, T. Rose, and J. Unsleber
   
 * started run on 2026/07/23 at 16:42:16.599     

           -------------------------------------------------
          |                Calculation Setup                |
           -------------------------------------------------

          program call               : xtb /home/selva/covalent_quantum_benchmark/data/quantum/erbB_xyz/ERBB2__CHEMBL360933__state00.xyz --gfn2 --chrg 0 --uhf 0 --iterations 300
          coordinate file            : /home/selva/covalent_quantum_benchmark/data/quantum/erbB_xyz/ERBB2__CHEMBL360933__state00.xyz
          omp threads                :                    24

   ID    Z sym.   atoms
    1    6 C      1, 2, 4-6, 8-10, 12, 14-17, 19-26, 28-31, 33, 35-37, 39,
                  40, 42-44
    2    8 O      3, 18, 34
    3    7 N      7, 11, 13, 32, 38, 41
    4   17 Cl     27

           -------------------------------------------------
          |                 G F N 2 - x T B                 |
           -------------------------------------------------

        Reference                      10.1021/acs.jctc.8b01176
      * Hamiltonian:
        H0-scaling (s, p, d)           1.850000    2.230000    2.230000
        zeta-weighting                 0.500000
      * Dispersion:
        s8                             2.700000
        a1                             0.520000
        a2                             5.000000
        s9                             5.000000
      * Repulsion:
        kExp                           1.500000    1.000000
        rExp                           1.000000
      * Coulomb:
        alpha                          2.000000
        third order                    shell-resolved
        anisotropic                    true
        a3                             3.000000
        a5                             4.000000
        cn-shift                       1.200000
        cn-exp                         4.000000
        max-rad                        5.000000


          ...................................................
          :                      SETUP                      :
          :.................................................:
          :  # basis functions                 182          :
          :  # atomic orbitals                 181          :
          :  # shells                           89          :
          :  # electrons                       191          :
          :  max. iterations                   300          :
          :  Hamiltonian                  GFN2-xTB          :
          :  restarted?                      false          :
          :  GBSA solvation                  false          :
          :  PC potential                    false          :
          :  electronic temp.          300.0000000     K    :
          :  accuracy                    1.0000000          :
          :  -> integral cutoff          0.2500000E+02      :
          :  -> integral neglect         0.1000000E-07      :
          :  -> SCF convergence          0.1000000E-05 Eh   :
          :  -> wf. convergence          0.1000000E-03 e    :
          :  Broyden damping             0.4000000          :
          ...................................................

 iter      E             dE          RMSdq      gap      omega  full diag
   1   -105.0290753 -0.105029E+03  0.859E+00    0.12       0.0  T
   2    -87.8415894  0.171875E+02  0.121E+01    0.05       1.0  T
   3    -71.0579154  0.167837E+02  0.125E+01    0.07       1.0  T
   4    -74.6438532 -0.358594E+01  0.120E+01    0.20       1.0  T
   5    -89.1495165 -0.145057E+02  0.878E+00    0.18       1.0  T
   6    -84.7149242  0.443459E+01  0.965E+00    0.12       1.0  T
   7    -97.5568850 -0.128420E+02  0.679E+00    0.10       1.0  T
   8   -104.8885603 -0.733168E+01  0.423E+00    0.14       1.0  T
   9   -104.5584567  0.330104E+00  0.427E+00    0.10       1.0  T
  10   -105.3199088 -0.761452E+00  0.329E+00    0.08       1.0  T
  11   -104.4261087  0.893800E+00  0.354E+00    0.07       1.0  T
  12   -105.4648866 -0.103878E+01  0.260E+00    0.06       1.0  T
  13   -105.3698489  0.950376E-01  0.248E+00    0.01       1.0  T
  14   -105.4087326 -0.388837E-01  0.245E+00    0.04       1.0  T
  15   -105.5694852 -0.160753E+00  0.218E+00    0.06       1.0  T
  16   -105.5752859 -0.580075E-02  0.191E+00    0.04       1.0  T
  17   -105.5586606  0.166253E-01  0.197E+00    0.04       1.0  T
  18   -105.8441233 -0.285463E+00  0.129E+00    0.08       1.0  T
  19   -105.7995216  0.446017E-01  0.140E+00    0.05       1.0  T
  20   -105.5718128  0.227709E+00  0.198E+00    0.05       1.0  T
  21   -105.8169684 -0.245156E+00  0.130E+00    0.04       1.0  T
  22   -105.5456160  0.271352E+00  0.205E+00    0.05       1.0  T
  23   -105.6426237 -0.970077E-01  0.188E+00    0.05       1.0  T
  24   -105.8106050 -0.167981E+00  0.126E+00    0.01       1.0  T
  25   -105.7693154  0.412897E-01  0.136E+00    0.02       1.0  T
  26   -105.7770646 -0.774927E-02  0.133E+00    0.02       1.0  T
  27   -105.8601824 -0.831178E-01  0.104E+00    0.00       1.0  T
  28   -105.8839312 -0.237488E-01  0.835E-01    0.00       1.0  T
  29   -105.9134851 -0.295539E-01  0.710E-01    0.02       1.0  T
  30   -105.9110737  0.241147E-02  0.683E-01    0.02       1.0  T
  31   -105.9141460 -0.307231E-02  0.619E-01    0.04       1.0  T
  32   -105.9364544 -0.223084E-01  0.488E-01    0.04       1.0  T
  33   -105.9356422  0.812189E-03  0.477E-01    0.04       1.0  T
  34   -105.9563977 -0.207555E-01  0.275E-01    0.04       1.0  T
  35   -105.9603747 -0.397697E-02  0.185E-01    0.03       1.0  T
  36   -105.9606222 -0.247474E-03  0.182E-01    0.04       1.0  T
  37   -105.9607010 -0.788165E-04  0.160E-01    0.04       1.0  T
  38   -105.9628403 -0.213934E-02  0.957E-02    0.04       1.0  T
  39   -105.9635751 -0.734816E-03  0.605E-02    0.04       1.0  T
  40   -105.9631730  0.402180E-03  0.796E-02    0.03       1.0  T
  41   -105.9636655 -0.492549E-03  0.487E-02    0.04       1.0  T
  42   -105.9638909 -0.225430E-03  0.255E-02    0.04       1.0  T
  43   -105.9639081 -0.171621E-04  0.206E-02    0.04       1.0  T
  44   -105.9638779  0.301579E-04  0.215E-02    0.04       1.0  T
  45   -105.9639231 -0.452081E-04  0.116E-02    0.04       1.3  T
  46   -105.9639209  0.228771E-05  0.127E-02    0.04       1.2  T
  47   -105.9639264 -0.555146E-05  0.104E-02    0.04       1.4  T
  48   -105.9639352 -0.878135E-05  0.516E-03    0.04       2.9  T
  49   -105.9639333  0.186459E-05  0.581E-03    0.04       2.6  T
  50   -105.9639374 -0.403031E-05  0.241E-03    0.04       6.3  T
  51   -105.9639374 -0.846200E-07  0.216E-03    0.04       7.0  T
  52   -105.9639375 -0.973137E-07  0.164E-03    0.04       9.2  T
  53   -105.9639377 -0.154882E-06  0.128E-03    0.04      11.8  T
  54   -105.9639378 -0.129831E-06  0.853E-04    0.04      17.7  T
  55   -105.9639379 -0.300553E-07  0.734E-04    0.04      20.5  T

   *** convergence criteria satisfied after 55 iterations ***

         #    Occupation            Energy/Eh            Energy/eV
      -------------------------------------------------------------
         1        2.0000           -1.0902662             -29.6677
       ...           ...                  ...                  ...
        90        1.9956           -0.4228258             -11.5057
        91        1.9894           -0.4219972             -11.4831
        92        1.8266           -0.4192396             -11.4081
        93        1.7469           -0.4188292             -11.3969
        94        1.7083           -0.4186684             -11.3925
        95        1.6709           -0.4185288             -11.3887
        96        1.2076           -0.4173292             -11.3561 (HOMO)
        97        0.5772           -0.4159930             -11.3197 (LUMO)
        98        0.2790           -0.4150864             -11.2951
        99        0.0000           -0.4042993             -11.0015
       100        0.0000           -0.4030735             -10.9682
       101                         -0.3937592             -10.7147
       ...                                ...                  ...
       181                          1.0410811              28.3293
      -------------------------------------------------------------
                  HL-Gap            0.0013361 Eh            0.0364 eV
             Fermi-level           -0.4169029 Eh          -11.3445 eV

 SCC (total)                   0 d,  0 h,  0 min,  1.476 sec
 SCC setup                      ...        0 min,  0.000 sec (  0.024%)
 Dispersion                     ...        0 min,  0.002 sec (  0.129%)
 classical contributions        ...        0 min,  0.001 sec (  0.043%)
 integral evaluation            ...        0 min,  0.006 sec (  0.417%)
 iterations                     ...        0 min,  1.403 sec ( 95.076%)
 molecular gradient             ...        0 min,  0.046 sec (  3.133%)
 printout                       ...        0 min,  0.017 sec (  1.175%)

         :::::::::::::::::::::::::::::::::::::::::::::::::::::
         ::                     SUMMARY                     ::
         :::::::::::::::::::::::::::::::::::::::::::::::::::::
         :: total energy            -104.807868392536 Eh    ::
         :: gradient norm              0.581723663680 Eh/a0 ::
         :: HOMO-LUMO gap              0.036358396412 eV    ::
         ::.................................................::
         :: SCC energy              -105.963937855113 Eh    ::
         :: -> isotropic ES            0.016335191037 Eh    ::
         :: -> anisotropic ES          0.010199538601 Eh    ::
         :: -> anisotropic XC          0.068684265404 Eh    ::
         :: -> dispersion             -0.064958617338 Eh    ::
         :: repulsion energy           1.155549109631 Eh    ::
         :: add. restraining           0.000000000000 Eh    ::
         :: total charge               0.000000000451 e     ::
         :::::::::::::::::::::::::::::::::::::::::::::::::::::

           -------------------------------------------------
          |                Property Printout                |
           -------------------------------------------------

    * Orbital Energies and Occupations

         #    Occupation            Energy/Eh            Energy/eV
      -------------------------------------------------------------
         1        2.0000           -1.0902662             -29.6677
       ...           ...                  ...                  ...
        84        2.0000           -0.4415319             -12.0147
        85        2.0000           -0.4393206             -11.9545
        86        2.0000           -0.4373909             -11.9020
        87        2.0000           -0.4316871             -11.7468
        88        2.0000           -0.4282889             -11.6543
        89        1.9986           -0.4239025             -11.5350
        90        1.9956           -0.4228258             -11.5057
        91        1.9894           -0.4219972             -11.4831
        92        1.8266           -0.4192396             -11.4081
        93        1.7469           -0.4188292             -11.3969
        94        1.7083           -0.4186684             -11.3925
        95        1.6709           -0.4185288             -11.3887
        96        1.2076           -0.4173292             -11.3561 (HOMO)
        97        0.5772           -0.4159930             -11.3197 (LUMO)
        98        0.2790           -0.4150864             -11.2951
        99        0.0000           -0.4042993             -11.0015
       100        0.0000           -0.4030735             -10.9682
       101                         -0.3937592             -10.7147
       102                         -0.3932508             -10.7009
       103                         -0.3855818             -10.4922
       104                         -0.3800112             -10.3406
       105                         -0.3697030             -10.0601
       106                         -0.3657428              -9.9524
       107                         -0.3596658              -9.7870
       ...                                ...                  ...
       181                          1.0410811              28.3293
      -------------------------------------------------------------
                  HL-Gap            0.0013361 Eh            0.0364 eV
             Fermi-level           -0.4169029 Eh          -11.3445 eV

     #   Z          covCN         q      C6AA      α(0)
     1   6 C        0.976    -0.094    38.843    10.466
     2   6 C        1.842     0.092    28.865     8.679
     3   8 O        1.702    -0.108    15.957     5.393
     4   6 C        2.864     0.162    24.500     8.113
     5   6 C        2.002    -0.089    33.473     9.344
     6   6 C        2.952     0.120    25.359     8.259
     7   7 N        1.845    -0.108    24.129     7.280
     8   6 C        1.970     0.064    29.435     8.762
     9   6 C        2.958     0.034    27.234     8.560
    10   6 C        1.907     0.122    28.099     8.561
    11   7 N        0.911    -0.180    24.908     7.218
    12   6 C        2.910     0.131    25.133     8.220
    13   7 N        1.828    -0.137    24.754     7.372
    14   6 C        2.891     0.146    24.824     8.169
    15   6 C        1.990    -0.065    32.813     9.251
    16   6 C        1.986    -0.075    33.085     9.289
    17   6 C        2.873     0.179    24.161     8.058
    18   8 O        1.702    -0.117    16.074     5.413
    19   6 C        1.842     0.058    29.680     8.801
    20   6 C        2.958     0.074    26.339     8.418
    21   6 C        1.990    -0.023    31.666     9.088
    22   6 C        1.985    -0.008    31.262     9.029
    23   6 C        1.987     0.036    30.131     8.865
    24   6 C        1.985    -0.010    31.309     9.036
    25   6 C        1.989    -0.037    32.034     9.140
    26   6 C        2.879     0.091    25.974     8.355
    27  17 Cl       0.958    -0.057   100.944    15.371
    28   6 C        2.033    -0.063    32.705     9.236
    29   6 C        2.977     0.020    27.559     8.611
    30   6 C        1.990    -0.050    32.381     9.190
    31   6 C        2.896     0.119    25.387     8.261
    32   7 N        1.836    -0.237    27.038     7.706
    33   6 C        2.752     0.326    21.459     7.585
    34   8 O        0.858    -0.337    20.468     6.066
    35   6 C        1.971    -0.010    31.336     9.040
    36   6 C        1.964     0.015    30.693     8.947
    37   6 C        1.900     0.010    30.858     8.971
    38   7 N        2.722     0.076    19.928     6.630
    39   6 C        1.896    -0.036    32.065     9.145
    40   6 C        1.903    -0.041    32.221     9.167
    41   7 N        2.720     0.131    19.017     6.477
    42   6 C        0.931    -0.063    37.519    10.262
    43   6 C        1.898    -0.033    31.990     9.135
    44   6 C        1.893    -0.029    31.885     9.120

 Mol. C6AA /au·bohr⁶  :      55846.109047
 Mol. C8AA /au·bohr⁸  :    1565433.679481
 Mol. α(0) /au        :        376.059181


Wiberg/Mayer (AO) data.
largest (>0.10) Wiberg bond orders for each atom

 ---------------------------------------------------------------------------
     #   Z sym  total        # sym  WBO       # sym  WBO       # sym  WBO
 ---------------------------------------------------------------------------
     1   6 C    2.424 --     2 C    2.147     3 O    0.112
     2   6 C    3.452 --     1 C    2.147     3 O    1.119
     3   8 O    2.439 --     2 C    1.119     4 C    1.082     1 C    0.112
     4   6 C    3.896 --     5 C    1.491     3 O    1.082    31 C    1.064
     5   6 C    3.685 --     4 C    1.491     6 C    1.377    30 C    0.500
     6   6 C    3.911 --     5 C    1.377     7 N    1.247    29 C    1.066
     7   7 N    3.261 --     8 C    1.671     6 C    1.247
     8   6 C    3.522 --     7 N    1.671     9 C    1.377    13 N    0.167
     9   6 C    3.923 --     8 C    1.377    12 C    1.232    10 C    1.081
    10   6 C    3.944 --    11 N    2.815     9 C    1.081
    11   7 N    2.996 --    10 C    2.815
    12   6 C    3.940 --    13 N    1.239     9 C    1.232    29 C    1.192
    13   7 N    3.121 --    14 C    1.306    12 C    1.239     8 C    0.167
    14   6 C    3.901 --    13 N    1.306    28 C    1.250    15 C    1.177
    15   6 C    3.654 --    16 C    1.830    14 C    1.177    28 C    0.306
    16   6 C    3.498 --    15 C    1.830    17 C    1.286    28 C    0.169
    17   6 C    3.839 --    16 C    1.286    26 C    1.167    18 O    1.103
    18   8 O    2.440 --    19 C    1.129    17 C    1.103
    19   6 C    2.954 --    20 C    1.206    18 O    1.129
    20   6 C    3.897 --    21 C    1.252    25 C    1.250    19 C    1.206
    21   6 C    3.499 --    22 C    1.609    20 C    1.252    24 C    0.238
                            23 C    0.194
    22   6 C    3.623 --    21 C    1.609    23 C    1.604    25 C    0.263
    23   6 C    3.751 --    22 C    1.604    24 C    1.585    21 C    0.194
Note: The following floating-point exceptions are signalling: IEEE_UNDERFLOW_FLAG IEEE_DENORMAL
normal termination of xtb
                            25 C    0.189
    24   6 C    3.616 --    25 C    1.593    23 C    1.585    21 C    0.238
    25   6 C    3.492 --    24 C    1.593    20 C    1.250    22 C    0.263
                            23 C    0.189
    26   6 C    3.879 --    28 C    1.522    17 C    1.167    27 Cl   1.013
    27  17 Cl   1.199 --    26 C    1.013
    28   6 C    3.490 --    26 C    1.522    14 C    1.250    15 C    0.306
                            16 C    0.169
    29   6 C    3.944 --    30 C    1.435    12 C    1.192     6 C    1.066
    30   6 C    3.693 --    29 C    1.435    31 C    1.386     5 C    0.500
    31   6 C    3.931 --    30 C    1.386    32 N    1.278     4 C    1.064
    32   7 N    2.961 --    31 C    1.278    33 C    1.186    34 O    0.103
    33   6 C    3.927 --    34 O    1.670    32 N    1.186    35 C    0.974
    34   8 O    2.027 --    33 C    1.670    32 N    0.103
    35   6 C    3.645 --    36 C    2.231    33 C    0.974    37 C    0.165
    36   6 C    3.807 --    35 C    2.231    37 C    1.393
    37   6 C    3.104 --    36 C    1.393    38 N    1.099    35 C    0.165
                            40 C    0.124
    38   7 N    3.558 --    39 C    1.128    37 C    1.099    44 C    1.086
    39   6 C    3.319 --    40 C    1.499    38 N    1.128    42 C    0.375
    40   6 C    3.040 --    39 C    1.499    41 N    1.028    43 C    0.167
                            37 C    0.124
    41   7 N    3.667 --    42 C    1.492    43 C    1.034    40 C    1.028
    42   6 C    2.613 --    41 N    1.492    43 C    0.405    39 C    0.375
                            44 C    0.208
    43   6 C    3.271 --    44 C    1.397    41 N    1.034    42 C    0.405
                            40 C    0.167
    44   6 C    2.996 --    43 C    1.397    38 N    1.086    42 C    0.208
 ---------------------------------------------------------------------------

Topologies differ in total number of bonds
Writing topology from bond orders to xtbtopo.mol

molecular dipole:
                 x           y           z       tot (Debye)
 q only:        0.581      -0.574      -0.816
   full:        0.724      -1.091      -0.299       3.414
molecular quadrupole (traceless):
                xx          xy          yy          xz          yz          zz
 q only:       -0.603     -13.765      -4.185      -3.826       6.348       4.788
  q+dip:        7.305     -17.797      -4.846      -9.267      -1.899      -2.459
   full:       11.368     -21.740      -7.190     -10.807      -1.987      -4.178


           -------------------------------------------------
          | TOTAL ENERGY             -104.807868392536 Eh   |
          | GRADIENT NORM               0.581723663680 Eh/α |
          | HOMO-LUMO GAP               0.036358396412 eV   |
           -------------------------------------------------

------------------------------------------------------------------------
 * finished run on 2026/07/23 at 16:42:18.105     
------------------------------------------------------------------------
 total:
 * wall-time:     0 d,  0 h,  0 min,  1.505 sec
 *  cpu-time:     0 d,  0 h,  0 min,  1.527 sec
 * ratio c/w:     1.014 speedup
 SCF:
 * wall-time:     0 d,  0 h,  0 min,  1.477 sec
 *  cpu-time:     0 d,  0 h,  0 min,  1.493 sec
 * ratio c/w:     1.011 speedup

