      -----------------------------------------------------------      
     |                   =====================                   |     
     |                           x T B                           |     
     |                   =====================                   |     
     |                         S. Grimme                         |     
     |          Mulliken Center for Theoretical Chemistry        |     
     |                    University of Bonn                     |     
      -----------------------------------------------------------      

   * xtb version 6.6.1 (unknown) compiled by 'builduser@buildhost' on 2023-08-07

   xtb is free software: you can redistribute it and/or modify it under
   the terms of the GNU Lesser General Public License as published by
   the Free Software Foundation, either version 3 of the License, or
   (at your option) any later version.
   
   xtb is distributed in the hope that it will be useful,
   but WITHOUT ANY WARRANTY; without even the implied warranty of
   MERCHANTABILITY or FITNESS FOR A PARTICULAR PURPOSE.  See the
   GNU Lesser General Public License for more details.
   
   Cite this work as:
   * C. Bannwarth, E. Caldeweyher, S. Ehlert, A. Hansen, P. Pracht,
     J. Seibert, S. Spicher, S. Grimme, WIREs Comput. Mol. Sci., 2020, 11,
     e01493. DOI: 10.1002/wcms.1493
   
   for GFN2-xTB:
   * C. Bannwarth, S. Ehlert and S. Grimme., J. Chem. Theory Comput., 2019,
     15, 1652-1671. DOI: 10.1021/acs.jctc.8b01176
   for GFN1-xTB:
   * S. Grimme, C. Bannwarth, P. Shushkov, J. Chem. Theory Comput., 2017,
     13, 1989-2009. DOI: 10.1021/acs.jctc.7b00118
   for GFN0-xTB:
   * P. Pracht, E. Caldeweyher, S. Ehlert, S. Grimme, ChemRxiv, 2019, preprint.
     DOI: 10.26434/chemrxiv.8326202.v1
   for GFN-FF:
   * S. Spicher and S. Grimme, Angew. Chem. Int. Ed., 2020, 59, 15665-15673.
     DOI: 10.1002/anie.202004239
   
   for ALPB and GBSA implicit solvation:
   * S. Ehlert, M. Stahn, S. Spicher, S. Grimme, J. Chem. Theory Comput.,
     2021, 17, 4250-4261. DOI: 10.1021/acs.jctc.1c00471
   
   for DFT-D4:
   * E. Caldeweyher, C. Bannwarth and S. Grimme, J. Chem. Phys., 2017,
     147, 034112. DOI: 10.1063/1.4993215
   * E. Caldeweyher, S. Ehlert, A. Hansen, H. Neugebauer, S. Spicher,
     C. Bannwarth and S. Grimme, J. Chem. Phys., 2019, 150, 154122.
     DOI: 10.1063/1.5090222
   * E. Caldeweyher, J.-M. Mewes, S. Ehlert and S. Grimme, Phys. Chem. Chem. Phys.
     2020, 22, 8499-8512. DOI: 10.1039/D0CP00502A
   
   for sTDA-xTB:
   * S. Grimme and C. Bannwarth, J. Chem. Phys., 2016, 145, 054103.
     DOI: 10.1063/1.4959605
   
   in the mass-spec context:
   * V. Asgeirsson, C. Bauer and S. Grimme, Chem. Sci., 2017, 8, 4879.
     DOI: 10.1039/c7sc00601b
   * J. Koopman and S. Grimme, ACS Omega 2019, 4, 12, 15120-15133.
     DOI: 10.1021/acsomega.9b02011
   
   for metadynamics refer to:
   * S. Grimme, J. Chem. Theory Comput., 2019, 155, 2847-2862
     DOI: 10.1021/acs.jctc.9b00143
   
   for SPH calculations refer to:
   * S. Spicher and S. Grimme, J. Chem. Theory Comput., 2021, 17, 1701-1714
     DOI: 10.1021/acs.jctc.0c01306
   
   with help from (in alphabetical order)
   P. Atkinson, C. Bannwarth, F. Bohle, G. Brandenburg, E. Caldeweyher
   M. Checinski, S. Dohm, S. Ehlert, S. Ehrlich, I. Gerasimov, C. Hölzer
   A. Katbashev, J. Koopman, C. Lavigne, S. Lehtola, F. März, M. Müller,
   F. Musil, H. Neugebauer, J. Pisarek, C. Plett, P. Pracht, F. Pultar,
   J. Seibert, P. Shushkov, S. Spicher, M. Stahn, M. Steiner, T. Strunk,
   J. Stückrath, T. Rose, and J. Unsleber
   
 * started run on 2026/07/23 at 16:42:49.511     

           -------------------------------------------------
          |                Calculation Setup                |
           -------------------------------------------------

          program call               : xtb /home/selva/covalent_quantum_benchmark/data/quantum/erbB_xyz/ERBB2__CHEMBL426051__state02.xyz --gfn2 --chrg 0 --uhf 0 --iterations 300
          coordinate file            : /home/selva/covalent_quantum_benchmark/data/quantum/erbB_xyz/ERBB2__CHEMBL426051__state02.xyz
          omp threads                :                    24

   ID    Z sym.   atoms
    1    6 C      1, 2, 4-6, 8-10, 12, 14-17, 19-23, 25, 27-30, 32, 34-36,
                  38, 39
    2    8 O      3, 18, 33
    3    7 N      7, 11, 13, 31, 37
    4   16 S      24
    5   17 Cl     26

           -------------------------------------------------
          |                 G F N 2 - x T B                 |
           -------------------------------------------------

        Reference                      10.1021/acs.jctc.8b01176
      * Hamiltonian:
        H0-scaling (s, p, d)           1.850000    2.230000    2.230000
        zeta-weighting                 0.500000
      * Dispersion:
        s8                             2.700000
        a1                             0.520000
        a2                             5.000000
        s9                             5.000000
      * Repulsion:
        kExp                           1.500000    1.000000
        rExp                           1.000000
      * Coulomb:
        alpha                          2.000000
        third order                    shell-resolved
        anisotropic                    true
        a3                             3.000000
        a5                             4.000000
        cn-shift                       1.200000
        cn-exp                         4.000000
        max-rad                        5.000000


          ...................................................
          :                      SETUP                      :
          :.................................................:
          :  # basis functions                 168          :
          :  # atomic orbitals                 166          :
          :  # shells                           80          :
          :  # electrons                       172          :
          :  max. iterations                   300          :
          :  Hamiltonian                  GFN2-xTB          :
          :  restarted?                      false          :
          :  GBSA solvation                  false          :
          :  PC potential                    false          :
          :  electronic temp.          300.0000000     K    :
          :  accuracy                    1.0000000          :
          :  -> integral cutoff          0.2500000E+02      :
          :  -> integral neglect         0.1000000E-07      :
          :  -> SCF convergence          0.1000000E-05 Eh   :
          :  -> wf. convergence          0.1000000E-03 e    :
          :  Broyden damping             0.4000000          :
          ...................................................

 iter      E             dE          RMSdq      gap      omega  full diag
   1    -94.4683020 -0.944683E+02  0.874E+00    0.15       0.0  T
   2    -67.6520708  0.268162E+02  0.128E+01    0.12       1.0  T
   3    -37.5188435  0.301332E+02  0.147E+01    0.06       1.0  T
   4    -62.5717647 -0.250529E+02  0.120E+01    0.10       1.0  T
   5    -83.5519875 -0.209802E+02  0.953E+00    0.31       1.0  T
   6    -89.5778697 -0.602588E+01  0.713E+00    0.10       1.0  T
   7    -92.5390051 -0.296114E+01  0.618E+00    0.28       1.0  T
   8    -94.0085942 -0.146959E+01  0.497E+00    0.07       1.0  T
   9    -95.1280150 -0.111942E+01  0.389E+00    0.34       1.0  T
  10    -95.0170505  0.110965E+00  0.369E+00    0.03       1.0  T
  11    -94.8328670  0.184184E+00  0.366E+00    0.03       1.0  T
  12    -95.1861243 -0.353257E+00  0.284E+00    0.02       1.0  T
  13    -95.4680839 -0.281960E+00  0.274E+00    0.04       1.0  T
  14    -95.5025840 -0.345001E-01  0.252E+00    0.15       1.0  T
  15    -95.3765512  0.126033E+00  0.286E+00    0.01       1.0  T
  16    -95.3895339 -0.129827E-01  0.261E+00    0.02       1.0  T
  17    -95.4675370 -0.780031E-01  0.235E+00    0.12       1.0  T
  18    -95.4117884  0.557486E-01  0.259E+00    0.03       1.0  T
  19    -95.5712009 -0.159413E+00  0.211E+00    0.02       1.0  T
  20    -95.5068833  0.643176E-01  0.230E+00    0.01       1.0  T
  21    -95.4001810  0.106702E+00  0.249E+00    0.05       1.0  T
  22    -95.4711558 -0.709748E-01  0.220E+00    0.02       1.0  T
  23    -95.5474417 -0.762859E-01  0.173E+00    0.02       1.0  T
  24    -95.6029314 -0.554896E-01  0.157E+00    0.02       1.0  T
  25    -95.7407922 -0.137861E+00  0.108E+00    0.03       1.0  T
  26    -95.7716410 -0.308488E-01  0.873E-01    0.08       1.0  T
  27    -95.6829203  0.887208E-01  0.117E+00    0.03       1.0  T
  28    -95.7897867 -0.106866E+00  0.703E-01    0.07       1.0  T
  29    -95.7984485 -0.866182E-02  0.622E-01    0.05       1.0  T
  30    -95.8094805 -0.110319E-01  0.476E-01    0.06       1.0  T
  31    -95.8126380 -0.315755E-02  0.403E-01    0.05       1.0  T
  32    -95.8204428 -0.780481E-02  0.307E-01    0.05       1.0  T
  33    -95.8239823 -0.353944E-02  0.216E-01    0.06       1.0  T
  34    -95.8222631  0.171915E-02  0.262E-01    0.05       1.0  T
  35    -95.8239560 -0.169288E-02  0.209E-01    0.05       1.0  T
  36    -95.8248539 -0.897937E-03  0.169E-01    0.05       1.0  T
  37    -95.8268219 -0.196798E-02  0.750E-02    0.05       1.0  T
  38    -95.8269464 -0.124447E-03  0.676E-02    0.05       1.0  T
  39    -95.8270329 -0.865303E-04  0.601E-02    0.05       1.0  T
  40    -95.8272762 -0.243329E-03  0.333E-02    0.06       1.0  T
  41    -95.8272464  0.297852E-04  0.376E-02    0.06       1.0  T
  42    -95.8273056 -0.591210E-04  0.316E-02    0.06       1.0  T
  43    -95.8273355 -0.299106E-04  0.222E-02    0.05       1.0  T
  44    -95.8273630 -0.275342E-04  0.156E-02    0.05       1.0  T
  45    -95.8273545  0.845684E-05  0.163E-02    0.05       1.0  T
  46    -95.8273525  0.203837E-05  0.156E-02    0.05       1.0  T
  47    -95.8273407  0.118179E-04  0.184E-02    0.05       1.0  T
  48    -95.8273579 -0.171933E-04  0.121E-02    0.05       1.3  T
  49    -95.8273635 -0.562191E-05  0.840E-03    0.05       1.9  T
  50    -95.8273659 -0.238747E-05  0.584E-03    0.05       2.7  T
  51    -95.8273663 -0.449854E-06  0.524E-03    0.05       3.1  T
  52    -95.8273678 -0.143806E-05  0.321E-03    0.05       5.0  T
  53    -95.8273681 -0.365318E-06  0.237E-03    0.05       6.7  T
  54    -95.8273683 -0.126734E-06  0.193E-03    0.05       8.3  T
  55    -95.8273686 -0.285004E-06  0.660E-04    0.05      24.3  T
  56    -95.8273686 -0.273256E-07  0.359E-04    0.05      44.6  T

   *** convergence criteria satisfied after 56 iterations ***

         #    Occupation            Energy/Eh            Energy/eV
      -------------------------------------------------------------
         1        2.0000           -1.0819294             -29.4408
       ...           ...                  ...                  ...
        80        2.0000           -0.4240605             -11.5393
        81        2.0000           -0.4218245             -11.4784
        82        1.9995           -0.4174004             -11.3580
        83        1.9929           -0.4148735             -11.2893
        84        1.9643           -0.4133279             -11.2472
        85        1.8627           -0.4119973             -11.2110
        86        1.4676           -0.4104830             -11.1698 (HOMO)
        87        0.5071           -0.4084938             -11.1157 (LUMO)
        88        0.1706           -0.4072660             -11.0823
        89        0.0350           -0.4056927             -11.0395
        90        0.0002           -0.4007842             -10.9059
        91        0.0000           -0.3978263             -10.8254
       ...           ...                  ...                  ...
       166                          1.0514419              28.6112
      -------------------------------------------------------------
                  HL-Gap            0.0019893 Eh            0.0541 eV
             Fermi-level           -0.4095197 Eh          -11.1436 eV

 SCC (total)                   0 d,  0 h,  0 min,  1.196 sec
 SCC setup                      ...        0 min,  0.001 sec (  0.051%)
 Dispersion                     ...        0 min,  0.001 sec (  0.125%)
 classical contributions        ...        0 min,  0.007 sec (  0.565%)
 integral evaluation            ...        0 min,  0.022 sec (  1.820%)
 iterations                     ...        0 min,  1.130 sec ( 94.446%)
 molecular gradient             ...        0 min,  0.032 sec (  2.688%)
 printout                       ...        0 min,  0.004 sec (  0.302%)

         :::::::::::::::::::::::::::::::::::::::::::::::::::::
         ::                     SUMMARY                     ::
         :::::::::::::::::::::::::::::::::::::::::::::::::::::
         :: total energy             -94.793305080461 Eh    ::
         :: gradient norm              0.531133011833 Eh/a0 ::
         :: HOMO-LUMO gap              0.054130792968 eV    ::
         ::.................................................::
         :: SCC energy               -95.827368581542 Eh    ::
         :: -> isotropic ES            0.010928307766 Eh    ::
         :: -> anisotropic ES          0.008123888085 Eh    ::
         :: -> anisotropic XC          0.055001645897 Eh    ::
         :: -> dispersion             -0.058217655432 Eh    ::
         :: repulsion energy           1.034511071424 Eh    ::
         :: add. restraining           0.000000000000 Eh    ::
         :: total charge               0.000000000001 e     ::
         :::::::::::::::::::::::::::::::::::::::::::::::::::::

           -------------------------------------------------
          |                Property Printout                |
           -------------------------------------------------

    * Orbital Energies and Occupations

         #    Occupation            Energy/Eh            Energy/eV
      -------------------------------------------------------------
         1        2.0000           -1.0819294             -29.4408
       ...           ...                  ...                  ...
        74        2.0000           -0.4442860             -12.0896
        75        2.0000           -0.4431904             -12.0598
        76        2.0000           -0.4377971             -11.9131
        77        2.0000           -0.4358455             -11.8600
        78        2.0000           -0.4352352             -11.8434
        79        2.0000           -0.4295081             -11.6875
        80        2.0000           -0.4240605             -11.5393
        81        2.0000           -0.4218245             -11.4784
        82        1.9995           -0.4174004             -11.3580
        83        1.9929           -0.4148735             -11.2893
        84        1.9643           -0.4133279             -11.2472
        85        1.8627           -0.4119973             -11.2110
        86        1.4676           -0.4104830             -11.1698 (HOMO)
        87        0.5071           -0.4084938             -11.1157 (LUMO)
        88        0.1706           -0.4072660             -11.0823
        89        0.0350           -0.4056927             -11.0395
        90        0.0002           -0.4007842             -10.9059
        91        0.0000           -0.3978263             -10.8254
        92                         -0.3906875             -10.6311
        93                         -0.3811534             -10.3717
        94                         -0.3751854             -10.2093
        95                         -0.3669016              -9.9839
        96                         -0.3601377              -9.7998
        97                         -0.3559377              -9.6856
       ...                                ...                  ...
       166                          1.0514419              28.6112
      -------------------------------------------------------------
                  HL-Gap            0.0019893 Eh            0.0541 eV
             Fermi-level           -0.4095197 Eh          -11.1436 eV

     #   Z          covCN         q      C6AA      α(0)
     1   6 C        0.976    -0.103    39.163    10.508
     2   6 C        1.836     0.092    28.850     8.677
     3   8 O        1.702    -0.100    15.841     5.374
     4   6 C        2.853     0.162    24.503     8.113
     5   6 C        1.987    -0.085    33.387     9.331
     6   6 C        2.911     0.118    25.403     8.265
     7   7 N        1.831    -0.141    24.833     7.385
     8   6 C        1.938     0.087    28.910     8.683
     9   6 C        2.943     0.009    27.827     8.652
    10   6 C        1.914     0.118    28.199     8.576
    11   7 N        0.911    -0.205    25.465     7.299
    12   6 C        2.899     0.130    25.161     8.224
    13   7 N        1.837    -0.094    23.827     7.234
    14   6 C        2.918     0.120    25.373     8.260
    15   6 C        1.993    -0.049    32.366     9.188
    16   6 C        1.986    -0.044    32.230     9.168
    17   6 C        2.920     0.150    24.740     8.157
    18   8 O        1.703    -0.145    16.495     5.484
    19   6 C        1.903     0.012    30.801     8.963
    20   6 C        2.977     0.046    26.955     8.516
    21   6 C        2.173    -0.006    30.762     8.970
    22   6 C        2.165     0.007    30.468     8.925
    23   6 C        2.004    -0.033    31.927     9.125
    24  16 S        2.312     0.162   134.616    19.528
    25   6 C        2.876     0.090    25.986     8.357
    26  17 Cl       0.958    -0.093   102.043    15.454
    27   6 C        2.032    -0.087    33.390     9.333
    28   6 C        2.971     0.020    27.561     8.611
    29   6 C        1.986    -0.041    32.155     9.158
    30   6 C        2.896     0.126    25.246     8.238
    31   7 N        1.832    -0.222    26.696     7.657
    32   6 C        2.749     0.323    21.504     7.593
    33   8 O        0.858    -0.343    20.569     6.081
    34   6 C        1.969    -0.001    31.099     9.006
    35   6 C        1.961     0.022    30.503     8.919
    36   6 C        1.906    -0.005    31.243     9.027
    37   7 N        2.721     0.190    18.087     6.316
    38   6 C        0.931    -0.095    38.576    10.405
    39   6 C        0.929    -0.090    38.390    10.380

 Mol. C6AA /au·bohr⁶  :      46681.435915
 Mol. C8AA /au·bohr⁸  :    1355167.263244
 Mol. α(0) /au        :        345.138771


Wiberg/Mayer (AO) data.
largest (>0.10) Wiberg bond orders for each atom

 ---------------------------------------------------------------------------
     #   Z sym  total        # sym  WBO       # sym  WBO       # sym  WBO
 ---------------------------------------------------------------------------
     1   6 C    2.518 --     2 C    2.173     3 O    0.112
     2   6 C    3.524 --     1 C    2.173     3 O    1.119
     3   8 O    2.500 --     2 C    1.119     4 C    1.109     1 C    0.112
     4   6 C    3.908 --     5 C    1.477     3 O    1.109    30 C    1.047
     5   6 C    3.712 --     4 C    1.477     6 C    1.398    29 C    0.529
     6   6 C    3.922 --     5 C    1.398     7 N    1.186    28 C    1.102
     7   7 N    3.219 --     8 C    1.630     6 C    1.186
     8   6 C    3.792 --     7 N    1.630     9 C    1.575    13 N    0.204
     9   6 C    3.897 --     8 C    1.575    10 C    1.104    12 C    0.970
    10   6 C    3.944 --    11 N    2.776     9 C    1.104
    11   7 N    2.983 --    10 C    2.776
    12   6 C    3.946 --    13 N    1.674    28 C    1.045     9 C    0.970
    13   7 N    3.357 --    12 C    1.674    14 C    1.104     8 C    0.204
    14   6 C    3.933 --    27 C    1.339    15 C    1.288    13 N    1.104
    15   6 C    3.659 --    16 C    1.705    14 C    1.288    27 C    0.315
                            25 C    0.113
    16   6 C    3.428 --    15 C    1.705    17 C    1.370    27 C    0.165
    17   6 C    3.857 --    16 C    1.370    25 C    1.271    18 O    0.995
    18   8 O    2.459 --    19 C    1.277    17 C    0.995
    19   6 C    2.857 --    18 O    1.277    20 C    1.146    22 C    0.141
    20   6 C    3.886 --    21 C    1.425    19 C    1.146    24 S    1.136
    21   6 C    3.511 --    20 C    1.425    22 C    1.374    23 C    0.480
                            24 S    0.133
    22   6 C    3.395 --    23 C    1.698    21 C    1.374    19 C    0.141
                            24 S    0.106
    23   6 C    3.538 --    22 C    1.698    24 S    1.183    21 C    0.480
    24  16 S    2.666 --    23 C    1.183    20 C    1.136    21 C    0.133
                            22 C    0.106
Note: The following floating-point exceptions are signalling: IEEE_UNDERFLOW_FLAG IEEE_DENORMAL
normal termination of xtb
    25   6 C    3.887 --    27 C    1.435    17 C    1.271    26 Cl   0.997
                            15 C    0.113
    26  17 Cl   1.167 --    25 C    0.997
    27   6 C    3.441 --    25 C    1.435    14 C    1.339    15 C    0.315
                            16 C    0.165
    28   6 C    3.942 --    29 C    1.540     6 C    1.102    12 C    1.045
    29   6 C    3.760 --    28 C    1.540    30 C    1.339     5 C    0.529
    30   6 C    3.943 --    29 C    1.339    31 N    1.330     4 C    1.047
    31   7 N    3.027 --    30 C    1.330    32 C    1.165
    32   6 C    3.921 --    33 O    1.688    31 N    1.165    34 C    0.991
    33   8 O    2.000 --    32 C    1.688
    34   6 C    3.798 --    35 C    2.291    32 C    0.991    38 C    0.164
                            39 C    0.140
    35   6 C    3.836 --    34 C    2.291    36 C    1.345
    36   6 C    3.374 --    35 C    1.345    37 N    0.960    38 C    0.467
                            39 C    0.463
    37   7 N    3.702 --    39 C    1.358    38 C    1.354    36 C    0.960
    38   6 C    2.541 --    37 N    1.354    39 C    0.517    36 C    0.467
                            34 C    0.164
    39   6 C    2.514 --    37 N    1.358    38 C    0.517    36 C    0.463
                            34 C    0.140
 ---------------------------------------------------------------------------

Topologies differ in total number of bonds
Writing topology from bond orders to xtbtopo.mol

molecular dipole:
                 x           y           z       tot (Debye)
 q only:        1.245      -0.117      -1.640
   full:        1.986       0.265      -1.293       6.060
molecular quadrupole (traceless):
                xx          xy          yy          xz          yz          zz
 q only:        7.597      12.834      -8.036     -22.750     -10.518       0.439
  q+dip:        4.416      22.706       5.957     -16.273      -6.419     -10.372
   full:       -0.793      20.831       9.973     -13.541      -2.524      -9.180


           -------------------------------------------------
          | TOTAL ENERGY              -94.793305080461 Eh   |
          | GRADIENT NORM               0.531133011833 Eh/α |
          | HOMO-LUMO GAP               0.054130792968 eV   |
           -------------------------------------------------

------------------------------------------------------------------------
 * finished run on 2026/07/23 at 16:42:50.728     
------------------------------------------------------------------------
 total:
 * wall-time:     0 d,  0 h,  0 min,  1.217 sec
 *  cpu-time:     0 d,  0 h,  0 min,  1.187 sec
 * ratio c/w:     0.975 speedup
 SCF:
 * wall-time:     0 d,  0 h,  0 min,  1.197 sec
 *  cpu-time:     0 d,  0 h,  0 min,  1.161 sec
 * ratio c/w:     0.970 speedup

