      -----------------------------------------------------------      
     |                   =====================                   |     
     |                           x T B                           |     
     |                   =====================                   |     
     |                         S. Grimme                         |     
     |          Mulliken Center for Theoretical Chemistry        |     
     |                    University of Bonn                     |     
      -----------------------------------------------------------      

   * xtb version 6.6.1 (unknown) compiled by 'builduser@buildhost' on 2023-08-07

   xtb is free software: you can redistribute it and/or modify it under
   the terms of the GNU Lesser General Public License as published by
   the Free Software Foundation, either version 3 of the License, or
   (at your option) any later version.
   
   xtb is distributed in the hope that it will be useful,
   but WITHOUT ANY WARRANTY; without even the implied warranty of
   MERCHANTABILITY or FITNESS FOR A PARTICULAR PURPOSE.  See the
   GNU Lesser General Public License for more details.
   
   Cite this work as:
   * C. Bannwarth, E. Caldeweyher, S. Ehlert, A. Hansen, P. Pracht,
     J. Seibert, S. Spicher, S. Grimme, WIREs Comput. Mol. Sci., 2020, 11,
     e01493. DOI: 10.1002/wcms.1493
   
   for GFN2-xTB:
   * C. Bannwarth, S. Ehlert and S. Grimme., J. Chem. Theory Comput., 2019,
     15, 1652-1671. DOI: 10.1021/acs.jctc.8b01176
   for GFN1-xTB:
   * S. Grimme, C. Bannwarth, P. Shushkov, J. Chem. Theory Comput., 2017,
     13, 1989-2009. DOI: 10.1021/acs.jctc.7b00118
   for GFN0-xTB:
   * P. Pracht, E. Caldeweyher, S. Ehlert, S. Grimme, ChemRxiv, 2019, preprint.
     DOI: 10.26434/chemrxiv.8326202.v1
   for GFN-FF:
   * S. Spicher and S. Grimme, Angew. Chem. Int. Ed., 2020, 59, 15665-15673.
     DOI: 10.1002/anie.202004239
   
   for ALPB and GBSA implicit solvation:
   * S. Ehlert, M. Stahn, S. Spicher, S. Grimme, J. Chem. Theory Comput.,
     2021, 17, 4250-4261. DOI: 10.1021/acs.jctc.1c00471
   
   for DFT-D4:
   * E. Caldeweyher, C. Bannwarth and S. Grimme, J. Chem. Phys., 2017,
     147, 034112. DOI: 10.1063/1.4993215
   * E. Caldeweyher, S. Ehlert, A. Hansen, H. Neugebauer, S. Spicher,
     C. Bannwarth and S. Grimme, J. Chem. Phys., 2019, 150, 154122.
     DOI: 10.1063/1.5090222
   * E. Caldeweyher, J.-M. Mewes, S. Ehlert and S. Grimme, Phys. Chem. Chem. Phys.
     2020, 22, 8499-8512. DOI: 10.1039/D0CP00502A
   
   for sTDA-xTB:
   * S. Grimme and C. Bannwarth, J. Chem. Phys., 2016, 145, 054103.
     DOI: 10.1063/1.4959605
   
   in the mass-spec context:
   * V. Asgeirsson, C. Bauer and S. Grimme, Chem. Sci., 2017, 8, 4879.
     DOI: 10.1039/c7sc00601b
   * J. Koopman and S. Grimme, ACS Omega 2019, 4, 12, 15120-15133.
     DOI: 10.1021/acsomega.9b02011
   
   for metadynamics refer to:
   * S. Grimme, J. Chem. Theory Comput., 2019, 155, 2847-2862
     DOI: 10.1021/acs.jctc.9b00143
   
   for SPH calculations refer to:
   * S. Spicher and S. Grimme, J. Chem. Theory Comput., 2021, 17, 1701-1714
     DOI: 10.1021/acs.jctc.0c01306
   
   with help from (in alphabetical order)
   P. Atkinson, C. Bannwarth, F. Bohle, G. Brandenburg, E. Caldeweyher
   M. Checinski, S. Dohm, S. Ehlert, S. Ehrlich, I. Gerasimov, C. Hölzer
   A. Katbashev, J. Koopman, C. Lavigne, S. Lehtola, F. März, M. Müller,
   F. Musil, H. Neugebauer, J. Pisarek, C. Plett, P. Pracht, F. Pultar,
   J. Seibert, P. Shushkov, S. Spicher, M. Stahn, M. Steiner, T. Strunk,
   J. Stückrath, T. Rose, and J. Unsleber
   
 * started run on 2026/07/23 at 16:39:29.504     

           -------------------------------------------------
          |                Calculation Setup                |
           -------------------------------------------------

          program call               : xtb /home/selva/covalent_quantum_benchmark/data/quantum/erbB_xyz/EGFR__CHEMBL93537__state01.xyz --gfn2 --chrg 0 --uhf 0 --iterations 300
          coordinate file            : /home/selva/covalent_quantum_benchmark/data/quantum/erbB_xyz/EGFR__CHEMBL93537__state01.xyz
          omp threads                :                    24

   ID    Z sym.   atoms
    1    8 O      1
    2    6 C      2-5, 7, 8, 10, 11, 13-16, 18, 20, 22-26, 28-30
    3    7 N      6, 12, 17, 19, 21
    4   16 S      9
    5   35 Br     27

           -------------------------------------------------
          |                 G F N 2 - x T B                 |
           -------------------------------------------------

        Reference                      10.1021/acs.jctc.8b01176
      * Hamiltonian:
        H0-scaling (s, p, d)           1.850000    2.230000    2.230000
        zeta-weighting                 0.500000
      * Dispersion:
        s8                             2.700000
        a1                             0.520000
        a2                             5.000000
        s9                             5.000000
      * Repulsion:
        kExp                           1.500000    1.000000
        rExp                           1.000000
      * Coulomb:
        alpha                          2.000000
        third order                    shell-resolved
        anisotropic                    true
        a3                             3.000000
        a5                             4.000000
        cn-shift                       1.200000
        cn-exp                         4.000000
        max-rad                        5.000000


          ...................................................
          :                      SETUP                      :
          :.................................................:
          :  # basis functions                 132          :
          :  # atomic orbitals                 130          :
          :  # shells                           62          :
          :  # electrons                       132          :
          :  max. iterations                   300          :
          :  Hamiltonian                  GFN2-xTB          :
          :  restarted?                      false          :
          :  GBSA solvation                  false          :
          :  PC potential                    false          :
          :  electronic temp.          300.0000000     K    :
          :  accuracy                    1.0000000          :
          :  -> integral cutoff          0.2500000E+02      :
          :  -> integral neglect         0.1000000E-07      :
          :  -> SCF convergence          0.1000000E-05 Eh   :
          :  -> wf. convergence          0.1000000E-03 e    :
          :  Broyden damping             0.4000000          :
          ...................................................

 iter      E             dE          RMSdq      gap      omega  full diag
   1    -72.0457055 -0.720457E+02  0.813E+00    0.27       0.0  T
   2    -66.1394974  0.590621E+01  0.905E+00    0.35       1.0  T
   3    -59.5935014  0.654600E+01  0.108E+01    0.36       1.0  T
   4    -50.4687407  0.912476E+01  0.120E+01    0.07       1.0  T
   5    -61.5505211 -0.110818E+02  0.869E+00    0.08       1.0  T
   6    -69.7485044 -0.819798E+01  0.657E+00    0.22       1.0  T
   7    -71.4392151 -0.169071E+01  0.430E+00    0.14       1.0  T
   8    -70.4318564  0.100736E+01  0.446E+00    0.09       1.0  T
   9    -71.8574315 -0.142558E+01  0.312E+00    0.05       1.0  T
  10    -72.2608586 -0.403427E+00  0.263E+00    0.07       1.0  T
  11    -71.9549450  0.305914E+00  0.301E+00    0.15       1.0  T
  12    -72.3390483 -0.384103E+00  0.210E+00    0.03       1.0  T
  13    -71.8829659  0.456082E+00  0.309E+00    0.20       1.0  T
  14    -71.8776316  0.533427E-02  0.299E+00    0.20       1.0  T
  15    -71.9937106 -0.116079E+00  0.256E+00    0.13       1.0  T
  16    -72.3897790 -0.396068E+00  0.124E+00    0.06       1.0  T
  17    -72.5005771 -0.110798E+00  0.815E-01    0.06       1.0  T
  18    -72.5061150 -0.553798E-02  0.765E-01    0.09       1.0  T
  19    -72.4970873  0.902776E-02  0.842E-01    0.05       1.0  T
  20    -72.4994070 -0.231976E-02  0.798E-01    0.05       1.0  T
  21    -72.4995176 -0.110522E-03  0.736E-01    0.07       1.0  T
  22    -72.5041436 -0.462607E-02  0.568E-01    0.07       1.0  T
  23    -72.5088997 -0.475607E-02  0.488E-01    0.08       1.0  T
  24    -72.5096892 -0.789457E-03  0.460E-01    0.08       1.0  T
  25    -72.5102908 -0.601615E-03  0.413E-01    0.08       1.0  T
  26    -72.5118662 -0.157545E-02  0.370E-01    0.08       1.0  T
  27    -72.5126635 -0.797218E-03  0.340E-01    0.08       1.0  T
  28    -72.5131561 -0.492685E-03  0.302E-01    0.08       1.0  T
  29    -72.5140149 -0.858785E-03  0.262E-01    0.08       1.0  T
  30    -72.5145818 -0.566907E-03  0.229E-01    0.08       1.0  T
  31    -72.5148748 -0.292954E-03  0.215E-01    0.08       1.0  T
  32    -72.5164936 -0.161877E-02  0.134E-01    0.08       1.0  T
  33    -72.5169874 -0.493818E-03  0.101E-01    0.08       1.0  T
  34    -72.5167869  0.200483E-03  0.113E-01    0.08       1.0  T
  35    -72.5170332 -0.246354E-03  0.936E-02    0.08       1.0  T
  36    -72.5163335  0.699764E-03  0.144E-01    0.08       1.0  T
  37    -72.5175755 -0.124206E-02  0.395E-02    0.08       1.0  T
  38    -72.5175884 -0.128201E-04  0.356E-02    0.08       1.0  T
  39    -72.5176371 -0.487743E-04  0.186E-02    0.08       1.0  T
  40    -72.5176480 -0.108208E-04  0.105E-02    0.08       1.7  T
  41    -72.5176320  0.159946E-04  0.162E-02    0.08       1.1  T
  42    -72.5176509 -0.189204E-04  0.337E-03    0.08       5.4  T
  43    -72.5176493  0.157878E-05  0.506E-03    0.08       3.6  T
  44    -72.5176483  0.101865E-05  0.661E-03    0.08       2.8  T
  45    -72.5176508 -0.247870E-05  0.222E-03    0.08       8.2  T
  46    -72.5176510 -0.256359E-06  0.125E-03    0.08      14.6  T
  47    -72.5176511 -0.532930E-07  0.811E-04    0.08      22.5  T
  48    -72.5176511 -0.360852E-07  0.180E-04    0.08     101.6  T

   *** convergence criteria satisfied after 48 iterations ***

         #    Occupation            Energy/Eh            Energy/eV
      -------------------------------------------------------------
         1        2.0000           -0.8639124             -23.5083
       ...           ...                  ...                  ...
        60        2.0000           -0.4297989             -11.6954
        61        2.0000           -0.4278000             -11.6410
        62        2.0000           -0.4254684             -11.5776
        63        1.9981           -0.4198380             -11.4244
        64        1.9975           -0.4195619             -11.4169
        65        1.9388           -0.4165063             -11.3337
        66        1.6483           -0.4146913             -11.2843 (HOMO)
        67        0.3954           -0.4118930             -11.2082 (LUMO)
        68        0.0219           -0.4089432             -11.1279
        69                         -0.3968632             -10.7992
        70                         -0.3884818             -10.5711
        71                         -0.3762421             -10.2381
       ...                                ...                  ...
       130                          0.6155794              16.7508
      -------------------------------------------------------------
                  HL-Gap            0.0027983 Eh            0.0761 eV
             Fermi-level           -0.4132236 Eh          -11.2444 eV

 SCC (total)                   0 d,  0 h,  0 min,  0.513 sec
 SCC setup                      ...        0 min,  0.000 sec (  0.054%)
 Dispersion                     ...        0 min,  0.001 sec (  0.211%)
 classical contributions        ...        0 min,  0.000 sec (  0.095%)
 integral evaluation            ...        0 min,  0.007 sec (  1.288%)
 iterations                     ...        0 min,  0.484 sec ( 94.283%)
 molecular gradient             ...        0 min,  0.019 sec (  3.788%)
 printout                       ...        0 min,  0.001 sec (  0.277%)

         :::::::::::::::::::::::::::::::::::::::::::::::::::::
         ::                     SUMMARY                     ::
         :::::::::::::::::::::::::::::::::::::::::::::::::::::
         :: total energy             -71.749631383683 Eh    ::
         :: gradient norm              0.455069116412 Eh/a0 ::
         :: HOMO-LUMO gap              0.076145861064 eV    ::
         ::.................................................::
         :: SCC energy               -72.517651106039 Eh    ::
         :: -> isotropic ES            0.034388182143 Eh    ::
         :: -> anisotropic ES          0.009818582077 Eh    ::
         :: -> anisotropic XC          0.045491737815 Eh    ::
         :: -> dispersion             -0.043396473366 Eh    ::
         :: repulsion energy           0.767758369885 Eh    ::
         :: add. restraining           0.000000000000 Eh    ::
         :: total charge               0.000000000431 e     ::
         :::::::::::::::::::::::::::::::::::::::::::::::::::::

           -------------------------------------------------
          |                Property Printout                |
           -------------------------------------------------

    * Orbital Energies and Occupations

         #    Occupation            Energy/Eh            Energy/eV
      -------------------------------------------------------------
         1        2.0000           -0.8639124             -23.5083
       ...           ...                  ...                  ...
        54        2.0000           -0.4494043             -12.2289
        55        2.0000           -0.4443075             -12.0902
        56        2.0000           -0.4409700             -11.9994
        57        2.0000           -0.4372058             -11.8970
        58        2.0000           -0.4328162             -11.7775
        59        2.0000           -0.4317203             -11.7477
        60        2.0000           -0.4297989             -11.6954
        61        2.0000           -0.4278000             -11.6410
        62        2.0000           -0.4254684             -11.5776
        63        1.9981           -0.4198380             -11.4244
        64        1.9975           -0.4195619             -11.4169
        65        1.9388           -0.4165063             -11.3337
        66        1.6483           -0.4146913             -11.2843 (HOMO)
        67        0.3954           -0.4118930             -11.2082 (LUMO)
        68        0.0219           -0.4089432             -11.1279
        69                         -0.3968632             -10.7992
        70                         -0.3884818             -10.5711
        71                         -0.3762421             -10.2381
        72                         -0.3582677              -9.7490
        73                         -0.3541767              -9.6376
        74                         -0.3490020              -9.4968
        75                         -0.3462981              -9.4233
        76                         -0.3200231              -8.7083
        77                         -0.3182498              -8.6600
       ...                                ...                  ...
       130                          0.6155794              16.7508
      -------------------------------------------------------------
                  HL-Gap            0.0027983 Eh            0.0761 eV
             Fermi-level           -0.4132236 Eh          -11.2444 eV

     #   Z          covCN         q      C6AA      α(0)
     1   8 O        0.858    -0.355    20.793     6.114
     2   6 C        2.750     0.322    21.536     7.599
     3   6 C        1.969    -0.011    31.366     9.044
     4   6 C        1.962     0.021    30.542     8.925
     5   6 C        1.905    -0.017    31.555     9.072
     6   7 N        2.721     0.074    19.961     6.636
     7   6 C        1.922     0.004    30.994     8.991
     8   6 C        1.943    -0.065    32.849     9.256
     9  16 S        1.989     0.181   133.879    19.474
    10   6 C        1.943    -0.077    33.186     9.303
    11   6 C        1.923    -0.035    32.022     9.139
    12   7 N        1.833    -0.199    26.154     7.578
    13   6 C        2.895     0.155    24.637     8.138
    14   6 C        1.989    -0.010    31.318     9.038
    15   6 C        1.988    -0.027    31.765     9.102
    16   6 C        2.929     0.134    25.070     8.211
    17   7 N        1.830    -0.165    25.360     7.462
    18   6 C        1.917     0.166    27.098     8.407
    19   7 N        1.852    -0.145    24.921     7.399
    20   6 C        2.893     0.197    23.807     8.000
    21   7 N        1.856    -0.150    25.031     7.415
    22   6 C        2.915     0.125    25.263     8.242
    23   6 C        1.992    -0.006    31.199     9.020
    24   6 C        1.986    -0.023    31.663     9.087
    25   6 C        2.062     0.009    30.734     8.955
    26   6 C        2.906     0.113    25.506     8.281
    27  35 Br       1.069    -0.066   186.826    22.039
    28   6 C        2.067    -0.078    33.063     9.288
    29   6 C        2.967    -0.005    28.145     8.702
    30   6 C        1.995    -0.068    32.899     9.263

 Mol. C6AA /au·bohr⁶  :      30008.518993
 Mol. C8AA /au·bohr⁸  :     930854.199096
 Mol. α(0) /au        :        277.180026


Wiberg/Mayer (AO) data.
largest (>0.10) Wiberg bond orders for each atom

 ---------------------------------------------------------------------------
     #   Z sym  total        # sym  WBO       # sym  WBO       # sym  WBO
 ---------------------------------------------------------------------------
     1   8 O    2.013 --     2 C    1.685
     2   6 C    3.936 --     1 O    1.685    12 N    1.163     3 C    1.001
     3   6 C    3.711 --     4 C    2.308     2 C    1.001     5 C    0.155
     4   6 C    3.814 --     3 C    2.308     5 C    1.333
     5   6 C    3.168 --     4 C    1.333     6 N    1.229     3 C    0.155
                            10 C    0.112    11 C    0.102
     6   7 N    3.605 --     5 C    1.229    11 C    1.135     7 C    1.035
     7   6 C    3.288 --     8 C    1.883     6 N    1.035     9 S    0.189
     8   6 C    3.246 --     7 C    1.883     9 S    1.178
     9  16 S    2.762 --     8 C    1.178    10 C    1.148     7 C    0.189
                            11 C    0.155
    10   6 C    3.095 --    11 C    1.690     9 S    1.148     5 C    0.112
    11   6 C    3.216 --    10 C    1.690     6 N    1.135     9 S    0.155
                             5 C    0.102
    12   7 N    2.864 --    13 C    1.307     2 C    1.163    15 C    0.114
    13   6 C    3.902 --    12 N    1.307    30 C    1.220    14 C    1.206
    14   6 C    3.705 --    15 C    1.766    13 C    1.206    30 C    0.162
                            18 C    0.139
    15   6 C    3.603 --    14 C    1.766    16 C    1.289    30 C    0.201
                            12 N    0.114
    16   6 C    3.874 --    15 C    1.289    17 N    1.178    29 C    1.149
    17   7 N    3.063 --    18 C    1.549    16 C    1.178
    18   6 C    3.820 --    19 N    1.775    17 N    1.549    14 C    0.139
    19   7 N    3.212 --    18 C    1.775    20 C    1.102
    20   6 C    3.951 --    21 N    1.627    19 N    1.102    29 C    1.015
    21   7 N    3.209 --    20 C    1.627    22 C    1.105
    22   6 C    3.952 --    28 C    1.352    23 C    1.310    21 N    1.105
    23   6 C    3.744 --    24 C    1.620    22 C    1.310    25 C    0.392
                            28 C    0.160
    24   6 C    3.757 --    25 C    1.632    23 C    1.620    28 C    0.392
    25   6 C    3.755 --    24 C    1.632    26 C    1.364    23 C    0.392
                            28 C    0.156
    26   6 C    3.928 --    28 C    1.420    25 C    1.364    27 Br   0.992
    27  35 Br   1.192 --    26 C    0.992
    28   6 C    3.624 --    26 C    1.420    22 C    1.352    24 C    0.392
                            23 C    0.160    25 C    0.156
    29   6 C    3.945 --    30 C    1.504    16 C    1.149    20 C    1.015
    30   6 C    3.423 --    29 C    1.504    13 C    1.220    15 C    0.201
                            14 C    0.162
 ---------------------------------------------------------------------------

Topologies differ in total number of bonds
Writing topology from bond orders to xtbtopo.mol

molecular dipole:
                 x           y           z       tot (Debye)
 q only:        1.213      -0.195      -0.659
   full:        0.500      -0.103       0.069       1.309
molecular quadrupole (traceless):
                xx          xy          yy          xz          yz          zz
Note: The following floating-point exceptions are signalling: IEEE_UNDERFLOW_FLAG IEEE_DENORMAL
normal termination of xtb
 q only:      -22.620      -6.980       8.341      -1.968      14.530      14.279
  q+dip:      -29.785      -8.878      11.519      -0.146      16.707      18.267
   full:      -31.012      -8.905      16.599       1.248      14.736      14.413


           -------------------------------------------------
          | TOTAL ENERGY              -71.749631383683 Eh   |
          | GRADIENT NORM               0.455069116412 Eh/α |
          | HOMO-LUMO GAP               0.076145861064 eV   |
           -------------------------------------------------

------------------------------------------------------------------------
 * finished run on 2026/07/23 at 16:39:30.036     
------------------------------------------------------------------------
 total:
 * wall-time:     0 d,  0 h,  0 min,  0.532 sec
 *  cpu-time:     0 d,  0 h,  0 min,  0.533 sec
 * ratio c/w:     1.002 speedup
 SCF:
 * wall-time:     0 d,  0 h,  0 min,  0.514 sec
 *  cpu-time:     0 d,  0 h,  0 min,  0.512 sec
 * ratio c/w:     0.998 speedup

