      -----------------------------------------------------------      
     |                   =====================                   |     
     |                           x T B                           |     
     |                   =====================                   |     
     |                         S. Grimme                         |     
     |          Mulliken Center for Theoretical Chemistry        |     
     |                    University of Bonn                     |     
      -----------------------------------------------------------      

   * xtb version 6.6.1 (unknown) compiled by 'builduser@buildhost' on 2023-08-07

   xtb is free software: you can redistribute it and/or modify it under
   the terms of the GNU Lesser General Public License as published by
   the Free Software Foundation, either version 3 of the License, or
   (at your option) any later version.
   
   xtb is distributed in the hope that it will be useful,
   but WITHOUT ANY WARRANTY; without even the implied warranty of
   MERCHANTABILITY or FITNESS FOR A PARTICULAR PURPOSE.  See the
   GNU Lesser General Public License for more details.
   
   Cite this work as:
   * C. Bannwarth, E. Caldeweyher, S. Ehlert, A. Hansen, P. Pracht,
     J. Seibert, S. Spicher, S. Grimme, WIREs Comput. Mol. Sci., 2020, 11,
     e01493. DOI: 10.1002/wcms.1493
   
   for GFN2-xTB:
   * C. Bannwarth, S. Ehlert and S. Grimme., J. Chem. Theory Comput., 2019,
     15, 1652-1671. DOI: 10.1021/acs.jctc.8b01176
   for GFN1-xTB:
   * S. Grimme, C. Bannwarth, P. Shushkov, J. Chem. Theory Comput., 2017,
     13, 1989-2009. DOI: 10.1021/acs.jctc.7b00118
   for GFN0-xTB:
   * P. Pracht, E. Caldeweyher, S. Ehlert, S. Grimme, ChemRxiv, 2019, preprint.
     DOI: 10.26434/chemrxiv.8326202.v1
   for GFN-FF:
   * S. Spicher and S. Grimme, Angew. Chem. Int. Ed., 2020, 59, 15665-15673.
     DOI: 10.1002/anie.202004239
   
   for ALPB and GBSA implicit solvation:
   * S. Ehlert, M. Stahn, S. Spicher, S. Grimme, J. Chem. Theory Comput.,
     2021, 17, 4250-4261. DOI: 10.1021/acs.jctc.1c00471
   
   for DFT-D4:
   * E. Caldeweyher, C. Bannwarth and S. Grimme, J. Chem. Phys., 2017,
     147, 034112. DOI: 10.1063/1.4993215
   * E. Caldeweyher, S. Ehlert, A. Hansen, H. Neugebauer, S. Spicher,
     C. Bannwarth and S. Grimme, J. Chem. Phys., 2019, 150, 154122.
     DOI: 10.1063/1.5090222
   * E. Caldeweyher, J.-M. Mewes, S. Ehlert and S. Grimme, Phys. Chem. Chem. Phys.
     2020, 22, 8499-8512. DOI: 10.1039/D0CP00502A
   
   for sTDA-xTB:
   * S. Grimme and C. Bannwarth, J. Chem. Phys., 2016, 145, 054103.
     DOI: 10.1063/1.4959605
   
   in the mass-spec context:
   * V. Asgeirsson, C. Bauer and S. Grimme, Chem. Sci., 2017, 8, 4879.
     DOI: 10.1039/c7sc00601b
   * J. Koopman and S. Grimme, ACS Omega 2019, 4, 12, 15120-15133.
     DOI: 10.1021/acsomega.9b02011
   
   for metadynamics refer to:
   * S. Grimme, J. Chem. Theory Comput., 2019, 155, 2847-2862
     DOI: 10.1021/acs.jctc.9b00143
   
   for SPH calculations refer to:
   * S. Spicher and S. Grimme, J. Chem. Theory Comput., 2021, 17, 1701-1714
     DOI: 10.1021/acs.jctc.0c01306
   
   with help from (in alphabetical order)
   P. Atkinson, C. Bannwarth, F. Bohle, G. Brandenburg, E. Caldeweyher
   M. Checinski, S. Dohm, S. Ehlert, S. Ehrlich, I. Gerasimov, C. Hölzer
   A. Katbashev, J. Koopman, C. Lavigne, S. Lehtola, F. März, M. Müller,
   F. Musil, H. Neugebauer, J. Pisarek, C. Plett, P. Pracht, F. Pultar,
   J. Seibert, P. Shushkov, S. Spicher, M. Stahn, M. Steiner, T. Strunk,
   J. Stückrath, T. Rose, and J. Unsleber
   
 * started run on 2026/07/23 at 16:38:54.415     

           -------------------------------------------------
          |                Calculation Setup                |
           -------------------------------------------------

          program call               : xtb /home/selva/covalent_quantum_benchmark/data/quantum/erbB_xyz/EGFR__CHEMBL450622__state00.xyz --gfn2 --chrg 0 --uhf 0 --iterations 300
          coordinate file            : /home/selva/covalent_quantum_benchmark/data/quantum/erbB_xyz/EGFR__CHEMBL450622__state00.xyz
          omp threads                :                    24

   ID    Z sym.   atoms
    1    6 C      1, 3-13, 15, 17-19, 21-27, 30
    2    8 O      2, 16, 28, 29
    3    7 N      14, 20

           -------------------------------------------------
          |                 G F N 2 - x T B                 |
           -------------------------------------------------

        Reference                      10.1021/acs.jctc.8b01176
      * Hamiltonian:
        H0-scaling (s, p, d)           1.850000    2.230000    2.230000
        zeta-weighting                 0.500000
      * Dispersion:
        s8                             2.700000
        a1                             0.520000
        a2                             5.000000
        s9                             5.000000
      * Repulsion:
        kExp                           1.500000    1.000000
        rExp                           1.000000
      * Coulomb:
        alpha                          2.000000
        third order                    shell-resolved
        anisotropic                    true
        a3                             3.000000
        a5                             4.000000
        cn-shift                       1.200000
        cn-exp                         4.000000
        max-rad                        5.000000


          ...................................................
          :                      SETUP                      :
          :.................................................:
          :  # basis functions                 120          :
          :  # atomic orbitals                 120          :
          :  # shells                           60          :
          :  # electrons                       130          :
          :  max. iterations                   300          :
          :  Hamiltonian                  GFN2-xTB          :
          :  restarted?                      false          :
          :  GBSA solvation                  false          :
          :  PC potential                    false          :
          :  electronic temp.          300.0000000     K    :
          :  accuracy                    1.0000000          :
          :  -> integral cutoff          0.2500000E+02      :
          :  -> integral neglect         0.1000000E-07      :
          :  -> SCF convergence          0.1000000E-05 Eh   :
          :  -> wf. convergence          0.1000000E-03 e    :
          :  Broyden damping             0.4000000          :
          ...................................................

 iter      E             dE          RMSdq      gap      omega  full diag
   1    -72.1928233 -0.721928E+02  0.893E+00    0.07       0.0  T
   2    -60.5108930  0.116819E+02  0.131E+01    0.12       1.0  T
   3    -65.1325200 -0.462163E+01  0.987E+00    0.10       1.0  T
   4    -66.5568133 -0.142429E+01  0.889E+00    0.18       1.0  T
   5    -68.5708331 -0.201402E+01  0.700E+00    0.07       1.0  T
   6    -61.0253142  0.754552E+01  0.827E+00    0.04       1.0  T
   7    -68.2009167 -0.717560E+01  0.708E+00    0.10       1.0  T
   8    -71.8479708 -0.364705E+01  0.513E+00    0.13       1.0  T
   9    -71.9766830 -0.128712E+00  0.456E+00    0.23       1.0  T
  10    -72.2573531 -0.280670E+00  0.387E+00    0.14       1.0  T
  11    -72.4106827 -0.153330E+00  0.349E+00    0.18       1.0  T
  12    -72.4176426 -0.695989E-02  0.344E+00    0.17       1.0  T
  13    -72.4306073 -0.129647E-01  0.339E+00    0.17       1.0  T
  14    -72.5332152 -0.102608E+00  0.288E+00    0.10       1.0  T
  15    -72.5467184 -0.135031E-01  0.279E+00    0.11       1.0  T
  16    -72.0338303  0.512888E+00  0.407E+00    0.12       1.0  T
  17    -72.0391892 -0.535884E-02  0.406E+00    0.11       1.0  T
  18    -71.9228590  0.116330E+00  0.407E+00    0.17       1.0  T
  19    -71.9522544 -0.293954E-01  0.402E+00    0.16       1.0  T
  20    -72.6465363 -0.694282E+00  0.218E+00    0.03       1.0  T
  21    -72.6832746 -0.367382E-01  0.188E+00    0.03       1.0  T
  22    -72.7249466 -0.416721E-01  0.163E+00    0.01       1.0  T
  23    -72.7167189  0.822769E-02  0.163E+00    0.02       1.0  T
  24    -72.7502837 -0.335648E-01  0.143E+00    0.01       1.0  T
  25    -72.7200747  0.302091E-01  0.150E+00    0.02       1.0  T
  26    -72.7355928 -0.155181E-01  0.139E+00    0.01       1.0  T
  27    -72.2727851  0.462808E+00  0.312E+00    0.13       1.0  T
  28    -72.0444189  0.228366E+00  0.373E+00    0.22       1.0  T
  29    -72.0781722 -0.337532E-01  0.364E+00    0.20       1.0  T
  30    -72.1200372 -0.418650E-01  0.351E+00    0.13       1.0  T
  31    -72.1133811  0.665613E-02  0.356E+00    0.10       1.0  T
  32    -72.1340935 -0.207124E-01  0.350E+00    0.09       1.0  T
  33    -72.1456986 -0.116051E-01  0.350E+00    0.14       1.0  T
  34    -72.2047334 -0.590348E-01  0.337E+00    0.08       1.0  T
  35    -72.1924577  0.122757E-01  0.340E+00    0.04       1.0  T
  36    -72.1986211 -0.616343E-02  0.336E+00    0.12       1.0  T
  37    -72.6439823 -0.445361E+00  0.196E+00    0.03       1.0  T
  38    -72.5248380  0.119144E+00  0.240E+00    0.05       1.0  T
  39    -72.6933326 -0.168495E+00  0.174E+00    0.03       1.0  T
  40    -72.7293221 -0.359896E-01  0.153E+00    0.03       1.0  T
  41    -72.7813845 -0.520624E-01  0.127E+00    0.03       1.0  T
  42    -72.8151173 -0.337328E-01  0.104E+00    0.03       1.0  T
  43    -72.8017648  0.133525E-01  0.112E+00    0.03       1.0  T
  44    -72.8312748 -0.295100E-01  0.868E-01    0.03       1.0  T
  45    -72.8272974  0.397744E-02  0.878E-01    0.03       1.0  T
  46    -72.8421425 -0.148451E-01  0.743E-01    0.03       1.0  T
  47    -72.8618084 -0.196659E-01  0.488E-01    0.03       1.0  T
  48    -72.8526186  0.918974E-02  0.615E-01    0.02       1.0  T
  49    -72.8693020 -0.166833E-01  0.287E-01    0.02       1.0  T
  50    -72.8728039 -0.350192E-02  0.226E-01    0.02       1.0  T
  51    -72.8732704 -0.466528E-03  0.191E-01    0.02       1.0  T
  52    -72.8748693 -0.159886E-02  0.111E-01    0.02       1.0  T
  53    -72.8734668  0.140252E-02  0.183E-01    0.02       1.0  T
  54    -72.8735904 -0.123606E-03  0.171E-01    0.02       1.0  T
  55    -72.8738147 -0.224388E-03  0.164E-01    0.02       1.0  T
  56    -72.8746922 -0.877451E-03  0.118E-01    0.02       1.0  T
  57    -72.8750463 -0.354113E-03  0.934E-02    0.02       1.0  T
  58    -72.8751299 -0.836220E-04  0.874E-02    0.02       1.0  T
  59    -72.8753324 -0.202462E-03  0.698E-02    0.02       1.0  T
  60    -72.8753152  0.172123E-04  0.725E-02    0.02       1.0  T
  61    -72.8754536 -0.138452E-03  0.555E-02    0.02       1.0  T
  62    -72.8756026 -0.148942E-03  0.287E-02    0.02       1.0  T
  63    -72.8756297 -0.271320E-04  0.199E-02    0.02       1.0  T
  64    -72.8756415 -0.117980E-04  0.146E-02    0.02       1.3  T
  65    -72.8756504 -0.887357E-05  0.940E-03    0.02       1.9  T
  66    -72.8756547 -0.428957E-05  0.465E-03    0.02       3.9  T
  67    -72.8756555 -0.851699E-06  0.307E-03    0.02       6.0  T
  68    -72.8756552  0.277717E-06  0.364E-03    0.02       5.0  T
  69    -72.8756557 -0.498254E-06  0.222E-03    0.02       8.2  T
  70    -72.8756559 -0.171200E-06  0.137E-03    0.02      13.4  T
  71    -72.8756560 -0.724636E-07  0.817E-04    0.02      22.3  T
  72    -72.8756560 -0.304204E-07  0.433E-04    0.02      42.1  T

   *** convergence criteria satisfied after 72 iterations ***

         #    Occupation            Energy/Eh            Energy/eV
      -------------------------------------------------------------
         1        2.0000           -0.8249095             -22.4469
       ...           ...                  ...                  ...
        59        2.0000           -0.4503445             -12.2545
        60        2.0000           -0.4445011             -12.0955
        61        1.9998           -0.4386113             -11.9352
        62        1.9738           -0.4338539             -11.8058
        63        1.8580           -0.4321896             -11.7605
        64        1.7362           -0.4315371             -11.7427
        65        1.1605           -0.4300544             -11.7024 (HOMO)
        66        0.7572           -0.4292759             -11.6812 (LUMO)
        67        0.5144           -0.4287393             -11.6666
        68        0.0000           -0.4176206             -11.3640
        69                         -0.4119671             -11.2102
        70                         -0.4079194             -11.1001
       ...                                ...                  ...
       120                          0.6640255              18.0691
      -------------------------------------------------------------
                  HL-Gap            0.0007785 Eh            0.0212 eV
             Fermi-level           -0.4297468 Eh          -11.6940 eV

 SCC (total)                   0 d,  0 h,  0 min,  0.789 sec
 SCC setup                      ...        0 min,  0.000 sec (  0.049%)
 Dispersion                     ...        0 min,  0.001 sec (  0.152%)
 classical contributions        ...        0 min,  0.001 sec (  0.081%)
 integral evaluation            ...        0 min,  0.008 sec (  1.040%)
 iterations                     ...        0 min,  0.757 sec ( 96.024%)
 molecular gradient             ...        0 min,  0.019 sec (  2.469%)
 printout                       ...        0 min,  0.001 sec (  0.179%)

         :::::::::::::::::::::::::::::::::::::::::::::::::::::
         ::                     SUMMARY                     ::
         :::::::::::::::::::::::::::::::::::::::::::::::::::::
         :: total energy             -72.033931691292 Eh    ::
         :: gradient norm              0.499268335172 Eh/a0 ::
         :: HOMO-LUMO gap              0.021184033688 eV    ::
         ::.................................................::
         :: SCC energy               -72.875656015254 Eh    ::
         :: -> isotropic ES            0.063095082522 Eh    ::
         :: -> anisotropic ES          0.006176039302 Eh    ::
         :: -> anisotropic XC          0.030103159420 Eh    ::
         :: -> dispersion             -0.041599371505 Eh    ::
         :: repulsion energy           0.842121823952 Eh    ::
         :: add. restraining           0.000000000000 Eh    ::
         :: total charge               0.000000000004 e     ::
         :::::::::::::::::::::::::::::::::::::::::::::::::::::

           -------------------------------------------------
          |                Property Printout                |
           -------------------------------------------------

    * Orbital Energies and Occupations

         #    Occupation            Energy/Eh            Energy/eV
      -------------------------------------------------------------
         1        2.0000           -0.8249095             -22.4469
       ...           ...                  ...                  ...
        53        2.0000           -0.4828043             -13.1378
        54        2.0000           -0.4763790             -12.9629
        55        2.0000           -0.4703234             -12.7982
        56        2.0000           -0.4621055             -12.5745
        57        2.0000           -0.4572058             -12.4412
        58        2.0000           -0.4509809             -12.2718
        59        2.0000           -0.4503445             -12.2545
        60        2.0000           -0.4445011             -12.0955
        61        1.9998           -0.4386113             -11.9352
        62        1.9738           -0.4338539             -11.8058
        63        1.8580           -0.4321896             -11.7605
        64        1.7362           -0.4315371             -11.7427
        65        1.1605           -0.4300544             -11.7024 (HOMO)
        66        0.7572           -0.4292759             -11.6812 (LUMO)
        67        0.5144           -0.4287393             -11.6666
        68        0.0000           -0.4176206             -11.3640
        69                         -0.4119671             -11.2102
        70                         -0.4079194             -11.1001
        71                         -0.4017684             -10.9327
        72                         -0.3973922             -10.8136
        73                         -0.3831091             -10.4249
        74                         -0.3770032             -10.2588
        75                         -0.3645716              -9.9205
        76                         -0.3550698              -9.6619
       ...                                ...                  ...
       120                          0.6640255              18.0691
      -------------------------------------------------------------
                  HL-Gap            0.0007785 Eh            0.0212 eV
             Fermi-level           -0.4297468 Eh          -11.6940 eV

     #   Z          covCN         q      C6AA      α(0)
     1   6 C        0.871    -0.001    35.190     9.906
     2   8 O        1.704    -0.022    14.771     5.189
     3   6 C        2.857     0.174    24.258     8.073
     4   6 C        1.991    -0.000    31.058     9.000
     5   6 C        1.983    -0.004    31.173     9.017
     6   6 C        1.992     0.030    30.266     8.885
     7   6 C        2.966     0.074    26.344     8.419
     8   6 C        2.971     0.072    26.386     8.426
     9   6 C        1.993    -0.026    31.744     9.099
    10   6 C        1.983    -0.025    31.718     9.095
    11   6 C        3.021     0.036    27.162     8.549
    12   6 C        3.016     0.117    25.404     8.268
    13   6 C        1.987    -0.064    32.772     9.245
    14   7 N        1.873    -0.197    26.093     7.572
    15   6 C        2.821     0.314    21.681     7.629
    16   8 O        0.856    -0.256    19.014     5.846
    17   6 C        3.014     0.029    27.328     8.575
    18   6 C        1.971     0.008    30.850     8.970
    19   6 C        3.028     0.112    25.510     8.285
    20   7 N        1.939    -0.126    24.489     7.338
    21   6 C        2.069     0.059    29.464     8.768
    22   6 C        3.059     0.087    26.005     8.363
    23   6 C        0.980    -0.054    37.590    10.297
    24   6 C        3.087     0.067    26.414     8.425
    25   6 C        1.957    -0.004    31.184     9.018
    26   6 C        1.956    -0.026    31.774     9.103
    27   6 C        2.690     0.406    20.145     7.345
    28   8 O        0.856    -0.333    20.391     6.054
    29   8 O        0.855    -0.372    21.127     6.163
    30   6 C        1.992    -0.075    33.080     9.288

 Mol. C6AA /au·bohr⁶  :      24294.257449
 Mol. C8AA /au·bohr⁸  :     666265.510586
 Mol. α(0) /au        :        248.209510


Wiberg/Mayer (AO) data.
largest (>0.10) Wiberg bond orders for each atom

 ---------------------------------------------------------------------------
     #   Z sym  total        # sym  WBO       # sym  WBO       # sym  WBO
 ---------------------------------------------------------------------------
     1   6 C    2.020 --     2 O    1.550    30 C    0.155     4 C    0.105
     2   8 O    2.643 --     1 C    1.550     3 C    1.018
     3   6 C    3.866 --    30 C    1.349     4 C    1.304     2 O    1.018
     4   6 C    3.719 --     5 C    1.633     3 C    1.304     6 C    0.315
                            30 C    0.152     7 C    0.117     1 C    0.105
     5   6 C    3.815 --     6 C    1.639     4 C    1.633    30 C    0.369
     6   6 C    3.716 --     5 C    1.639     7 C    1.358     4 C    0.315
                            30 C    0.142
     7   6 C    3.955 --    30 C    1.404     6 C    1.358     8 C    0.992
                             4 C    0.117
     8   6 C    3.912 --    13 C    1.433     9 C    1.281     7 C    0.992
     9   6 C    3.513 --    10 C    1.648     8 C    1.281    13 C    0.208
    10   6 C    3.528 --     9 C    1.648    11 C    1.428    13 C    0.238
    11   6 C    3.853 --    10 C    1.428    12 C    1.088    17 C    1.084
    12   6 C    3.878 --    13 C    1.363    14 N    1.244    11 C    1.088
    13   6 C    3.449 --     8 C    1.433    12 C    1.363    10 C    0.238
                             9 C    0.208
    14   7 N    3.057 --    12 C    1.244    15 C    1.241    18 C    0.164
                            16 O    0.138
    15   6 C    3.906 --    16 O    1.749    14 N    1.241    17 C    0.793
    16   8 O    2.125 --    15 C    1.749    14 N    0.138    18 C    0.130
Note: The following floating-point exceptions are signalling: IEEE_UNDERFLOW_FLAG IEEE_DENORMAL
normal termination of xtb
    17   6 C    3.859 --    18 C    1.775    11 C    1.084    15 C    0.793
    18   6 C    3.862 --    17 C    1.775    19 C    1.252    21 C    0.189
                            14 N    0.164    16 O    0.130
    19   6 C    3.863 --    24 C    1.255    18 C    1.252    20 N    1.141
    20   7 N    3.184 --    21 C    1.630    19 C    1.141    23 C    0.213
    21   6 C    3.341 --    20 N    1.630    22 C    1.166    18 C    0.189
                            23 C    0.142
    22   6 C    3.952 --    23 C    1.640    21 C    1.166    24 C    1.057
    23   6 C    2.271 --    22 C    1.640    20 N    0.213    21 C    0.142
    24   6 C    3.876 --    19 C    1.255    25 C    1.192    22 C    1.057
                            26 C    0.114
    25   6 C    3.582 --    26 C    1.908    24 C    1.192    29 O    0.156
                            28 O    0.111
    26   6 C    3.201 --    25 C    1.908    27 C    0.854    24 C    0.114
    27   6 C    3.938 --    28 O    1.653    29 O    1.359    26 C    0.854
    28   8 O    2.097 --    27 C    1.653    29 O    0.222    25 C    0.111
    29   8 O    1.902 --    27 C    1.359    28 O    0.222    25 C    0.156
    30   6 C    3.649 --     7 C    1.404     3 C    1.349     5 C    0.369
                             1 C    0.155     4 C    0.152     6 C    0.142
 ---------------------------------------------------------------------------

Topologies differ in total number of bonds
Writing topology from bond orders to xtbtopo.mol

molecular dipole:
                 x           y           z       tot (Debye)
 q only:        2.860       4.612       0.669
   full:        3.549       4.502       0.720      14.686
molecular quadrupole (traceless):
                xx          xy          yy          xz          yz          zz
 q only:        5.489     -11.032     -23.808       1.232      19.268      18.319
  q+dip:        8.198      -4.941     -26.712       3.260      18.940      18.514
   full:        9.141      -6.282     -30.236       0.386      14.666      21.094


           -------------------------------------------------
          | TOTAL ENERGY              -72.033931691292 Eh   |
          | GRADIENT NORM               0.499268335172 Eh/α |
          | HOMO-LUMO GAP               0.021184033688 eV   |
           -------------------------------------------------

------------------------------------------------------------------------
 * finished run on 2026/07/23 at 16:38:55.223     
------------------------------------------------------------------------
 total:
 * wall-time:     0 d,  0 h,  0 min,  0.808 sec
 *  cpu-time:     0 d,  0 h,  0 min,  0.725 sec
 * ratio c/w:     0.898 speedup
 SCF:
 * wall-time:     0 d,  0 h,  0 min,  0.789 sec
 *  cpu-time:     0 d,  0 h,  0 min,  0.702 sec
 * ratio c/w:     0.890 speedup

