      -----------------------------------------------------------      
     |                   =====================                   |     
     |                           x T B                           |     
     |                   =====================                   |     
     |                         S. Grimme                         |     
     |          Mulliken Center for Theoretical Chemistry        |     
     |                    University of Bonn                     |     
      -----------------------------------------------------------      

   * xtb version 6.6.1 (unknown) compiled by 'builduser@buildhost' on 2023-08-07

   xtb is free software: you can redistribute it and/or modify it under
   the terms of the GNU Lesser General Public License as published by
   the Free Software Foundation, either version 3 of the License, or
   (at your option) any later version.
   
   xtb is distributed in the hope that it will be useful,
   but WITHOUT ANY WARRANTY; without even the implied warranty of
   MERCHANTABILITY or FITNESS FOR A PARTICULAR PURPOSE.  See the
   GNU Lesser General Public License for more details.
   
   Cite this work as:
   * C. Bannwarth, E. Caldeweyher, S. Ehlert, A. Hansen, P. Pracht,
     J. Seibert, S. Spicher, S. Grimme, WIREs Comput. Mol. Sci., 2020, 11,
     e01493. DOI: 10.1002/wcms.1493
   
   for GFN2-xTB:
   * C. Bannwarth, S. Ehlert and S. Grimme., J. Chem. Theory Comput., 2019,
     15, 1652-1671. DOI: 10.1021/acs.jctc.8b01176
   for GFN1-xTB:
   * S. Grimme, C. Bannwarth, P. Shushkov, J. Chem. Theory Comput., 2017,
     13, 1989-2009. DOI: 10.1021/acs.jctc.7b00118
   for GFN0-xTB:
   * P. Pracht, E. Caldeweyher, S. Ehlert, S. Grimme, ChemRxiv, 2019, preprint.
     DOI: 10.26434/chemrxiv.8326202.v1
   for GFN-FF:
   * S. Spicher and S. Grimme, Angew. Chem. Int. Ed., 2020, 59, 15665-15673.
     DOI: 10.1002/anie.202004239
   
   for ALPB and GBSA implicit solvation:
   * S. Ehlert, M. Stahn, S. Spicher, S. Grimme, J. Chem. Theory Comput.,
     2021, 17, 4250-4261. DOI: 10.1021/acs.jctc.1c00471
   
   for DFT-D4:
   * E. Caldeweyher, C. Bannwarth and S. Grimme, J. Chem. Phys., 2017,
     147, 034112. DOI: 10.1063/1.4993215
   * E. Caldeweyher, S. Ehlert, A. Hansen, H. Neugebauer, S. Spicher,
     C. Bannwarth and S. Grimme, J. Chem. Phys., 2019, 150, 154122.
     DOI: 10.1063/1.5090222
   * E. Caldeweyher, J.-M. Mewes, S. Ehlert and S. Grimme, Phys. Chem. Chem. Phys.
     2020, 22, 8499-8512. DOI: 10.1039/D0CP00502A
   
   for sTDA-xTB:
   * S. Grimme and C. Bannwarth, J. Chem. Phys., 2016, 145, 054103.
     DOI: 10.1063/1.4959605
   
   in the mass-spec context:
   * V. Asgeirsson, C. Bauer and S. Grimme, Chem. Sci., 2017, 8, 4879.
     DOI: 10.1039/c7sc00601b
   * J. Koopman and S. Grimme, ACS Omega 2019, 4, 12, 15120-15133.
     DOI: 10.1021/acsomega.9b02011
   
   for metadynamics refer to:
   * S. Grimme, J. Chem. Theory Comput., 2019, 155, 2847-2862
     DOI: 10.1021/acs.jctc.9b00143
   
   for SPH calculations refer to:
   * S. Spicher and S. Grimme, J. Chem. Theory Comput., 2021, 17, 1701-1714
     DOI: 10.1021/acs.jctc.0c01306
   
   with help from (in alphabetical order)
   P. Atkinson, C. Bannwarth, F. Bohle, G. Brandenburg, E. Caldeweyher
   M. Checinski, S. Dohm, S. Ehlert, S. Ehrlich, I. Gerasimov, C. Hölzer
   A. Katbashev, J. Koopman, C. Lavigne, S. Lehtola, F. März, M. Müller,
   F. Musil, H. Neugebauer, J. Pisarek, C. Plett, P. Pracht, F. Pultar,
   J. Seibert, P. Shushkov, S. Spicher, M. Stahn, M. Steiner, T. Strunk,
   J. Stückrath, T. Rose, and J. Unsleber
   
 * started run on 2026/07/23 at 16:37:16.371     

           -------------------------------------------------
          |                Calculation Setup                |
           -------------------------------------------------

          program call               : xtb /home/selva/covalent_quantum_benchmark/data/quantum/erbB_xyz/EGFR__CHEMBL134371__state01.xyz --gfn2 --chrg 0 --uhf 0 --iterations 300
          coordinate file            : /home/selva/covalent_quantum_benchmark/data/quantum/erbB_xyz/EGFR__CHEMBL134371__state01.xyz
          omp threads                :                    24

   ID    Z sym.   atoms
    1    8 O      1, 3, 7
    2    6 C      2, 4-6, 9-12, 14, 16, 18-22, 24-26
    3    7 N      8, 13, 15, 17
    4   35 Br     23

           -------------------------------------------------
          |                 G F N 2 - x T B                 |
           -------------------------------------------------

        Reference                      10.1021/acs.jctc.8b01176
      * Hamiltonian:
        H0-scaling (s, p, d)           1.850000    2.230000    2.230000
        zeta-weighting                 0.500000
      * Dispersion:
        s8                             2.700000
        a1                             0.520000
        a2                             5.000000
        s9                             5.000000
      * Repulsion:
        kExp                           1.500000    1.000000
        rExp                           1.000000
      * Coulomb:
        alpha                          2.000000
        third order                    shell-resolved
        anisotropic                    true
        a3                             3.000000
        a5                             4.000000
        cn-shift                       1.200000
        cn-exp                         4.000000
        max-rad                        5.000000


          ...................................................
          :                      SETUP                      :
          :.................................................:
          :  # basis functions                 110          :
          :  # atomic orbitals                 109          :
          :  # shells                           53          :
          :  # electrons                       117          :
          :  max. iterations                   300          :
          :  Hamiltonian                  GFN2-xTB          :
          :  restarted?                      false          :
          :  GBSA solvation                  false          :
          :  PC potential                    false          :
          :  electronic temp.          300.0000000     K    :
          :  accuracy                    1.0000000          :
          :  -> integral cutoff          0.2500000E+02      :
          :  -> integral neglect         0.1000000E-07      :
          :  -> SCF convergence          0.1000000E-05 Eh   :
          :  -> wf. convergence          0.1000000E-03 e    :
          :  Broyden damping             0.4000000          :
          ...................................................

 iter      E             dE          RMSdq      gap      omega  full diag
   1    -65.6400369 -0.656400E+02  0.772E+00    0.52       0.0  T
   2    -53.0278229  0.126122E+02  0.114E+01    0.03       1.0  T
   3    -51.0480584  0.197976E+01  0.114E+01    0.60       1.0  T
   4    -60.8637309 -0.981567E+01  0.852E+00    0.27       1.0  T
   5    -64.5382764 -0.367455E+01  0.578E+00    0.23       1.0  T
   6    -65.3297802 -0.791504E+00  0.470E+00    0.19       1.0  T
   7    -65.3754940 -0.457138E-01  0.456E+00    0.02       1.0  T
   8    -65.5145736 -0.139080E+00  0.371E+00    0.19       1.0  T
   9    -65.7313038 -0.216730E+00  0.317E+00    0.08       1.0  T
  10    -65.6773492  0.539546E-01  0.320E+00    0.10       1.0  T
  11    -66.0088478 -0.331499E+00  0.277E+00    0.09       1.0  T
  12    -66.0577529 -0.489051E-01  0.246E+00    0.03       1.0  T
  13    -65.6957323  0.362021E+00  0.298E+00    0.08       1.0  T
  14    -66.2813766 -0.585644E+00  0.172E+00    0.02       1.0  T
  15    -66.1718027  0.109574E+00  0.186E+00    0.03       1.0  T
  16    -65.7109420  0.460861E+00  0.348E+00    0.14       1.0  T
  17    -65.9358548 -0.224913E+00  0.327E+00    0.17       1.0  T
  18    -65.6175898  0.318265E+00  0.363E+00    0.19       1.0  T
  19    -65.5771371  0.404527E-01  0.356E+00    0.20       1.0  T
  20    -65.9565263 -0.379389E+00  0.282E+00    0.16       1.0  T
  21    -66.2808843 -0.324358E+00  0.134E+00    0.01       1.0  T
  22    -66.1591357  0.121749E+00  0.205E+00    0.06       1.0  T
  23    -66.3210866 -0.161951E+00  0.798E-01    0.01       1.0  T
  24    -66.3054998  0.155868E-01  0.836E-01    0.01       1.0  T
  25    -66.3041732  0.132657E-02  0.845E-01    0.01       1.0  T
  26    -66.3039659  0.207296E-03  0.846E-01    0.01       1.0  T
  27    -66.3066352 -0.266933E-02  0.825E-01    0.03       1.0  T
  28    -66.3300809 -0.234457E-01  0.538E-01    0.01       1.0  T
  29    -66.3276974  0.238356E-02  0.568E-01    0.02       1.0  T
  30    -66.3269877  0.709717E-03  0.523E-01    0.01       1.0  T
  31    -66.3306795 -0.369182E-02  0.467E-01    0.02       1.0  T
  32    -66.3365913 -0.591181E-02  0.356E-01    0.02       1.0  T
  33    -66.3377218 -0.113056E-02  0.401E-01    0.01       1.0  T
  34    -66.3388045 -0.108266E-02  0.361E-01    0.01       1.0  T
  35    -66.0504696  0.288335E+00  0.201E+00    0.06       1.0  T
  36    -66.3278281 -0.277359E+00  0.532E-01    0.00       1.0  T
  37    -66.3184168  0.941134E-02  0.608E-01    0.03       1.0  T
  38    -66.3326359 -0.142191E-01  0.420E-01    0.03       1.0  T
  39    -66.3270276  0.560829E-02  0.507E-01    0.03       1.0  T
  40    -66.3423133 -0.152857E-01  0.218E-01    0.02       1.0  T
  41    -66.3445410 -0.222769E-02  0.125E-01    0.02       1.0  T
  42    -66.3448050 -0.263954E-03  0.107E-01    0.02       1.0  T
  43    -66.3454092 -0.604209E-03  0.522E-02    0.02       1.0  T
  44    -66.3455633 -0.154149E-03  0.220E-02    0.02       1.0  T
  45    -66.3455543  0.902396E-05  0.245E-02    0.02       1.0  T
  46    -66.3455935 -0.392224E-04  0.502E-03    0.02       3.9  T
  47    -66.3455930  0.495099E-06  0.567E-03    0.02       3.5  T
  48    -66.3455945 -0.143701E-05  0.329E-03    0.02       6.0  T
  49    -66.3455949 -0.401123E-06  0.193E-03    0.02      10.2  T
  50    -66.3455947  0.205982E-06  0.254E-03    0.02       7.7  T
  51    -66.3455950 -0.354705E-06  0.122E-03    0.02      16.1  T
  52    -66.3455951 -0.930014E-07  0.414E-04    0.02      47.4  T
  53    -66.3455951 -0.971183E-08  0.187E-04    0.02     105.0  T

   *** convergence criteria satisfied after 53 iterations ***

         #    Occupation            Energy/Eh            Energy/eV
      -------------------------------------------------------------
         1        2.0000           -0.8823081             -24.0088
       ...           ...                  ...                  ...
        53        2.0000           -0.4530675             -12.3286
        54        2.0000           -0.4525460             -12.3144
        55        1.9993           -0.4474398             -12.1755
        56        1.9095           -0.4426936             -12.0463
        57        1.8404           -0.4421067             -12.0303
        58        1.5614           -0.4409343             -11.9984
        59        0.9976           -0.4395934             -11.9619 (HOMO)
        60        0.6917           -0.4389200             -11.9436 (LUMO)
        61                         -0.4178431             -11.3701
        62                         -0.4130549             -11.2398
        63                         -0.3799444             -10.3388
        64                         -0.3731321             -10.1534
       ...                                ...                  ...
       109                          0.6342359              17.2584
      -------------------------------------------------------------
                  HL-Gap            0.0006734 Eh            0.0183 eV
             Fermi-level           -0.4395985 Eh          -11.9621 eV

 SCC (total)                   0 d,  0 h,  0 min,  0.405 sec
 SCC setup                      ...        0 min,  0.000 sec (  0.067%)
 Dispersion                     ...        0 min,  0.001 sec (  0.246%)
 classical contributions        ...        0 min,  0.001 sec (  0.168%)
 integral evaluation            ...        0 min,  0.005 sec (  1.255%)
 iterations                     ...        0 min,  0.382 sec ( 94.253%)
 molecular gradient             ...        0 min,  0.013 sec (  3.240%)
 printout                       ...        0 min,  0.003 sec (  0.739%)

         :::::::::::::::::::::::::::::::::::::::::::::::::::::
         ::                     SUMMARY                     ::
         :::::::::::::::::::::::::::::::::::::::::::::::::::::
         :: total energy             -65.592288877744 Eh    ::
         :: gradient norm              0.390834372758 Eh/a0 ::
         :: HOMO-LUMO gap              0.018325333597 eV    ::
         ::.................................................::
         :: SCC energy               -66.345595134998 Eh    ::
         :: -> isotropic ES            0.096632581467 Eh    ::
         :: -> anisotropic ES          0.006631408678 Eh    ::
         :: -> anisotropic XC          0.028929591755 Eh    ::
         :: -> dispersion             -0.034360888756 Eh    ::
         :: repulsion energy           0.753758755524 Eh    ::
         :: add. restraining           0.000000000000 Eh    ::
         :: total charge               0.000000000094 e     ::
         :::::::::::::::::::::::::::::::::::::::::::::::::::::

           -------------------------------------------------
          |                Property Printout                |
           -------------------------------------------------

    * Orbital Energies and Occupations

         #    Occupation            Energy/Eh            Energy/eV
      -------------------------------------------------------------
         1        2.0000           -0.8823081             -24.0088
       ...           ...                  ...                  ...
        47        2.0000           -0.4759460             -12.9511
        48        2.0000           -0.4735620             -12.8863
        49        2.0000           -0.4662416             -12.6871
        50        2.0000           -0.4633994             -12.6097
        51        2.0000           -0.4629915             -12.5986
        52        2.0000           -0.4609497             -12.5431
        53        2.0000           -0.4530675             -12.3286
        54        2.0000           -0.4525460             -12.3144
        55        1.9993           -0.4474398             -12.1755
        56        1.9095           -0.4426936             -12.0463
        57        1.8404           -0.4421067             -12.0303
        58        1.5614           -0.4409343             -11.9984
        59        0.9976           -0.4395934             -11.9619 (HOMO)
        60        0.6917           -0.4389200             -11.9436 (LUMO)
        61                         -0.4178431             -11.3701
        62                         -0.4130549             -11.2398
        63                         -0.3799444             -10.3388
        64                         -0.3731321             -10.1534
        65                         -0.3483311              -9.4786
        66                         -0.3473286              -9.4513
        67                         -0.3417295              -9.2989
        68                         -0.3194573              -8.6929
        69                         -0.3133292              -8.5261
        70                         -0.3017380              -8.2107
       ...                                ...                  ...
       109                          0.6342359              17.2584
      -------------------------------------------------------------
                  HL-Gap            0.0006734 Eh            0.0183 eV
             Fermi-level           -0.4395985 Eh          -11.9621 eV

     #   Z          covCN         q      C6AA      α(0)
     1   8 O        0.857    -0.299    19.765     5.961
     2   6 C        2.694     0.402    20.217     7.359
     3   8 O        0.855    -0.336    20.446     6.062
     4   6 C        1.971     0.024    30.438     8.910
     5   6 C        1.975     0.017    30.634     8.938
     6   6 C        2.756     0.324    21.497     7.592
     7   8 O        0.857    -0.310    19.963     5.990
     8   7 N        1.836    -0.158    25.215     7.441
     9   6 C        2.895     0.154    24.655     8.141
    10   6 C        1.989    -0.005    31.175     9.017
    11   6 C        1.990    -0.007    31.238     9.026
    12   6 C        2.922     0.140    24.953     8.192
    13   7 N        1.831    -0.150    25.024     7.413
    14   6 C        1.908     0.176    26.901     8.376
    15   7 N        1.831    -0.178    25.663     7.507
    16   6 C        2.908     0.202    23.721     7.986
    17   7 N        1.839    -0.133    24.664     7.360
    18   6 C        2.934     0.133    25.094     8.215
    19   6 C        1.992     0.015    30.649     8.941
    20   6 C        1.986    -0.007    31.237     9.026
    21   6 C        2.061     0.020    30.451     8.914
    22   6 C        2.906     0.116    25.440     8.270
    23  35 Br       1.068    -0.045   186.236    22.004
    24   6 C        2.065    -0.070    32.845     9.257
    25   6 C        2.978     0.006    27.874     8.660
    26   6 C        1.995    -0.031    31.883     9.119

 Mol. C6AA /au·bohr⁶  :      20054.471046
 Mol. C8AA /au·bohr⁸  :     594877.597168
 Mol. α(0) /au        :        223.678212


Wiberg/Mayer (AO) data.
largest (>0.10) Wiberg bond orders for each atom

 ---------------------------------------------------------------------------
     #   Z sym  total        # sym  WBO       # sym  WBO       # sym  WBO
 ---------------------------------------------------------------------------
     1   8 O    1.965 --     2 C    1.658     3 O    0.220
     2   6 C    3.924 --     1 O    1.658     3 O    1.317     4 C    0.921
     3   8 O    1.693 --     2 C    1.317     1 O    0.220
     4   6 C    3.653 --     5 C    2.480     2 C    0.921
     5   6 C    3.710 --     4 C    2.480     6 C    0.986
     6   6 C    3.925 --     7 O    1.691     8 N    1.172     5 C    0.986
     7   8 O    2.017 --     6 C    1.691
     8   7 N    2.848 --     9 C    1.301     6 C    1.172    11 C    0.132
     9   6 C    3.886 --     8 N    1.301    26 C    1.235    10 C    1.198
    10   6 C    3.670 --    11 C    1.767     9 C    1.198    26 C    0.228
                            14 C    0.119
    11   6 C    3.501 --    10 C    1.767    12 C    1.269    26 C    0.150
                             8 N    0.132
    12   6 C    3.868 --    11 C    1.269    13 N    1.198    25 C    1.160
    13   7 N    3.100 --    14 C    1.556    12 C    1.198
    14   6 C    3.822 --    15 N    1.736    13 N    1.556    17 N    0.139
                            10 C    0.119
    15   7 N    3.161 --    14 C    1.736    16 C    1.088
    16   6 C    3.950 --    17 N    1.603    15 N    1.088    25 C    1.052
    17   7 N    3.240 --    16 C    1.603    18 C    1.088    14 C    0.139
    18   6 C    3.952 --    24 C    1.356    19 C    1.322    17 N    1.088
    19   6 C    3.747 --    20 C    1.622    18 C    1.322    21 C    0.389
                            24 C    0.159    22 C    0.101
    20   6 C    3.732 --    21 C    1.635    19 C    1.622    24 C    0.370
    21   6 C    3.745 --    20 C    1.635    22 C    1.366    19 C    0.389
                            24 C    0.153
    22   6 C    3.928 --    24 C    1.412    21 C    1.366    23 Br   1.000
                            19 C    0.101
    23  35 Br   1.211 --    22 C    1.000
    24   6 C    3.580 --    22 C    1.412    18 C    1.356    20 C    0.370
                            19 C    0.159    21 C    0.153
    25   6 C    3.940 --    26 C    1.470    12 C    1.160    16 C    1.052
    26   6 C    3.406 --    25 C    1.470     9 C    1.235    10 C    0.228
                            11 C    0.150
 ---------------------------------------------------------------------------

Topologies differ in total number of bonds
Writing topology from bond orders to xtbtopo.mol

molecular dipole:
                 x           y           z       tot (Debye)
 q only:        0.602      -0.345       4.788
   full:        0.732       0.297       5.197      13.361
molecular quadrupole (traceless):
                xx          xy          yy          xz          yz          zz
 q only:       24.012      -0.908      26.605     -22.407       1.331     -50.617
  q+dip:       28.518       1.001      20.727     -25.908       8.220     -49.245
   full:       30.615      -2.869      23.153     -25.625      10.624     -53.768
Note: The following floating-point exceptions are signalling: IEEE_UNDERFLOW_FLAG IEEE_DENORMAL
normal termination of xtb


           -------------------------------------------------
          | TOTAL ENERGY              -65.592288877744 Eh   |
          | GRADIENT NORM               0.390834372758 Eh/α |
          | HOMO-LUMO GAP               0.018325333597 eV   |
           -------------------------------------------------

------------------------------------------------------------------------
 * finished run on 2026/07/23 at 16:37:16.788     
------------------------------------------------------------------------
 total:
 * wall-time:     0 d,  0 h,  0 min,  0.417 sec
 *  cpu-time:     0 d,  0 h,  0 min,  0.387 sec
 * ratio c/w:     0.927 speedup
 SCF:
 * wall-time:     0 d,  0 h,  0 min,  0.405 sec
 *  cpu-time:     0 d,  0 h,  0 min,  0.375 sec
 * ratio c/w:     0.924 speedup

