      -----------------------------------------------------------      
     |                   =====================                   |     
     |                           x T B                           |     
     |                   =====================                   |     
     |                         S. Grimme                         |     
     |          Mulliken Center for Theoretical Chemistry        |     
     |                    University of Bonn                     |     
      -----------------------------------------------------------      

   * xtb version 6.6.1 (unknown) compiled by 'builduser@buildhost' on 2023-08-07

   xtb is free software: you can redistribute it and/or modify it under
   the terms of the GNU Lesser General Public License as published by
   the Free Software Foundation, either version 3 of the License, or
   (at your option) any later version.
   
   xtb is distributed in the hope that it will be useful,
   but WITHOUT ANY WARRANTY; without even the implied warranty of
   MERCHANTABILITY or FITNESS FOR A PARTICULAR PURPOSE.  See the
   GNU Lesser General Public License for more details.
   
   Cite this work as:
   * C. Bannwarth, E. Caldeweyher, S. Ehlert, A. Hansen, P. Pracht,
     J. Seibert, S. Spicher, S. Grimme, WIREs Comput. Mol. Sci., 2020, 11,
     e01493. DOI: 10.1002/wcms.1493
   
   for GFN2-xTB:
   * C. Bannwarth, S. Ehlert and S. Grimme., J. Chem. Theory Comput., 2019,
     15, 1652-1671. DOI: 10.1021/acs.jctc.8b01176
   for GFN1-xTB:
   * S. Grimme, C. Bannwarth, P. Shushkov, J. Chem. Theory Comput., 2017,
     13, 1989-2009. DOI: 10.1021/acs.jctc.7b00118
   for GFN0-xTB:
   * P. Pracht, E. Caldeweyher, S. Ehlert, S. Grimme, ChemRxiv, 2019, preprint.
     DOI: 10.26434/chemrxiv.8326202.v1
   for GFN-FF:
   * S. Spicher and S. Grimme, Angew. Chem. Int. Ed., 2020, 59, 15665-15673.
     DOI: 10.1002/anie.202004239
   
   for ALPB and GBSA implicit solvation:
   * S. Ehlert, M. Stahn, S. Spicher, S. Grimme, J. Chem. Theory Comput.,
     2021, 17, 4250-4261. DOI: 10.1021/acs.jctc.1c00471
   
   for DFT-D4:
   * E. Caldeweyher, C. Bannwarth and S. Grimme, J. Chem. Phys., 2017,
     147, 034112. DOI: 10.1063/1.4993215
   * E. Caldeweyher, S. Ehlert, A. Hansen, H. Neugebauer, S. Spicher,
     C. Bannwarth and S. Grimme, J. Chem. Phys., 2019, 150, 154122.
     DOI: 10.1063/1.5090222
   * E. Caldeweyher, J.-M. Mewes, S. Ehlert and S. Grimme, Phys. Chem. Chem. Phys.
     2020, 22, 8499-8512. DOI: 10.1039/D0CP00502A
   
   for sTDA-xTB:
   * S. Grimme and C. Bannwarth, J. Chem. Phys., 2016, 145, 054103.
     DOI: 10.1063/1.4959605
   
   in the mass-spec context:
   * V. Asgeirsson, C. Bauer and S. Grimme, Chem. Sci., 2017, 8, 4879.
     DOI: 10.1039/c7sc00601b
   * J. Koopman and S. Grimme, ACS Omega 2019, 4, 12, 15120-15133.
     DOI: 10.1021/acsomega.9b02011
   
   for metadynamics refer to:
   * S. Grimme, J. Chem. Theory Comput., 2019, 155, 2847-2862
     DOI: 10.1021/acs.jctc.9b00143
   
   for SPH calculations refer to:
   * S. Spicher and S. Grimme, J. Chem. Theory Comput., 2021, 17, 1701-1714
     DOI: 10.1021/acs.jctc.0c01306
   
   with help from (in alphabetical order)
   P. Atkinson, C. Bannwarth, F. Bohle, G. Brandenburg, E. Caldeweyher
   M. Checinski, S. Dohm, S. Ehlert, S. Ehrlich, I. Gerasimov, C. Hölzer
   A. Katbashev, J. Koopman, C. Lavigne, S. Lehtola, F. März, M. Müller,
   F. Musil, H. Neugebauer, J. Pisarek, C. Plett, P. Pracht, F. Pultar,
   J. Seibert, P. Shushkov, S. Spicher, M. Stahn, M. Steiner, T. Strunk,
   J. Stückrath, T. Rose, and J. Unsleber
   
 * started run on 2026/07/23 at 16:43:22.272     

           -------------------------------------------------
          |                Calculation Setup                |
           -------------------------------------------------

          program call               : xtb /home/selva/covalent_quantum_benchmark/data/quantum/erbB_xyz/ERBB2__CHEMBL69960__state03.xyz --gfn2 --chrg 0 --uhf 0 --iterations 300
          coordinate file            : /home/selva/covalent_quantum_benchmark/data/quantum/erbB_xyz/ERBB2__CHEMBL69960__state03.xyz
          omp threads                :                    24

   ID    Z sym.   atoms
    1    6 C      1-5, 8, 9, 11, 12, 14-17, 20, 22, 24, 26-29, 31, 33, 34
    2    8 O      6, 10, 18
    3    7 N      7, 13, 19, 21, 23, 25
    4    9 F      30
    5   17 Cl     32

           -------------------------------------------------
          |                 G F N 2 - x T B                 |
           -------------------------------------------------

        Reference                      10.1021/acs.jctc.8b01176
      * Hamiltonian:
        H0-scaling (s, p, d)           1.850000    2.230000    2.230000
        zeta-weighting                 0.500000
      * Dispersion:
        s8                             2.700000
        a1                             0.520000
        a2                             5.000000
        s9                             5.000000
      * Repulsion:
        kExp                           1.500000    1.000000
        rExp                           1.000000
      * Coulomb:
        alpha                          2.000000
        third order                    shell-resolved
        anisotropic                    true
        a3                             3.000000
        a5                             4.000000
        cn-shift                       1.200000
        cn-exp                         4.000000
        max-rad                        5.000000


          ...................................................
          :                      SETUP                      :
          :.................................................:
          :  # basis functions                 142          :
          :  # atomic orbitals                 141          :
          :  # shells                           69          :
          :  # electrons                       154          :
          :  max. iterations                   300          :
          :  Hamiltonian                  GFN2-xTB          :
          :  restarted?                      false          :
          :  GBSA solvation                  false          :
          :  PC potential                    false          :
          :  electronic temp.          300.0000000     K    :
          :  accuracy                    1.0000000          :
          :  -> integral cutoff          0.2500000E+02      :
          :  -> integral neglect         0.1000000E-07      :
          :  -> SCF convergence          0.1000000E-05 Eh   :
          :  -> wf. convergence          0.1000000E-03 e    :
          :  Broyden damping             0.4000000          :
          ...................................................

 iter      E             dE          RMSdq      gap      omega  full diag
   1    -86.2634440 -0.862634E+02  0.821E+00    0.14       0.0  T
   2    -66.2855599  0.199779E+02  0.134E+01    0.23       1.0  T
   3    -69.0982205 -0.281266E+01  0.118E+01    0.90       1.0  T
   4    -83.1329249 -0.140347E+02  0.705E+00    0.03       1.0  T
   5    -83.1033204  0.296045E-01  0.732E+00    0.11       1.0  T
   6    -84.1574391 -0.105412E+01  0.673E+00    0.05       1.0  T
   7    -85.9160449 -0.175861E+01  0.569E+00    0.19       1.0  T
   8    -82.6684052  0.324764E+01  0.678E+00    0.13       1.0  T
   9    -86.1748692 -0.350646E+01  0.499E+00    0.44       1.0  T
  10    -86.3108587 -0.135990E+00  0.437E+00    0.08       1.0  T
  11    -86.4547212 -0.143863E+00  0.417E+00    0.08       1.0  T
  12    -86.8202328 -0.365512E+00  0.354E+00    0.29       1.0  T
  13    -86.8741134 -0.538807E-01  0.339E+00    0.19       1.0  T
  14    -86.9637432 -0.896297E-01  0.321E+00    0.14       1.0  T
  15    -86.7672868  0.196456E+00  0.355E+00    0.12       1.0  T
  16    -86.8411403 -0.738535E-01  0.343E+00    0.13       1.0  T
  17    -86.8389560  0.218435E-02  0.342E+00    0.13       1.0  T
  18    -86.8978851 -0.589291E-01  0.332E+00    0.14       1.0  T
  19    -86.9789368 -0.810518E-01  0.311E+00    0.13       1.0  T
  20    -87.3114044 -0.332468E+00  0.266E+00    0.00       1.0  T
  21    -87.4022257 -0.908214E-01  0.226E+00    0.04       1.0  T
  22    -87.1703949  0.231831E+00  0.264E+00    0.09       1.0  T
  23    -87.6546526 -0.484258E+00  0.159E+00    0.01       1.0  T
  24    -87.6487071  0.594548E-02  0.156E+00    0.00       1.0  T
  25    -87.3812084  0.267499E+00  0.212E+00    0.07       1.0  T
  26    -87.3644504  0.167580E-01  0.209E+00    0.03       1.0  T
  27    -87.5878405 -0.223390E+00  0.138E+00    0.03       1.0  T
  28    -87.6826520 -0.948115E-01  0.101E+00    0.01       1.0  T
  29    -87.6635257  0.191264E-01  0.124E+00    0.03       1.0  T
  30    -87.7647063 -0.101181E+00  0.636E-01    0.00       1.0  T
  31    -87.7766161 -0.119098E-01  0.565E-01    0.00       1.0  T
  32    -87.7855953 -0.897919E-02  0.401E-01    0.00       1.0  T
  33    -87.7875715 -0.197623E-02  0.316E-01    0.00       1.0  T
  34    -87.7693283  0.182432E-01  0.473E-01    0.00       1.0  T
  35    -87.7905741 -0.212457E-01  0.193E-01    0.01       1.0  T
  36    -87.7923624 -0.178836E-02  0.139E-01    0.01       1.0  T
  37    -87.7933701 -0.100764E-02  0.737E-02    0.01       1.0  T
  38    -87.7934826 -0.112562E-03  0.503E-02    0.01       1.0  T
  39    -87.7926664  0.816170E-03  0.935E-02    0.01       1.0  T
  40    -87.7932091 -0.542647E-03  0.602E-02    0.01       1.0  T
  41    -87.7930319  0.177218E-03  0.740E-02    0.01       1.0  T
  42    -87.7934576 -0.425681E-03  0.357E-02    0.01       1.0  T
  43    -87.7934614 -0.381777E-05  0.325E-02    0.01       1.0  T
  44    -87.7934550  0.635620E-05  0.337E-02    0.01       1.0  T
  45    -87.7935291 -0.741280E-04  0.192E-02    0.01       1.0  T
  46    -87.7935532 -0.240303E-04  0.914E-03    0.01       1.9  T
  47    -87.7935544 -0.119788E-05  0.802E-03    0.01       2.1  T
  48    -87.7935559 -0.151596E-05  0.598E-03    0.01       2.9  T
  49    -87.7935576 -0.175266E-05  0.377E-03    0.01       4.6  T
  50    -87.7935589 -0.126965E-05  0.133E-03    0.01      12.9  T
  51    -87.7935589  0.393891E-07  0.155E-03    0.01      11.1  T
  52    -87.7935587  0.133364E-06  0.185E-03    0.01       9.2  T
  53    -87.7935590 -0.268059E-06  0.800E-04    0.01      21.4  T
  54    -87.7935590 -0.409360E-07  0.361E-04    0.01      47.5  T

   *** convergence criteria satisfied after 54 iterations ***

         #    Occupation            Energy/Eh            Energy/eV
      -------------------------------------------------------------
         1        2.0000           -1.0977035             -29.8700
       ...           ...                  ...                  ...
        71        2.0000           -0.4459327             -12.1344
        72        2.0000           -0.4424786             -12.0405
        73        1.9999           -0.4409409             -11.9986
        74        1.9986           -0.4381936             -11.9239
        75        1.7721           -0.4332139             -11.7883
        76        1.4056           -0.4320829             -11.7576
        77        1.2237           -0.4316974             -11.7471 (HOMO)
        78        0.9748           -0.4312171             -11.7340 (LUMO)
        79        0.5826           -0.4304206             -11.7123
        80        0.0426           -0.4276289             -11.6364
        81        0.0000           -0.4176888             -11.3659
        82        0.0000           -0.4158895             -11.3169
       ...           ...                  ...                  ...
       141                          0.6153500              16.7445
      -------------------------------------------------------------
                  HL-Gap            0.0004803 Eh            0.0131 eV
             Fermi-level           -0.4312651 Eh          -11.7353 eV

 SCC (total)                   0 d,  0 h,  0 min,  0.529 sec
 SCC setup                      ...        0 min,  0.000 sec (  0.049%)
 Dispersion                     ...        0 min,  0.001 sec (  0.281%)
 classical contributions        ...        0 min,  0.001 sec (  0.147%)
 integral evaluation            ...        0 min,  0.005 sec (  0.881%)
 iterations                     ...        0 min,  0.501 sec ( 94.623%)
 molecular gradient             ...        0 min,  0.020 sec (  3.690%)
 printout                       ...        0 min,  0.002 sec (  0.323%)

         :::::::::::::::::::::::::::::::::::::::::::::::::::::
         ::                     SUMMARY                     ::
         :::::::::::::::::::::::::::::::::::::::::::::::::::::
         :: total energy             -86.928725018359 Eh    ::
         :: gradient norm              0.452150677873 Eh/a0 ::
         :: HOMO-LUMO gap              0.013069452245 eV    ::
         ::.................................................::
         :: SCC energy               -87.793559044482 Eh    ::
         :: -> isotropic ES            0.065637370891 Eh    ::
         :: -> anisotropic ES          0.010939948255 Eh    ::
         :: -> anisotropic XC          0.035933013800 Eh    ::
         :: -> dispersion             -0.054293038531 Eh    ::
         :: repulsion energy           0.863555334985 Eh    ::
         :: add. restraining           0.000000000000 Eh    ::
         :: total charge               0.000000000001 e     ::
         :::::::::::::::::::::::::::::::::::::::::::::::::::::

           -------------------------------------------------
          |                Property Printout                |
           -------------------------------------------------

    * Orbital Energies and Occupations

         #    Occupation            Energy/Eh            Energy/eV
      -------------------------------------------------------------
         1        2.0000           -1.0977035             -29.8700
       ...           ...                  ...                  ...
        65        2.0000           -0.4712544             -12.8235
        66        2.0000           -0.4631161             -12.6020
        67        2.0000           -0.4600908             -12.5197
        68        2.0000           -0.4546071             -12.3705
        69        2.0000           -0.4496480             -12.2355
        70        2.0000           -0.4491418             -12.2218
        71        2.0000           -0.4459327             -12.1344
        72        2.0000           -0.4424786             -12.0405
        73        1.9999           -0.4409409             -11.9986
        74        1.9986           -0.4381936             -11.9239
        75        1.7721           -0.4332139             -11.7883
        76        1.4056           -0.4320829             -11.7576
        77        1.2237           -0.4316974             -11.7471 (HOMO)
        78        0.9748           -0.4312171             -11.7340 (LUMO)
        79        0.5826           -0.4304206             -11.7123
        80        0.0426           -0.4276289             -11.6364
        81        0.0000           -0.4176888             -11.3659
        82        0.0000           -0.4158895             -11.3169
        83                         -0.4094889             -11.1428
        84                         -0.3744573             -10.1895
        85                         -0.3686007             -10.0301
        86                         -0.3594810              -9.7820
        87                         -0.3523341              -9.5875
        88                         -0.3233882              -8.7998
       ...                                ...                  ...
       141                          0.6153500              16.7445
      -------------------------------------------------------------
                  HL-Gap            0.0004803 Eh            0.0131 eV
             Fermi-level           -0.4312651 Eh          -11.7353 eV

     #   Z          covCN         q      C6AA      α(0)
     1   6 C        0.981    -0.058    37.719    10.316
     2   6 C        3.164     0.090    25.684     8.283
     3   6 C        2.038    -0.050    32.332     9.184
     4   6 C        3.317     0.104    23.769     7.767
     5   6 C        2.754     0.291    22.067     7.692
     6   8 O        0.858    -0.302    19.811     5.968
     7   7 N        2.729     0.023    20.854     6.782
     8   6 C        1.889    -0.070    33.012     9.280
     9   6 C        1.838     0.040    30.130     8.868
    10   8 O        1.695    -0.122    16.150     5.426
    11   6 C        1.839     0.050    29.890     8.832
    12   6 C        1.895    -0.026    31.812     9.109
    13   7 N        1.872    -0.163    25.327     7.460
    14   6 C        3.186     0.129    24.747     8.117
    15   6 C        1.976     0.014    30.696     8.947
    16   6 C        2.959    -0.004    28.115     8.697
    17   6 C        2.847     0.309    21.766     7.646
    18   8 O        0.856    -0.269    19.234     5.880
    19   7 N        1.872    -0.222    26.693     7.659
    20   6 C        3.055     0.197    23.775     7.996
    21   7 N        1.831    -0.142    24.863     7.389
    22   6 C        1.988     0.173    26.899     8.376
    23   7 N        1.836    -0.157    25.193     7.438
    24   6 C        2.886     0.185    24.048     8.040
    25   7 N        1.832    -0.126    24.505     7.336
    26   6 C        2.891     0.137    25.005     8.198
    27   6 C        1.995    -0.029    31.824     9.110
    28   6 C        1.986    -0.027    31.760     9.101
    29   6 C        2.807     0.197    23.801     7.993
    30   9 F        0.787    -0.146    10.693     3.863
    31   6 C        2.877     0.091    25.984     8.356
    32  17 Cl       0.962    -0.052   100.798    15.360
    33   6 C        2.028    -0.068    32.864     9.259
    34   6 C        3.033     0.004    27.913     8.666

 Mol. C6AA /au·bohr⁶  :      31346.298169
 Mol. C8AA /au·bohr⁸  :     860437.301973
 Mol. α(0) /au        :        278.392590


Wiberg/Mayer (AO) data.
largest (>0.10) Wiberg bond orders for each atom

 ---------------------------------------------------------------------------
     #   Z sym  total        # sym  WBO       # sym  WBO       # sym  WBO
 ---------------------------------------------------------------------------
     1   6 C    2.341 --     2 C    1.613     3 C    0.279    13 N    0.175
                            14 C    0.110
     2   6 C    3.966 --     1 C    1.613     3 C    1.320    14 C    0.935
     3   6 C    3.212 --     2 C    1.320     4 C    1.194     1 C    0.279
                            15 C    0.125
     4   6 C    3.917 --    13 N    1.466     3 C    1.194     5 C    0.948
                            15 C    0.104
     5   6 C    3.938 --     6 O    1.769     7 N    1.107     4 C    0.948
     6   8 O    2.096 --     5 C    1.769     7 N    0.111
     7   7 N    3.629 --     8 C    1.129    12 C    1.116     5 C    1.107
                             6 O    0.111
     8   6 C    2.852 --     9 C    1.389     7 N    1.129    12 C    0.135
     9   6 C    2.786 --     8 C    1.389    10 O    1.137    11 C    0.104
    10   8 O    2.493 --    11 C    1.163     9 C    1.137
    11   6 C    2.802 --    12 C    1.378    10 O    1.163     9 C    0.104
    12   6 C    2.816 --    11 C    1.378     7 N    1.116     8 C    0.135
    13   7 N    3.148 --     4 C    1.466    14 C    1.199     1 C    0.175
    14   6 C    3.933 --    15 C    1.533    13 N    1.199     2 C    0.935
                             1 C    0.110
    15   6 C    3.660 --    14 C    1.533    16 C    1.424    19 N    0.130
                             3 C    0.125     4 C    0.104
    16   6 C    3.776 --    15 C    1.424    34 C    1.096    17 C    0.811
    17   6 C    3.920 --    18 O    1.764    19 N    1.211    16 C    0.811
    18   8 O    2.129 --    17 C    1.764    19 N    0.120
    19   7 N    3.031 --    20 C    1.287    17 C    1.211    15 C    0.130
                            18 O    0.120
    20   6 C    3.939 --    19 N    1.287    21 N    1.249    34 C    1.194
    21   7 N    3.187 --    22 C    1.579    20 C    1.249
    22   6 C    3.722 --    23 N    1.675    21 N    1.579    25 N    0.176
    23   7 N    3.188 --    22 C    1.675    24 C    1.165
    24   6 C    3.948 --    34 C    1.287    25 N    1.287    23 N    1.165
    25   7 N    3.156 --    24 C    1.287    26 C    1.240    22 C    0.176
    26   6 C    3.899 --    33 C    1.274    25 N    1.240    27 C    1.222
    27   6 C    3.603 --    28 C    1.779    26 C    1.222    33 C    0.303
Note: The following floating-point exceptions are signalling: IEEE_UNDERFLOW_FLAG IEEE_DENORMAL
normal termination of xtb
    28   6 C    3.425 --    27 C    1.779    29 C    1.358    33 C    0.148
    29   6 C    3.781 --    28 C    1.358    31 C    1.244    30 F    1.011
    30   9 F    1.158 --    29 C    1.011
    31   6 C    3.888 --    33 C    1.458    29 C    1.244    32 Cl   1.012
    32  17 Cl   1.196 --    31 C    1.012
    33   6 C    3.373 --    31 C    1.458    26 C    1.274    27 C    0.303
                            28 C    0.148
    34   6 C    3.903 --    24 C    1.287    20 C    1.194    16 C    1.096
 ---------------------------------------------------------------------------

Topologies differ in total number of bonds
Writing topology from bond orders to xtbtopo.mol

molecular dipole:
                 x           y           z       tot (Debye)
 q only:       -0.445       0.176      -0.050
   full:       -0.459       0.281      -1.224       3.399
molecular quadrupole (traceless):
                xx          xy          yy          xz          yz          zz
 q only:       -2.080      -7.710      10.064      12.949       5.984      -7.984
  q+dip:       -4.980     -13.788      15.336      22.953       8.738     -10.357
   full:       -5.102     -17.500      19.893      22.854      11.623     -14.791


           -------------------------------------------------
          | TOTAL ENERGY              -86.928725018359 Eh   |
          | GRADIENT NORM               0.452150677873 Eh/α |
          | HOMO-LUMO GAP               0.013069452245 eV   |
           -------------------------------------------------

------------------------------------------------------------------------
 * finished run on 2026/07/23 at 16:43:22.816     
------------------------------------------------------------------------
 total:
 * wall-time:     0 d,  0 h,  0 min,  0.544 sec
 *  cpu-time:     0 d,  0 h,  0 min,  0.549 sec
 * ratio c/w:     1.010 speedup
 SCF:
 * wall-time:     0 d,  0 h,  0 min,  0.529 sec
 *  cpu-time:     0 d,  0 h,  0 min,  0.534 sec
 * ratio c/w:     1.008 speedup

