      -----------------------------------------------------------      
     |                   =====================                   |     
     |                           x T B                           |     
     |                   =====================                   |     
     |                         S. Grimme                         |     
     |          Mulliken Center for Theoretical Chemistry        |     
     |                    University of Bonn                     |     
      -----------------------------------------------------------      

   * xtb version 6.6.1 (unknown) compiled by 'builduser@buildhost' on 2023-08-07

   xtb is free software: you can redistribute it and/or modify it under
   the terms of the GNU Lesser General Public License as published by
   the Free Software Foundation, either version 3 of the License, or
   (at your option) any later version.
   
   xtb is distributed in the hope that it will be useful,
   but WITHOUT ANY WARRANTY; without even the implied warranty of
   MERCHANTABILITY or FITNESS FOR A PARTICULAR PURPOSE.  See the
   GNU Lesser General Public License for more details.
   
   Cite this work as:
   * C. Bannwarth, E. Caldeweyher, S. Ehlert, A. Hansen, P. Pracht,
     J. Seibert, S. Spicher, S. Grimme, WIREs Comput. Mol. Sci., 2020, 11,
     e01493. DOI: 10.1002/wcms.1493
   
   for GFN2-xTB:
   * C. Bannwarth, S. Ehlert and S. Grimme., J. Chem. Theory Comput., 2019,
     15, 1652-1671. DOI: 10.1021/acs.jctc.8b01176
   for GFN1-xTB:
   * S. Grimme, C. Bannwarth, P. Shushkov, J. Chem. Theory Comput., 2017,
     13, 1989-2009. DOI: 10.1021/acs.jctc.7b00118
   for GFN0-xTB:
   * P. Pracht, E. Caldeweyher, S. Ehlert, S. Grimme, ChemRxiv, 2019, preprint.
     DOI: 10.26434/chemrxiv.8326202.v1
   for GFN-FF:
   * S. Spicher and S. Grimme, Angew. Chem. Int. Ed., 2020, 59, 15665-15673.
     DOI: 10.1002/anie.202004239
   
   for ALPB and GBSA implicit solvation:
   * S. Ehlert, M. Stahn, S. Spicher, S. Grimme, J. Chem. Theory Comput.,
     2021, 17, 4250-4261. DOI: 10.1021/acs.jctc.1c00471
   
   for DFT-D4:
   * E. Caldeweyher, C. Bannwarth and S. Grimme, J. Chem. Phys., 2017,
     147, 034112. DOI: 10.1063/1.4993215
   * E. Caldeweyher, S. Ehlert, A. Hansen, H. Neugebauer, S. Spicher,
     C. Bannwarth and S. Grimme, J. Chem. Phys., 2019, 150, 154122.
     DOI: 10.1063/1.5090222
   * E. Caldeweyher, J.-M. Mewes, S. Ehlert and S. Grimme, Phys. Chem. Chem. Phys.
     2020, 22, 8499-8512. DOI: 10.1039/D0CP00502A
   
   for sTDA-xTB:
   * S. Grimme and C. Bannwarth, J. Chem. Phys., 2016, 145, 054103.
     DOI: 10.1063/1.4959605
   
   in the mass-spec context:
   * V. Asgeirsson, C. Bauer and S. Grimme, Chem. Sci., 2017, 8, 4879.
     DOI: 10.1039/c7sc00601b
   * J. Koopman and S. Grimme, ACS Omega 2019, 4, 12, 15120-15133.
     DOI: 10.1021/acsomega.9b02011
   
   for metadynamics refer to:
   * S. Grimme, J. Chem. Theory Comput., 2019, 155, 2847-2862
     DOI: 10.1021/acs.jctc.9b00143
   
   for SPH calculations refer to:
   * S. Spicher and S. Grimme, J. Chem. Theory Comput., 2021, 17, 1701-1714
     DOI: 10.1021/acs.jctc.0c01306
   
   with help from (in alphabetical order)
   P. Atkinson, C. Bannwarth, F. Bohle, G. Brandenburg, E. Caldeweyher
   M. Checinski, S. Dohm, S. Ehlert, S. Ehrlich, I. Gerasimov, C. Hölzer
   A. Katbashev, J. Koopman, C. Lavigne, S. Lehtola, F. März, M. Müller,
   F. Musil, H. Neugebauer, J. Pisarek, C. Plett, P. Pracht, F. Pultar,
   J. Seibert, P. Shushkov, S. Spicher, M. Stahn, M. Steiner, T. Strunk,
   J. Stückrath, T. Rose, and J. Unsleber
   
 * started run on 2026/07/23 at 16:37:06.810     

           -------------------------------------------------
          |                Calculation Setup                |
           -------------------------------------------------

          program call               : xtb /home/selva/covalent_quantum_benchmark/data/quantum/erbB_xyz/EGFR__CHEMBL115440__state01.xyz --gfn2 --chrg 0 --uhf 0 --iterations 300
          coordinate file            : /home/selva/covalent_quantum_benchmark/data/quantum/erbB_xyz/EGFR__CHEMBL115440__state01.xyz
          omp threads                :                    24

   ID    Z sym.   atoms
    1    6 C      1, 3, 4, 6-9, 12-15, 17-19, 21, 23-27, 29-31
    2    8 O      2, 5, 10
    3    7 N      11, 16, 20, 22
    4   35 Br     28

           -------------------------------------------------
          |                 G F N 2 - x T B                 |
           -------------------------------------------------

        Reference                      10.1021/acs.jctc.8b01176
      * Hamiltonian:
        H0-scaling (s, p, d)           1.850000    2.230000    2.230000
        zeta-weighting                 0.500000
      * Dispersion:
        s8                             2.700000
        a1                             0.520000
        a2                             5.000000
        s9                             5.000000
      * Repulsion:
        kExp                           1.500000    1.000000
        rExp                           1.000000
      * Coulomb:
        alpha                          2.000000
        third order                    shell-resolved
        anisotropic                    true
        a3                             3.000000
        a5                             4.000000
        cn-shift                       1.200000
        cn-exp                         4.000000
        max-rad                        5.000000


          ...................................................
          :                      SETUP                      :
          :.................................................:
          :  # basis functions                 130          :
          :  # atomic orbitals                 129          :
          :  # shells                           63          :
          :  # electrons                       137          :
          :  max. iterations                   300          :
          :  Hamiltonian                  GFN2-xTB          :
          :  restarted?                      false          :
          :  GBSA solvation                  false          :
          :  PC potential                    false          :
          :  electronic temp.          300.0000000     K    :
          :  accuracy                    1.0000000          :
          :  -> integral cutoff          0.2500000E+02      :
          :  -> integral neglect         0.1000000E-07      :
          :  -> SCF convergence          0.1000000E-05 Eh   :
          :  -> wf. convergence          0.1000000E-03 e    :
          :  Broyden damping             0.4000000          :
          ...................................................

 iter      E             dE          RMSdq      gap      omega  full diag
   1    -76.2147777 -0.762148E+02  0.864E+00    0.29       0.0  T
   2    -63.6224760  0.125923E+02  0.116E+01    0.30       1.0  T
   3    -60.1027619  0.351971E+01  0.109E+01    0.07       1.0  T
   4    -54.3533296  0.574943E+01  0.124E+01    0.27       1.0  T
   5    -74.4226567 -0.200693E+02  0.635E+00    0.31       1.0  T
   6    -75.2361435 -0.813487E+00  0.547E+00    0.07       1.0  T
   7    -75.3595331 -0.123390E+00  0.440E+00    0.12       1.0  T
   8    -76.4178609 -0.105833E+01  0.343E+00    0.16       1.0  T
   9    -76.3571232  0.607378E-01  0.301E+00    0.04       1.0  T
  10    -76.5925286 -0.235405E+00  0.246E+00    0.25       1.0  T
  11    -76.5946404 -0.211181E-02  0.230E+00    0.12       1.0  T
  12    -76.5240735  0.705669E-01  0.235E+00    0.04       1.0  T
  13    -76.6527577 -0.128684E+00  0.179E+00    0.09       1.0  T
  14    -76.6716367 -0.188790E-01  0.167E+00    0.04       1.0  T
  15    -76.7289954 -0.573587E-01  0.137E+00    0.05       1.0  T
  16    -76.7744902 -0.454948E-01  0.828E-01    0.05       1.0  T
  17    -76.0840437  0.690447E+00  0.353E+00    0.03       1.0  T
  18    -76.0232179  0.608257E-01  0.355E+00    0.02       1.0  T
  19    -76.1266479 -0.103430E+00  0.341E+00    0.05       1.0  T
  20    -76.1788408 -0.521929E-01  0.330E+00    0.06       1.0  T
  21    -76.1919091 -0.130683E-01  0.319E+00    0.06       1.0  T
  22    -76.5101040 -0.318195E+00  0.206E+00    0.06       1.0  T
  23    -76.6267734 -0.116669E+00  0.157E+00    0.07       1.0  T
  24    -76.7409600 -0.114187E+00  0.926E-01    0.06       1.0  T
  25    -76.7934218 -0.524618E-01  0.394E-01    0.03       1.0  T
  26    -76.7974860 -0.406421E-02  0.330E-01    0.03       1.0  T
  27    -76.7971269  0.359173E-03  0.325E-01    0.03       1.0  T
  28    -76.8021086 -0.498172E-02  0.179E-01    0.03       1.0  T
  29    -76.7992979  0.281063E-02  0.259E-01    0.03       1.0  T
  30    -76.8012419 -0.194399E-02  0.196E-01    0.03       1.0  T
  31    -76.8027866 -0.154468E-02  0.128E-01    0.03       1.0  T
  32    -76.8025728  0.213805E-03  0.139E-01    0.03       1.0  T
  33    -76.8020278  0.544988E-03  0.167E-01    0.03       1.0  T
  34    -76.8026857 -0.657827E-03  0.136E-01    0.03       1.0  T
  35    -76.8035685 -0.882812E-03  0.689E-02    0.03       1.0  T
  36    -76.8037310 -0.162503E-03  0.322E-02    0.03       1.0  T
  37    -76.8037688 -0.378262E-04  0.266E-02    0.03       1.0  T
  38    -76.8037537  0.150795E-04  0.286E-02    0.03       1.0  T
  39    -76.8037571 -0.334717E-05  0.248E-02    0.03       1.0  T
  40    -76.8037646 -0.752399E-05  0.220E-02    0.03       1.0  T
  41    -76.8037917 -0.270751E-04  0.123E-02    0.03       1.5  T
  42    -76.8037959 -0.421667E-05  0.943E-03    0.03       1.9  T
  43    -76.8037997 -0.384535E-05  0.577E-03    0.03       3.1  T
  44    -76.8038019 -0.215857E-05  0.197E-03    0.03       9.1  T
  45    -76.8038019  0.276837E-08  0.197E-03    0.03       9.1  T
  46    -76.8038021 -0.199817E-06  0.851E-04    0.03      21.1  T
  47    -76.8038021 -0.270217E-07  0.476E-04    0.03      37.7  T

   *** convergence criteria satisfied after 47 iterations ***

         #    Occupation            Energy/Eh            Energy/eV
      -------------------------------------------------------------
         1        2.0000           -0.8680312             -23.6203
       ...           ...                  ...                  ...
        63        2.0000           -0.4353148             -11.8455
        64        2.0000           -0.4306095             -11.7175
        65        2.0000           -0.4274834             -11.6324
        66        1.9999           -0.4252824             -11.5725
        67        1.9662           -0.4192327             -11.4079
        68        1.6157           -0.4166333             -11.3372
        69        0.9183           -0.4148396             -11.2884 (HOMO)
        70        0.4893           -0.4137553             -11.2589 (LUMO)
        71        0.0104           -0.4096929             -11.1483
        72        0.0000           -0.4030801             -10.9684
        73                         -0.3977557             -10.8235
        74                         -0.3920881             -10.6693
       ...                                ...                  ...
       129                          1.3084844              35.6057
      -------------------------------------------------------------
                  HL-Gap            0.0010843 Eh            0.0295 eV
             Fermi-level           -0.4150296 Eh          -11.2935 eV

 SCC (total)                   0 d,  0 h,  0 min,  0.450 sec
 SCC setup                      ...        0 min,  0.000 sec (  0.101%)
 Dispersion                     ...        0 min,  0.002 sec (  0.342%)
 classical contributions        ...        0 min,  0.001 sec (  0.148%)
 integral evaluation            ...        0 min,  0.003 sec (  0.652%)
 iterations                     ...        0 min,  0.421 sec ( 93.609%)
 molecular gradient             ...        0 min,  0.018 sec (  4.039%)
 printout                       ...        0 min,  0.005 sec (  1.103%)

         :::::::::::::::::::::::::::::::::::::::::::::::::::::
         ::                     SUMMARY                     ::
         :::::::::::::::::::::::::::::::::::::::::::::::::::::
         :: total energy             -75.869530026992 Eh    ::
         :: gradient norm              0.487005321106 Eh/a0 ::
         :: HOMO-LUMO gap              0.029505574430 eV    ::
         ::.................................................::
         :: SCC energy               -76.803802104076 Eh    ::
         :: -> isotropic ES            0.042743143951 Eh    ::
         :: -> anisotropic ES          0.008808802725 Eh    ::
         :: -> anisotropic XC          0.051919886322 Eh    ::
         :: -> dispersion             -0.043584660336 Eh    ::
         :: repulsion energy           0.933841451220 Eh    ::
         :: add. restraining           0.000000000000 Eh    ::
         :: total charge              -0.000000000000 e     ::
         :::::::::::::::::::::::::::::::::::::::::::::::::::::

           -------------------------------------------------
          |                Property Printout                |
           -------------------------------------------------

    * Orbital Energies and Occupations

         #    Occupation            Energy/Eh            Energy/eV
      -------------------------------------------------------------
         1        2.0000           -0.8680312             -23.6203
       ...           ...                  ...                  ...
        57        2.0000           -0.4599905             -12.5170
        58        2.0000           -0.4591908             -12.4952
        59        2.0000           -0.4574871             -12.4489
        60        2.0000           -0.4472613             -12.1706
        61        2.0000           -0.4437151             -12.0741
        62        2.0000           -0.4374496             -11.9036
        63        2.0000           -0.4353148             -11.8455
        64        2.0000           -0.4306095             -11.7175
        65        2.0000           -0.4274834             -11.6324
        66        1.9999           -0.4252824             -11.5725
        67        1.9662           -0.4192327             -11.4079
        68        1.6157           -0.4166333             -11.3372
        69        0.9183           -0.4148396             -11.2884 (HOMO)
        70        0.4893           -0.4137553             -11.2589 (LUMO)
        71        0.0104           -0.4096929             -11.1483
        72        0.0000           -0.4030801             -10.9684
        73                         -0.3977557             -10.8235
        74                         -0.3920881             -10.6693
        75                         -0.3847792             -10.4704
        76                         -0.3576124              -9.7311
        77                         -0.3532628              -9.6128
        78                         -0.3270201              -8.8987
        79                         -0.3133256              -8.5260
        80                         -0.3108355              -8.4583
       ...                                ...                  ...
       129                          1.3084844              35.6057
      -------------------------------------------------------------
                  HL-Gap            0.0010843 Eh            0.0295 eV
             Fermi-level           -0.4150296 Eh          -11.2935 eV

     #   Z          covCN         q      C6AA      α(0)
     1   6 C        0.878    -0.013    35.600     9.968
     2   8 O        1.698    -0.002    14.508     5.143
     3   6 C        1.853     0.045    29.992     8.846
     4   6 C        1.845     0.071    29.369     8.755
     5   8 O        1.697    -0.112    16.009     5.402
     6   6 C        1.848     0.057    29.709     8.805
     7   6 C        1.961     0.037    30.124     8.863
     8   6 C        1.976     0.033    30.205     8.875
     9   6 C        2.748     0.327    21.451     7.584
    10   8 O        0.859    -0.350    20.703     6.100
    11   7 N        1.840    -0.227    26.814     7.674
    12   6 C        2.896     0.152    24.704     8.149
    13   6 C        1.988    -0.007    31.244     9.027
    14   6 C        1.989    -0.032    31.911     9.123
    15   6 C        2.915     0.124    25.282     8.245
    16   7 N        1.832    -0.127    24.537     7.340
    17   6 C        1.933     0.078    29.131     8.716
    18   6 C        2.952     0.030    27.340     8.576
    19   6 C        1.907     0.127    27.993     8.545
    20   7 N        0.911    -0.175    24.800     7.203
    21   6 C        2.896     0.132    25.104     8.215
    22   7 N        1.836    -0.154    25.114     7.426
    23   6 C        2.911     0.126    25.230     8.237
    24   6 C        1.991    -0.006    31.216     9.023
    25   6 C        1.986    -0.028    31.792     9.106
    26   6 C        2.062     0.004    30.868     8.974
    27   6 C        2.906     0.112    25.521     8.284
    28  35 Br       1.069    -0.070   186.949    22.046
    29   6 C        2.067    -0.082    33.179     9.305
    30   6 C        2.962     0.001    27.996     8.679
    31   6 C        1.997    -0.070    32.934     9.268

 Mol. C6AA /au·bohr⁶  :      28777.208509
 Mol. C8AA /au·bohr⁸  :     851900.897369
 Mol. α(0) /au        :        269.500526


Wiberg/Mayer (AO) data.
largest (>0.10) Wiberg bond orders for each atom

 ---------------------------------------------------------------------------
     #   Z sym  total        # sym  WBO       # sym  WBO       # sym  WBO
 ---------------------------------------------------------------------------
     1   6 C    2.130 --     2 O    1.558     3 C    0.281     4 C    0.199
     2   8 O    2.731 --     1 C    1.558     3 C    1.100
     3   6 C    3.355 --     4 C    1.814     2 O    1.100     1 C    0.281
     4   6 C    3.378 --     3 C    1.814     5 O    1.172     1 C    0.199
                             6 C    0.108
     5   8 O    2.515 --     4 C    1.172     6 C    1.082
     6   6 C    2.740 --     7 C    1.271     5 O    1.082     8 C    0.157
                             4 C    0.108
     7   6 C    3.940 --     8 C    2.530     6 C    1.271
     8   6 C    3.881 --     7 C    2.530     9 C    1.019     6 C    0.157
     9   6 C    3.929 --    10 O    1.665    11 N    1.183     8 C    1.019
    10   8 O    1.976 --     9 C    1.665    11 N    0.103
    11   7 N    2.868 --    12 C    1.292     9 C    1.183    14 C    0.104
                            10 O    0.103
    12   6 C    3.902 --    11 N    1.292    31 C    1.226    13 C    1.223
    13   6 C    3.722 --    14 C    1.783    12 C    1.223    17 C    0.185
                            31 C    0.153
    14   6 C    3.569 --    13 C    1.783    15 C    1.281    31 C    0.200
                            11 N    0.104
    15   6 C    3.868 --    14 C    1.281    16 N    1.190    30 C    1.139
    16   7 N    3.153 --    17 C    1.638    15 C    1.190
    17   6 C    3.832 --    16 N    1.638    18 C    1.571    13 C    0.185
    18   6 C    3.878 --    17 C    1.571    19 C    1.100    21 C    0.995
    19   6 C    3.945 --    20 N    2.794    18 C    1.100
    20   7 N    2.964 --    19 C    2.794
    21   6 C    3.958 --    22 N    1.656    30 C    1.049    18 C    0.995
    22   7 N    3.192 --    21 C    1.656    23 C    1.099
    23   6 C    3.951 --    29 C    1.354    24 C    1.311    22 N    1.099
    24   6 C    3.742 --    25 C    1.617    23 C    1.311    26 C    0.391
                            29 C    0.162    27 C    0.100
    25   6 C    3.771 --    26 C    1.634    24 C    1.617    29 C    0.408
    26   6 C    3.757 --    25 C    1.634    27 C    1.364    24 C    0.391
                            29 C    0.154
    27   6 C    3.928 --    29 C    1.419    26 C    1.364    28 Br   0.992
                            24 C    0.100
    28  35 Br   1.193 --    27 C    0.992
    29   6 C    3.642 --    27 C    1.419    23 C    1.354    25 C    0.408
                            24 C    0.162    26 C    0.154
    30   6 C    3.945 --    31 C    1.494    15 C    1.139    21 C    1.049
    31   6 C    3.443 --    30 C    1.494    12 C    1.226    14 C    0.200
                            13 C    0.153
 ---------------------------------------------------------------------------

Topologies differ in total number of bonds
Writing topology from bond orders to xtbtopo.mol

molecular dipole:
                 x           y           z       tot (Debye)
 q only:       -0.575       0.190      -0.321
   full:       -0.214      -0.447       0.546       1.874
molecular quadrupole (traceless):
Note: The following floating-point exceptions are signalling: IEEE_UNDERFLOW_FLAG IEEE_DENORMAL
normal termination of xtb
                xx          xy          yy          xz          yz          zz
 q only:        7.552       2.258     -19.368       2.394       7.345      11.816
  q+dip:       13.385       1.893     -27.329       1.796       7.219      13.944
   full:       13.666       0.736     -28.973      -3.644       6.266      15.306


           -------------------------------------------------
          | TOTAL ENERGY              -75.869530026992 Eh   |
          | GRADIENT NORM               0.487005321106 Eh/α |
          | HOMO-LUMO GAP               0.029505574430 eV   |
           -------------------------------------------------

------------------------------------------------------------------------
 * finished run on 2026/07/23 at 16:37:07.280     
------------------------------------------------------------------------
 total:
 * wall-time:     0 d,  0 h,  0 min,  0.470 sec
 *  cpu-time:     0 d,  0 h,  0 min,  0.440 sec
 * ratio c/w:     0.936 speedup
 SCF:
 * wall-time:     0 d,  0 h,  0 min,  0.450 sec
 *  cpu-time:     0 d,  0 h,  0 min,  0.420 sec
 * ratio c/w:     0.934 speedup

