      -----------------------------------------------------------      
     |                   =====================                   |     
     |                           x T B                           |     
     |                   =====================                   |     
     |                         S. Grimme                         |     
     |          Mulliken Center for Theoretical Chemistry        |     
     |                    University of Bonn                     |     
      -----------------------------------------------------------      

   * xtb version 6.6.1 (unknown) compiled by 'builduser@buildhost' on 2023-08-07

   xtb is free software: you can redistribute it and/or modify it under
   the terms of the GNU Lesser General Public License as published by
   the Free Software Foundation, either version 3 of the License, or
   (at your option) any later version.
   
   xtb is distributed in the hope that it will be useful,
   but WITHOUT ANY WARRANTY; without even the implied warranty of
   MERCHANTABILITY or FITNESS FOR A PARTICULAR PURPOSE.  See the
   GNU Lesser General Public License for more details.
   
   Cite this work as:
   * C. Bannwarth, E. Caldeweyher, S. Ehlert, A. Hansen, P. Pracht,
     J. Seibert, S. Spicher, S. Grimme, WIREs Comput. Mol. Sci., 2020, 11,
     e01493. DOI: 10.1002/wcms.1493
   
   for GFN2-xTB:
   * C. Bannwarth, S. Ehlert and S. Grimme., J. Chem. Theory Comput., 2019,
     15, 1652-1671. DOI: 10.1021/acs.jctc.8b01176
   for GFN1-xTB:
   * S. Grimme, C. Bannwarth, P. Shushkov, J. Chem. Theory Comput., 2017,
     13, 1989-2009. DOI: 10.1021/acs.jctc.7b00118
   for GFN0-xTB:
   * P. Pracht, E. Caldeweyher, S. Ehlert, S. Grimme, ChemRxiv, 2019, preprint.
     DOI: 10.26434/chemrxiv.8326202.v1
   for GFN-FF:
   * S. Spicher and S. Grimme, Angew. Chem. Int. Ed., 2020, 59, 15665-15673.
     DOI: 10.1002/anie.202004239
   
   for ALPB and GBSA implicit solvation:
   * S. Ehlert, M. Stahn, S. Spicher, S. Grimme, J. Chem. Theory Comput.,
     2021, 17, 4250-4261. DOI: 10.1021/acs.jctc.1c00471
   
   for DFT-D4:
   * E. Caldeweyher, C. Bannwarth and S. Grimme, J. Chem. Phys., 2017,
     147, 034112. DOI: 10.1063/1.4993215
   * E. Caldeweyher, S. Ehlert, A. Hansen, H. Neugebauer, S. Spicher,
     C. Bannwarth and S. Grimme, J. Chem. Phys., 2019, 150, 154122.
     DOI: 10.1063/1.5090222
   * E. Caldeweyher, J.-M. Mewes, S. Ehlert and S. Grimme, Phys. Chem. Chem. Phys.
     2020, 22, 8499-8512. DOI: 10.1039/D0CP00502A
   
   for sTDA-xTB:
   * S. Grimme and C. Bannwarth, J. Chem. Phys., 2016, 145, 054103.
     DOI: 10.1063/1.4959605
   
   in the mass-spec context:
   * V. Asgeirsson, C. Bauer and S. Grimme, Chem. Sci., 2017, 8, 4879.
     DOI: 10.1039/c7sc00601b
   * J. Koopman and S. Grimme, ACS Omega 2019, 4, 12, 15120-15133.
     DOI: 10.1021/acsomega.9b02011
   
   for metadynamics refer to:
   * S. Grimme, J. Chem. Theory Comput., 2019, 155, 2847-2862
     DOI: 10.1021/acs.jctc.9b00143
   
   for SPH calculations refer to:
   * S. Spicher and S. Grimme, J. Chem. Theory Comput., 2021, 17, 1701-1714
     DOI: 10.1021/acs.jctc.0c01306
   
   with help from (in alphabetical order)
   P. Atkinson, C. Bannwarth, F. Bohle, G. Brandenburg, E. Caldeweyher
   M. Checinski, S. Dohm, S. Ehlert, S. Ehrlich, I. Gerasimov, C. Hölzer
   A. Katbashev, J. Koopman, C. Lavigne, S. Lehtola, F. März, M. Müller,
   F. Musil, H. Neugebauer, J. Pisarek, C. Plett, P. Pracht, F. Pultar,
   J. Seibert, P. Shushkov, S. Spicher, M. Stahn, M. Steiner, T. Strunk,
   J. Stückrath, T. Rose, and J. Unsleber
   
 * started run on 2026/07/23 at 16:39:55.926     

           -------------------------------------------------
          |                Calculation Setup                |
           -------------------------------------------------

          program call               : xtb /home/selva/covalent_quantum_benchmark/data/quantum/erbB_xyz/ERBB2__CHEMBL140561__state03.xyz --gfn2 --chrg 0 --uhf 0 --iterations 300
          coordinate file            : /home/selva/covalent_quantum_benchmark/data/quantum/erbB_xyz/ERBB2__CHEMBL140561__state03.xyz
          omp threads                :                    24

   ID    Z sym.   atoms
    1    6 C      1, 3-6, 8, 10-12, 15-18, 20, 22, 24-28, 30-32
    2    7 N      2, 14, 19, 21, 23
    3    8 O      7, 9, 13
    4   35 Br     29

           -------------------------------------------------
          |                 G F N 2 - x T B                 |
           -------------------------------------------------

        Reference                      10.1021/acs.jctc.8b01176
      * Hamiltonian:
        H0-scaling (s, p, d)           1.850000    2.230000    2.230000
        zeta-weighting                 0.500000
      * Dispersion:
        s8                             2.700000
        a1                             0.520000
        a2                             5.000000
        s9                             5.000000
      * Repulsion:
        kExp                           1.500000    1.000000
        rExp                           1.000000
      * Coulomb:
        alpha                          2.000000
        third order                    shell-resolved
        anisotropic                    true
        a3                             3.000000
        a5                             4.000000
        cn-shift                       1.200000
        cn-exp                         4.000000
        max-rad                        5.000000


          ...................................................
          :                      SETUP                      :
          :.................................................:
          :  # basis functions                 134          :
          :  # atomic orbitals                 133          :
          :  # shells                           65          :
          :  # electrons                       142          :
          :  max. iterations                   300          :
          :  Hamiltonian                  GFN2-xTB          :
          :  restarted?                      false          :
          :  GBSA solvation                  false          :
          :  PC potential                    false          :
          :  electronic temp.          300.0000000     K    :
          :  accuracy                    1.0000000          :
          :  -> integral cutoff          0.2500000E+02      :
          :  -> integral neglect         0.1000000E-07      :
          :  -> SCF convergence          0.1000000E-05 Eh   :
          :  -> wf. convergence          0.1000000E-03 e    :
          :  Broyden damping             0.4000000          :
          ...................................................

 iter      E             dE          RMSdq      gap      omega  full diag
   1    -78.6225205 -0.786225E+02  0.853E+00    0.02       0.0  T
   2    -61.3310678  0.172915E+02  0.130E+01    0.38       1.0  T
   3    -52.6716076  0.865946E+01  0.127E+01    0.07       1.0  T
   4    -64.2335264 -0.115619E+02  0.106E+01    0.06       1.0  T
   5    -71.3300708 -0.709654E+01  0.881E+00    0.10       1.0  T
   6    -77.4217125 -0.609164E+01  0.632E+00    0.27       1.0  T
   7    -78.2885025 -0.866790E+00  0.476E+00    0.29       1.0  T
   8    -78.6029829 -0.314480E+00  0.410E+00    0.05       1.0  T
   9    -78.5827953  0.201876E-01  0.362E+00    0.36       1.0  T
  10    -78.9454019 -0.362607E+00  0.295E+00    0.05       1.0  T
  11    -79.1794878 -0.234086E+00  0.243E+00    0.01       1.0  T
  12    -79.2295871 -0.500993E-01  0.219E+00    0.02       1.0  T
  13    -79.1079767  0.121610E+00  0.235E+00    0.03       1.0  T
  14    -79.3391841 -0.231207E+00  0.168E+00    0.07       1.0  T
  15    -79.3533955 -0.142114E-01  0.167E+00    0.08       1.0  T
  16    -79.3028149  0.505806E-01  0.185E+00    0.03       1.0  T
  17    -79.2318790  0.709359E-01  0.189E+00    0.05       1.0  T
  18    -79.2422718 -0.103928E-01  0.157E+00    0.02       1.0  T
  19    -78.7495752  0.492697E+00  0.288E+00    0.06       1.0  T
  20    -78.7823967 -0.328215E-01  0.280E+00    0.06       1.0  T
  21    -79.0945679 -0.312171E+00  0.209E+00    0.01       1.0  T
  22    -79.2665198 -0.171952E+00  0.139E+00    0.01       1.0  T
  23    -79.4001133 -0.133594E+00  0.679E-01    0.04       1.0  T
  24    -79.4052029 -0.508963E-02  0.628E-01    0.05       1.0  T
  25    -79.3887031  0.164999E-01  0.762E-01    0.04       1.0  T
  26    -79.4133093 -0.246063E-01  0.453E-01    0.04       1.0  T
  27    -79.3882329  0.250764E-01  0.723E-01    0.04       1.0  T
  28    -79.4274718 -0.392389E-01  0.379E-01    0.05       1.0  T
  29    -79.4233030  0.416880E-02  0.422E-01    0.05       1.0  T
  30    -79.4300510 -0.674803E-02  0.211E-01    0.06       1.0  T
  31    -79.4333384 -0.328742E-02  0.904E-02    0.06       1.0  T
  32    -79.4313474  0.199098E-02  0.161E-01    0.05       1.0  T
  33    -79.4324562 -0.110879E-02  0.147E-01    0.05       1.0  T
  34    -79.4325337 -0.775072E-04  0.135E-01    0.05       1.0  T
  35    -79.4307612  0.177256E-02  0.207E-01    0.05       1.0  T
  36    -79.4330243 -0.226317E-02  0.885E-02    0.05       1.0  T
  37    -79.4335797 -0.555325E-03  0.445E-02    0.05       1.0  T
  38    -79.4336024 -0.227622E-04  0.385E-02    0.05       1.0  T
  39    -79.4337038 -0.101414E-03  0.175E-02    0.05       1.0  T
  40    -79.4335537  0.150087E-03  0.424E-02    0.05       1.0  T
  41    -79.4336250 -0.712176E-04  0.346E-02    0.05       1.0  T
  42    -79.4337186 -0.936857E-04  0.406E-03    0.05       4.4  T
  43    -79.4337186  0.704191E-07  0.357E-03    0.05       5.0  T
  44    -79.4337162  0.240442E-05  0.631E-03    0.05       2.8  T
  45    -79.4337191 -0.293746E-05  0.153E-03    0.05      11.6  T
  46    -79.4337192 -0.982375E-07  0.108E-03    0.05      16.3  T
  47    -79.4337193 -0.925621E-07  0.328E-04    0.05      53.9  T
  48    -79.4337193 -0.332828E-08  0.198E-04    0.05      89.5  T

   *** convergence criteria satisfied after 48 iterations ***

         #    Occupation            Energy/Eh            Energy/eV
      -------------------------------------------------------------
         1        2.0000           -0.8724992             -23.7419
       ...           ...                  ...                  ...
        65        2.0000           -0.4444506             -12.0941
        66        2.0000           -0.4418062             -12.0222
        67        2.0000           -0.4375338             -11.9059
        68        1.9957           -0.4324564             -11.7677
        69        1.9218           -0.4296623             -11.6917
        70        1.6640           -0.4281411             -11.6503
        71        1.5050           -0.4276776             -11.6377 (HOMO)
        72        0.5479           -0.4256952             -11.5838 (LUMO)
        73        0.3656           -0.4251984             -11.5702
        74        0.0000           -0.4118925             -11.2082
        75                         -0.4039508             -10.9921
        76                         -0.4018453             -10.9348
       ...                                ...                  ...
       133                          0.5937118              16.1557
      -------------------------------------------------------------
                  HL-Gap            0.0019825 Eh            0.0539 eV
             Fermi-level           -0.4266211 Eh          -11.6090 eV

 SCC (total)                   0 d,  0 h,  0 min,  0.413 sec
 SCC setup                      ...        0 min,  0.000 sec (  0.059%)
 Dispersion                     ...        0 min,  0.001 sec (  0.219%)
 classical contributions        ...        0 min,  0.001 sec (  0.148%)
 integral evaluation            ...        0 min,  0.004 sec (  1.043%)
 iterations                     ...        0 min,  0.385 sec ( 93.331%)
 molecular gradient             ...        0 min,  0.020 sec (  4.789%)
 printout                       ...        0 min,  0.002 sec (  0.403%)

         :::::::::::::::::::::::::::::::::::::::::::::::::::::
         ::                     SUMMARY                     ::
         :::::::::::::::::::::::::::::::::::::::::::::::::::::
         :: total energy             -78.613457169455 Eh    ::
         :: gradient norm              0.521674901521 Eh/a0 ::
         :: HOMO-LUMO gap              0.053946032509 eV    ::
         ::.................................................::
         :: SCC energy               -79.433719306582 Eh    ::
         :: -> isotropic ES            0.050109714321 Eh    ::
         :: -> anisotropic ES          0.007788261483 Eh    ::
         :: -> anisotropic XC          0.034013792314 Eh    ::
         :: -> dispersion             -0.044165586375 Eh    ::
         :: repulsion energy           0.819561589782 Eh    ::
         :: add. restraining           0.000000000000 Eh    ::
         :: total charge               0.000000000664 e     ::
         :::::::::::::::::::::::::::::::::::::::::::::::::::::

           -------------------------------------------------
          |                Property Printout                |
           -------------------------------------------------

    * Orbital Energies and Occupations

         #    Occupation            Energy/Eh            Energy/eV
      -------------------------------------------------------------
         1        2.0000           -0.8724992             -23.7419
       ...           ...                  ...                  ...
        59        2.0000           -0.4637823             -12.6202
        60        2.0000           -0.4620269             -12.5724
        61        2.0000           -0.4539360             -12.3522
        62        2.0000           -0.4508209             -12.2675
        63        2.0000           -0.4504666             -12.2578
        64        2.0000           -0.4487827             -12.2120
        65        2.0000           -0.4444506             -12.0941
        66        2.0000           -0.4418062             -12.0222
        67        2.0000           -0.4375338             -11.9059
        68        1.9957           -0.4324564             -11.7677
        69        1.9218           -0.4296623             -11.6917
        70        1.6640           -0.4281411             -11.6503
        71        1.5050           -0.4276776             -11.6377 (HOMO)
        72        0.5479           -0.4256952             -11.5838 (LUMO)
        73        0.3656           -0.4251984             -11.5702
        74        0.0000           -0.4118925             -11.2082
        75                         -0.4039508             -10.9921
        76                         -0.4018453             -10.9348
        77                         -0.3999165             -10.8823
        78                         -0.3697761             -10.0621
        79                         -0.3685451             -10.0286
        80                         -0.3670152              -9.9870
        81                         -0.3636028              -9.8941
        82                         -0.3597268              -9.7887
       ...                                ...                  ...
       133                          0.5937118              16.1557
      -------------------------------------------------------------
                  HL-Gap            0.0019825 Eh            0.0539 eV
             Fermi-level           -0.4266211 Eh          -11.6090 eV

     #   Z          covCN         q      C6AA      α(0)
     1   6 C        0.928    -0.085    38.208    10.354
     2   7 N        2.721     0.210    17.792     6.265
     3   6 C        0.928    -0.065    37.563    10.266
     4   6 C        1.897     0.002    31.061     9.001
     5   6 C        1.951    -0.001    31.115     9.008
     6   6 C        1.857     0.071    29.348     8.751
     7   8 O        1.703    -0.159    16.708     5.519
     8   6 C        2.726     0.377    20.612     7.433
     9   8 O        0.857    -0.336    20.435     6.061
    10   6 C        1.974    -0.026    31.759     9.101
    11   6 C        1.970     0.025    30.425     8.908
    12   6 C        2.798     0.293    22.029     7.689
    13   8 O        0.862    -0.351    20.719     6.103
    14   7 N        1.831    -0.133    24.650     7.357
    15   6 C        2.936     0.135    25.056     8.209
    16   6 C        1.993    -0.021    31.599     9.078
    17   6 C        1.989    -0.014    31.421     9.052
    18   6 C        2.923     0.134    25.075     8.212
    19   7 N        1.831    -0.160    25.250     7.446
    20   6 C        1.908     0.173    26.947     8.384
    21   7 N        1.831    -0.186    25.838     7.532
    22   6 C        2.909     0.201    23.734     7.988
    23   7 N        1.839    -0.151    25.046     7.417
    24   6 C        2.934     0.132    25.109     8.218
    25   6 C        1.992     0.012    30.745     8.955
    26   6 C        1.986    -0.015    31.439     9.055
    27   6 C        2.061     0.014    30.600     8.935
    28   6 C        2.906     0.115    25.463     8.274
    29  35 Br       1.068    -0.055   186.512    22.020
    30   6 C        2.066    -0.079    33.090     9.292
    31   6 C        2.978     0.004    27.934     8.670
    32   6 C        1.991    -0.064    32.794     9.248

 Mol. C6AA /au·bohr⁶  :      30590.356300
 Mol. C8AA /au·bohr⁸  :     898146.943545
 Mol. α(0) /au        :        277.800158


Wiberg/Mayer (AO) data.
largest (>0.10) Wiberg bond orders for each atom

 ---------------------------------------------------------------------------
     #   Z sym  total        # sym  WBO       # sym  WBO       # sym  WBO
 ---------------------------------------------------------------------------
     1   6 C    2.444 --     2 N    1.331     3 C    0.447     4 C    0.354
                             6 C    0.155     5 C    0.131
     2   7 N    3.721 --     3 C    1.359     1 C    1.331     4 C    0.990
     3   6 C    2.369 --     2 N    1.359     1 C    0.447     4 C    0.363
     4   6 C    3.390 --     5 C    1.535     2 N    0.990     3 C    0.363
                             1 C    0.354     6 C    0.111
     5   6 C    3.585 --     6 C    1.721     4 C    1.535     1 C    0.131
     6   6 C    3.241 --     5 C    1.721     7 O    1.102     1 C    0.155
                             4 C    0.111
     7   8 O    2.448 --     6 C    1.102     8 C    1.058     9 O    0.127
     8   6 C    3.920 --     9 O    1.759     7 O    1.058    10 C    1.021
     9   8 O    2.055 --     8 C    1.759     7 O    0.127
    10   6 C    3.808 --    11 C    2.527     8 C    1.021
    11   6 C    3.754 --    10 C    2.527    12 C    0.965
    12   6 C    3.939 --    14 N    1.483    13 O    1.407    11 C    0.965
    13   8 O    1.811 --    12 C    1.407    14 N    0.198
    14   7 N    3.105 --    12 C    1.483    15 C    1.189    13 O    0.198
    15   6 C    3.905 --    32 C    1.286    16 C    1.237    14 N    1.189
    16   6 C    3.711 --    17 C    1.752    15 C    1.237    32 C    0.223
                            20 C    0.117
    17   6 C    3.480 --    16 C    1.752    18 C    1.294    32 C    0.175
    18   6 C    3.881 --    17 C    1.294    19 N    1.173    31 C    1.166
    19   7 N    3.107 --    20 C    1.578    18 C    1.173
    20   6 C    3.843 --    21 N    1.732    19 N    1.578    23 N    0.133
                            16 C    0.117
    21   7 N    3.167 --    20 C    1.732    22 C    1.090
    22   6 C    3.951 --    23 N    1.594    21 N    1.090    31 C    1.055
    23   7 N    3.232 --    22 C    1.594    24 C    1.088    20 C    0.133
    24   6 C    3.953 --    30 C    1.356    25 C    1.323    23 N    1.088
                            27 C    0.101
    25   6 C    3.746 --    26 C    1.623    24 C    1.323    27 C    0.387
                            30 C    0.157    28 C    0.101
    26   6 C    3.740 --    27 C    1.632    25 C    1.623    30 C    0.382
    27   6 C    3.745 --    26 C    1.632    28 C    1.366    25 C    0.387
                            30 C    0.156    24 C    0.101
    28   6 C    3.928 --    30 C    1.414    27 C    1.366    29 Br   0.997
                            25 C    0.101
    29  35 Br   1.205 --    28 C    0.997
    30   6 C    3.589 --    28 C    1.414    24 C    1.356    26 C    0.382
                            25 C    0.157    27 C    0.156
    31   6 C    3.936 --    32 C    1.447    18 C    1.166    22 C    1.055
    32   6 C    3.444 --    31 C    1.447    15 C    1.286    16 C    0.223
                            17 C    0.175
Note: The following floating-point exceptions are signalling: IEEE_UNDERFLOW_FLAG IEEE_DENORMAL
normal termination of xtb
 ---------------------------------------------------------------------------

Topologies differ in total number of bonds
Writing topology from bond orders to xtbtopo.mol

molecular dipole:
                 x           y           z       tot (Debye)
 q only:       -1.954       1.053      -0.282
   full:       -1.847       1.486       0.184       6.043
molecular quadrupole (traceless):
                xx          xy          yy          xz          yz          zz
 q only:      -23.825       4.990       2.942       1.055      12.336      20.882
  q+dip:      -34.823      -1.566       5.732      -7.361      13.729      29.091
   full:      -35.979      -1.137       6.929      -8.389      16.395      29.050


           -------------------------------------------------
          | TOTAL ENERGY              -78.613457169455 Eh   |
          | GRADIENT NORM               0.521674901521 Eh/α |
          | HOMO-LUMO GAP               0.053946032509 eV   |
           -------------------------------------------------

------------------------------------------------------------------------
 * finished run on 2026/07/23 at 16:39:56.372     
------------------------------------------------------------------------
 total:
 * wall-time:     0 d,  0 h,  0 min,  0.446 sec
 *  cpu-time:     0 d,  0 h,  0 min,  0.452 sec
 * ratio c/w:     1.013 speedup
 SCF:
 * wall-time:     0 d,  0 h,  0 min,  0.413 sec
 *  cpu-time:     0 d,  0 h,  0 min,  0.433 sec
 * ratio c/w:     1.050 speedup

