32

C     -0.004929   -0.233338   -5.900744
C     -0.346026   -1.420036   -5.380339
C     -0.590182   -1.696960   -3.936319
O     -0.358571   -2.822879   -3.515434
N     -1.109007   -0.635044   -3.239269
C     -1.451352   -0.564617   -1.868334
C     -1.266267   -1.623796   -0.976652
C     -1.632163   -1.475168    0.368019
C     -1.447462   -2.582862    1.359067
N     -0.919696   -3.702514    0.963324
C     -0.741278   -4.743600    1.880797
C     -1.737910   -5.709197    2.048445
C     -1.568295   -6.750593    2.962354
C     -0.392478   -6.835423    3.707618
C      0.609312   -5.882200    3.526685
Br     2.207088   -6.000999    4.530387
C      0.442613   -4.841532    2.614404
N     -1.874299   -2.271906    2.629829
C     -2.407537   -1.073184    2.990484
N     -2.586993   -0.070981    2.193452
C     -2.193478   -0.273299    0.847006
C     -2.371180    0.780929   -0.048125
C     -1.993445    0.652275   -1.391980
S     -2.214233    2.059163   -2.497245
C     -1.021768    3.233162   -1.751902
C      0.421376    2.798073   -2.008459
C      1.439870    3.791986   -1.428578
N      1.318910    4.028985    0.019555
C      1.453485    2.810547    0.840720
C      2.774408    2.055242    0.725176
C      2.238242    5.083277    0.483630
C      1.816612    6.476816    0.027135
