27

O      1.966666    2.076684    0.483666
C      1.665253    3.112959   -0.093240
C      2.514148    4.329297    0.036575
C      3.620555    4.296432    0.797696
C      4.546962    5.436425    1.005091
F      4.630391    5.773235    2.313932
F      4.155563    6.548245    0.332938
F      5.799501    5.139232    0.585854
N      0.562160    3.334572   -0.891260
C     -0.433938    2.398875   -1.242646
C     -1.521276    2.863568   -1.979500
C     -2.546154    1.988145   -2.355376
C     -2.524165    0.642985   -2.017110
N     -3.538865   -0.127365   -2.414123
C     -3.474316   -1.419215   -2.077723
N     -2.499199   -2.004386   -1.378660
C     -1.484466   -1.220639   -0.970627
N     -0.425304   -1.788857   -0.212541
C     -0.128647   -3.149457    0.025498
C      0.653269   -3.485080    1.143912
C      1.026587   -4.808234    1.397986
C      0.642989   -5.818514    0.520881
C     -0.100080   -5.494339   -0.610739
Br    -0.597383   -6.858936   -1.823208
C     -0.472685   -4.172459   -0.865660
C     -1.438552    0.155675   -1.278692
C     -0.392841    1.046307   -0.906462
