24

N     -1.516034    3.316116   -1.573192
C     -1.050595    3.775606   -0.613802
C     -0.492900    4.384658    0.543672
C      0.082523    3.677958    1.537007
C      0.215415    2.217501    1.549601
C     -0.552419    1.462892    2.438154
C     -0.442266    0.080502    2.420235
O     -1.240046   -0.650655    3.254148
C      0.440872   -0.560442    1.550162
O      0.574928   -1.918493    1.634626
C      1.199787    0.166184    0.630726
C      2.156622   -0.515301   -0.318734
S      2.033669    0.053703   -2.049611
C      0.365506   -0.548415   -2.468602
C      0.299624   -2.045303   -2.637779
C      0.895175   -2.666544   -3.746180
C      0.832482   -4.052056   -3.903169
C      0.173624   -4.832221   -2.955410
C     -0.422662   -4.227991   -1.850504
C     -0.361379   -2.842257   -1.692646
C      1.094287    1.570412    0.665313
C     -0.545142    5.868704    0.706630
N     -1.110992    6.589525   -0.301817
O     -0.104667    6.446385    1.695468
