32

C     -0.789900    0.729399    5.198095
O     -1.022725    0.371452    3.842076
C     -0.125950    1.021672    2.933173
C     -0.678535    2.390179    2.492408
C     -2.011539    2.249910    1.745729
C     -2.007144    3.362447    0.705765
C     -0.754672    4.168945    1.000095
N      0.167183    3.156636    1.542004
C      1.330647    3.749753    2.212464
C      2.184402    4.567747    1.288201
C      3.035938    4.132243    0.344003
C      3.297595    2.727009   -0.074427
O      4.444662    2.414182   -0.368253
N      2.168723    1.954204   -0.169100
C      2.067815    0.620177   -0.606492
C      3.160782   -0.176588   -0.954249
C      2.976154   -1.507465   -1.357537
C      1.699819   -2.066317   -1.419061
N      1.574324   -3.421990   -1.814028
C      0.369914   -3.892719   -1.830572
N     -0.751851   -3.189206   -1.512782
C     -0.756635   -1.865927   -1.136791
N     -1.788877   -1.132382   -0.840229
C     -3.067033   -1.699542   -0.878553
C     -3.800876   -1.707990   -2.068160
C     -5.074273   -2.279086   -2.109889
C     -5.623748   -2.834494   -0.954553
C     -4.899412   -2.806573    0.236752
Br    -5.648475   -3.550738    1.804347
C     -3.627436   -2.237788    0.281273
C      0.603661   -1.251378   -1.077128
C      0.782559    0.077830   -0.681913
