33

C     -2.050324   -2.747790   -3.823435
C     -1.650925   -3.256174   -2.650679
C     -0.790395   -2.549659   -1.683293
O     -0.446474   -1.318962   -2.103832
N     -0.414294   -3.084033   -0.570137
C      0.419663   -2.407019    0.335974
C      1.709263   -2.920365    0.527616
C      2.595366   -2.330192    1.429336
C      4.004519   -2.796580    1.690419
N      4.742951   -3.684156    1.077675
C      4.368006   -4.389753   -0.060709
C      3.961380   -5.724219    0.051909
C      3.629454   -6.459588   -1.087236
C      3.724919   -5.862598   -2.340605
F      3.402189   -6.584598   -3.423653
C      4.156257   -4.543287   -2.465953
Cl     4.287406   -3.805431   -4.015860
C      4.488659   -3.808666   -1.327636
N      4.615457   -2.153408    2.737071
C      4.104965   -1.092748    3.409176
N      2.937859   -0.583603    3.192900
C      2.152977   -1.225453    2.201609
C      0.857534   -0.722606    2.016910
C     -0.014037   -1.303739    1.095436
O     -1.284317   -0.857110    0.837957
C     -1.862709    0.057419    1.768615
C     -3.338704    0.237756    1.415106
O     -4.002938    1.116938    2.322923
C     -3.825106    2.496463    1.998885
C     -4.633140    3.321529    2.994648
C     -4.401581    4.829869    2.881186
C     -4.698115    5.417287    1.506114
O     -6.004450    5.071375    1.075099
