16

N      0.026060    5.561779    0.145130
C     -0.150523    4.420969    0.026834
C     -0.452314    3.031577   -0.081858
C     -1.739484    2.641241    0.378090
N     -2.784880    2.297191    0.747135
C      0.413743    2.131689   -0.585282
C      1.787087    2.511599   -1.082127
O      2.291488    3.614385   -1.103891
N      2.361117    1.332749   -1.512978
C      1.503106    0.254360   -1.342881
C      1.772648   -1.059492   -1.672034
C      0.772920   -1.997533   -1.420704
C     -0.445379   -1.597032   -0.856895
O     -1.378037   -2.569551   -0.638678
C     -0.704612   -0.263214   -0.528615
C      0.288987    0.670913   -0.778100
