32

C     -2.009667    1.556500   -2.891166
O     -2.344859    0.465639   -3.740286
C     -3.709194    0.068776   -3.563170
C     -4.105867   -1.015609   -4.587055
C     -5.638322   -1.152211   -4.643079
C     -5.903046   -2.645034   -4.743435
C     -4.742347   -3.243747   -3.975271
N     -3.643963   -2.398879   -4.407614
C     -2.328567   -2.674443   -3.871901
C     -2.186305   -2.588893   -2.381288
C     -1.244647   -1.853910   -1.768060
C     -1.162522   -1.804046   -0.281516
O     -1.972214   -2.397917    0.418095
N     -0.101973   -1.029916    0.144287
C      0.275631   -0.752822    1.475269
C     -0.404340   -1.233016    2.598610
C      0.031986   -0.917475    3.892840
C      1.160513   -0.122442    4.079278
N      1.613163    0.234602    5.348643
C      2.740120    0.993143    5.448219
N      3.440530    1.490271    4.486530
C      3.027612    1.233826    3.193180
N      3.660751    1.728235    2.170986
C      4.785394    2.536047    2.391588
C      4.649439    3.926548    2.452741
C      5.767857    4.742150    2.635937
C      7.033930    4.168454    2.748335
C      7.171929    2.782893    2.672230
Br     8.889412    2.004103    2.816050
C      6.057013    1.966798    2.487822
C      1.833540    0.369458    2.956014
C      1.400443    0.056786    1.661830
