30

C     -6.601902   -1.953878    4.046484
O     -5.910672   -0.996417    4.834421
C     -4.501812   -0.970703    4.599418
C     -4.087739   -0.524403    3.178793
N     -4.705511    0.721720    2.694942
C     -4.444491    1.872796    3.550896
C     -4.439454    0.977625    1.278036
C     -2.999850    1.239869    0.933728
C     -2.283154    0.457035    0.110343
C     -0.874268    0.718664   -0.293172
O     -0.531105    0.408094   -1.425500
N     -0.093081    1.242274    0.711247
C      1.273561    1.589389    0.651865
C      1.842832    2.089892    1.826784
C      3.177944    2.491001    1.851714
C      3.977986    2.380966    0.712904
N      5.302012    2.875584    0.822712
C      6.004823    2.847851   -0.260375
N      5.571014    2.351202   -1.444594
C      4.368328    1.719902   -1.641343
N      4.252540    1.104288   -2.788318
C      3.181961    0.290506   -3.150841
C      2.276771    0.732405   -4.119890
C      1.226254   -0.088078   -4.534585
C      1.086375   -1.365183   -3.992130
C      2.004983   -1.816917   -3.045939
Br     1.820735   -3.550654   -2.313850
C      3.058597   -1.002370   -2.634010
C      3.424221    1.827167   -0.470775
C      2.067149    1.472081   -0.495692
