32

N     -6.096093    0.580520   -2.794049
C     -5.610531    0.047127   -1.884324
C     -5.074851   -0.628854   -0.743746
C     -5.944550   -1.175501    0.181195
N     -5.551278   -1.847626    1.286452
C     -4.237296   -1.987045    1.511143
C     -3.838219   -2.654472    2.660584
C     -2.489961   -2.835193    2.977472
C     -1.506127   -2.350574    2.124371
N     -0.151805   -2.499079    2.427975
C      0.450059   -3.603764    2.157733
O     -0.060318   -4.709410    1.594331
C      1.840055   -3.631756    2.490257
C      3.013150   -3.617145    2.751976
C      4.447835   -3.556522    3.059947
N      5.154775   -2.459416    2.389692
C      4.691007   -1.118981    2.784033
C      3.829517   -0.367530    1.760455
S      4.715076   -0.024972    0.199724
C      5.854836   -1.451339    0.196356
C      5.278585   -2.661820    0.938873
C     -1.888492   -1.662688    0.971842
C     -3.252179   -1.476848    0.635819
C     -3.698204   -0.791440   -0.529567
N     -2.767122   -0.224635   -1.444243
C     -2.276084    1.106922   -1.404970
C     -2.829137    2.097869   -0.582754
C     -2.350160    3.411197   -0.619954
C     -1.324742    3.757034   -1.496621
C     -0.789925    2.787249   -2.339070
Br     0.587081    3.253085   -3.548507
C     -1.264822    1.474850   -2.304371
