29

C     -5.161921   -3.511312    0.596495
C     -4.572924   -2.569078   -0.151147
C     -3.485104   -1.714452    0.390725
O     -3.071572   -1.821270    1.539246
N     -3.054299   -0.839902   -0.566377
C     -2.104817    0.008496   -0.287008
N     -1.456804    0.126256    0.924800
C     -0.449898    1.034178    1.146424
C      0.237214    1.099340    2.486380
N     -0.139245    0.294094    3.437089
C      0.509183    0.361829    4.675936
C     -0.049994    1.114304    5.715273
C      0.572125    1.167794    6.963290
C      1.749835    0.457036    7.171436
F      2.335251    0.520887    8.376762
C      2.306037   -0.309456    6.148722
Cl     3.759692   -1.196158    6.408798
C      1.682764   -0.364181    4.902789
N      1.258530    2.017617    2.667370
C      1.568623    2.779258    1.672419
N      0.975702    2.771591    0.447290
C     -0.035735    1.885664    0.190288
C     -0.683804    1.835763   -1.113894
C     -1.672463    0.962391   -1.415430
O     -2.336760    0.831561   -2.612680
C     -1.995719    1.652811   -3.731614
C     -0.852014    1.045675   -4.546476
O      0.409775    1.453845   -4.005723
C      1.492467    0.824394   -4.680441
