32

C     -0.226476    2.793109    4.331952
C      0.923626    2.947900    3.662236
C      1.158137    2.540652    2.248817
O      1.980256    3.165621    1.589142
N      0.452824    1.430450    1.855864
C      0.440525    0.815883    0.584755
C      1.059009    1.360613   -0.539381
C      1.026996    0.692406   -1.790144
C      1.637271    1.156230   -2.975121
N      2.364526    2.376169   -2.939241
C      2.862579    3.152923   -4.008857
C      2.275781    3.164349   -5.280509
C      2.761044    3.994619   -6.296547
C      3.831287    4.849162   -6.048053
C      4.400695    4.875601   -4.779012
Br     5.838720    6.051664   -4.422983
C      3.916847    4.047066   -3.763683
N      1.541957    0.475605   -4.131651
C      0.857760   -0.669926   -4.106614
N      0.254103   -1.206346   -3.041196
C      0.338763   -0.522672   -1.898307
C     -0.288694   -1.048009   -0.775046
C     -0.247158   -0.402105    0.463956
O     -0.835901   -0.866865    1.617635
C     -1.508971   -2.126337    1.547080
C     -2.031635   -2.446352    2.946330
C     -2.667420   -3.829907    3.044207
N     -3.862398   -3.975232    2.241400
C     -3.965086   -4.642214    1.053630
C     -5.283061   -4.503264    0.684516
N     -5.975936   -3.779854    1.620422
C     -5.097788   -3.484239    2.551493
