25

C     -1.277897    6.781075    1.984639
C     -0.970258    5.641594    1.351450
C     -0.982294    4.339322    2.080995
O     -1.258884    4.286229    3.271665
N     -0.659887    3.284499    1.250799
C     -0.558061    1.922649    1.603983
C     -0.746797    1.429747    2.889524
C     -0.604825    0.059506    3.148639
C     -0.282288   -0.851182    2.152763
N     -0.150330   -2.141368    2.474869
C      0.172278   -2.978645    1.483357
N      0.354958   -2.651525    0.201957
C      0.208348   -1.349505   -0.114761
N      0.352383   -0.960358   -1.472502
C     -0.934533   -1.071559   -2.205919
C     -0.611204   -1.055026   -3.711247
C      0.761258   -1.630782   -3.691107
C      1.508093   -2.139251   -4.740221
C      2.794216   -2.606266   -4.462636
C      3.302926   -2.544830   -3.155615
Br     5.052551   -3.179040   -2.811246
C      2.545157   -2.018415   -2.107871
C      1.265510   -1.566347   -2.387703
C     -0.107129   -0.373510    0.850027
C     -0.238191    1.016548    0.589111
