29

C     -1.875268   -4.364223   -1.399014
C     -2.035359   -2.976776   -0.885200
C     -2.641176   -1.968033   -1.519518
C     -2.487483   -0.884127   -0.547558
C     -3.021278    0.506362   -0.821274
O     -2.581251    1.518966   -0.316508
O     -4.036207    0.512515   -1.691526
N     -1.851566   -1.196616    0.550694
C     -1.550367   -2.530111    0.403798
C     -0.896295   -3.249512    1.322460
C     -0.477481   -2.694523    2.652653
C     -0.601558   -3.781930    3.749297
O     -1.591736   -4.433439    4.038624
N      0.641716   -3.903444    4.347369
C      1.566197   -3.058654    3.764729
N      2.833930   -2.975864    4.141962
C      3.527942   -2.083777    3.425824
N      3.056201   -1.320974    2.416849
C      1.755354   -1.436564    2.079446
N      1.208286   -0.692411    1.017882
C      1.832146    0.141709    0.070511
C      3.178672    0.010551   -0.296011
C      3.748392    0.839385   -1.267810
C      2.968877    1.804377   -1.891739
F      3.530488    2.583628   -2.827733
C      1.628104    1.948508   -1.553471
Cl     0.646820    3.129630   -2.333677
C      1.063750    1.122428   -0.578488
C      0.972662   -2.337866    2.752259
