30

O      3.143435    1.881264   -2.181706
C      2.160244    1.818704   -1.455951
C      1.854915    2.902677   -0.479159
C      2.619635    4.006085   -0.420404
C      2.433683    5.177905    0.503797
N      1.511952    4.933515    1.627541
C      2.206002    4.196189    2.711121
C      1.279034    3.783365    3.861467
S      0.552090    5.219261    4.706654
C     -0.078397    6.065052    3.226382
C      0.994896    6.221307    2.141170
N      1.217988    0.810310   -1.411648
C      1.200244   -0.374036   -2.177554
C      2.179037   -0.724528   -3.099189
C      2.088169   -1.934688   -3.799552
C      1.034680   -2.818019   -3.614670
N      1.024241   -3.958508   -4.309208
C     -0.003636   -4.784364   -4.091482
N     -1.025693   -4.568109   -3.259907
C     -1.016778   -3.410638   -2.575195
N     -2.108454   -3.103161   -1.715240
C     -3.102129   -3.981612   -1.223532
C     -4.346983   -3.455349   -0.840512
C     -5.338174   -4.271274   -0.286902
C     -5.089646   -5.625794   -0.082885
C     -3.846245   -6.151364   -0.423036
Br    -3.492465   -7.984619   -0.119203
C     -2.855162   -5.337404   -0.975564
C      0.028545   -2.473365   -2.704789
C      0.128430   -1.251444   -1.984256
