30

O     -3.854583   -0.686822    0.238969
C     -2.741231   -0.506177   -0.238352
C     -2.507030   -0.900605   -1.656077
C     -1.335805   -1.324327   -2.161090
C     -1.156292   -1.745981   -3.593882
N     -0.840968   -3.174392   -3.720262
C     -1.012466   -3.649096   -5.108333
C      0.229488   -3.563116   -6.002059
S      1.566578   -4.674653   -5.447257
C      1.110686   -4.805146   -3.684063
C      0.487413   -3.505402   -3.160613
N     -1.660634    0.093719    0.367320
C     -1.573365    0.566614    1.693215
C     -2.598044    0.451569    2.633067
C     -2.421075    0.922286    3.938422
C     -1.215347    1.515294    4.315130
N     -1.003987    1.961464    5.626123
C      0.278529    2.269349    5.975013
N      1.276213    2.465633    5.183562
C      1.018547    2.438943    3.825927
N      1.887931    3.105554    3.128905
C      1.771945    3.362533    1.764172
C      0.818141    4.264235    1.277779
C      0.725163    4.530634   -0.089586
C      1.600661    3.908597   -0.978871
C      2.572783    3.035336   -0.492046
Br     3.761455    2.193604   -1.697177
C      2.670426    2.770871    0.873227
C     -0.206652    1.703545    3.356441
C     -0.373311    1.184145    2.068342
