37

C      2.788749    3.837816    2.518885
C      1.862837    4.480417    1.490261
N      1.570424    3.567244    0.366141
C      2.703205    3.524790   -0.580407
C      2.679125    2.259712   -1.433833
C      0.326057    3.994421   -0.330774
C     -0.942677    3.589067    0.442626
N     -0.829598    2.222979    0.917793
C     -1.899231    1.521767    1.399971
O     -3.051291    1.937517    1.392884
C     -1.558622    0.224037    2.001304
C     -0.724976   -0.755866    1.610361
C      0.096784   -0.765371    0.366204
C     -0.787952   -1.855587    2.561709
C     -0.133568   -3.022343    2.643598
C      0.919904   -3.610073    1.757624
C      2.147149   -4.057387    2.592977
O      2.833606   -3.363553    3.324440
N      2.337100   -5.408268    2.351368
C      1.384743   -5.905259    1.483154
N      1.336411   -7.164075    1.071755
C      0.328379   -7.394713    0.221007
N     -0.579933   -6.493657   -0.211435
C     -0.494100   -5.232281    0.252752
N     -1.412962   -4.237178   -0.146085
C     -2.359571   -4.273268   -1.193821
C     -3.455834   -3.393647   -1.141721
C     -4.387095   -3.339675   -2.182023
C     -4.216120   -4.148925   -3.298023
F     -5.117763   -4.080817   -4.288449
C     -3.119869   -5.000649   -3.387510
Cl    -2.886628   -5.984302   -4.782343
C     -2.189455   -5.052784   -2.346119
C      0.513260   -4.903357    1.120601
N     -1.744254   -1.554342    3.501455
C     -2.179760   -0.367209    3.190108
C     -3.241971    0.333008    3.976415
