25

C      1.371498    1.341707   -5.940163
C      2.038612    1.364829   -4.780636
C      1.390318    1.204506   -3.500234
C      2.059985    1.227870   -2.338715
C      1.346910    1.056439   -1.048216
O      0.133109    0.915456   -0.976559
N      2.231503    1.121689   -0.008373
C      2.070325    0.397404    1.060080
C      0.986016   -0.625742    1.298879
C      0.967544   -1.261450    2.488638
C     -0.094948   -2.269796    2.833830
N     -1.163115   -2.485749    1.973334
C     -2.148836   -3.493721    2.006677
C     -3.346371   -3.280869    1.299747
C     -4.370241   -4.233094    1.296536
C     -4.214433   -5.421642    2.002513
C     -3.034191   -5.647858    2.704282
Br    -2.812465   -7.266687    3.658378
C     -2.010331   -4.696328    2.708277
N     -0.003154   -2.906933    3.967251
C      1.023710   -2.629198    4.822208
N      1.964891   -1.758705    4.652342
C      1.985090   -1.033160    3.501181
C      2.943896   -0.126320    3.250132
N      2.990840    0.574354    2.072370
