30

O      0.469088    1.683969   -1.483127
C      0.478766    0.465727   -1.420398
C      0.406330   -0.284983   -2.656893
C      0.338451   -0.936949   -3.664562
C      0.251269   -1.751159   -4.884856
N     -0.106556   -3.150232   -4.641184
C      0.939990   -3.912271   -3.940331
C      0.373928   -5.205059   -3.336033
O     -0.602588   -4.948197   -2.317229
C     -1.388067   -3.773196   -2.563558
C     -1.436682   -3.347566   -4.040786
N      0.557993   -0.331753   -0.300853
C      0.602502    0.073386    1.047251
C      0.721687   -0.937888    2.009167
C      0.802530   -0.625717    3.368439
C      0.753732    0.705537    3.781387
N      0.869085    1.050340    5.135181
C      1.092512    2.367261    5.417165
N      0.923138    3.372251    4.629241
C      0.375355    3.106503    3.387786
N     -0.268288    4.115712    2.885885
C     -1.040609    4.047082    1.726306
C     -0.642296    4.762017    0.593238
C     -1.404403    4.722786   -0.575809
C     -2.584378    3.980930   -0.611332
C     -3.001069    3.295222    0.528410
Br    -4.603857    2.292865    0.485236
C     -2.244626    3.336556    1.698636
C      0.543384    1.719453    2.830573
C      0.523039    1.403998    1.465768
