26

C     -5.454508   -4.293753    1.511684
C     -4.517287   -3.287942    1.014501
C     -3.747451   -2.458215    0.609596
C     -2.825932   -1.473568    0.130377
O     -1.705846   -1.931346   -0.451455
N     -3.183431   -0.250061    0.310410
C     -2.352879    0.790710   -0.112919
C     -2.660106    1.491441   -1.278102
C     -1.874063    2.572286   -1.679254
C     -0.768162    2.959759   -0.915181
N     -0.008480    4.080638   -1.294357
C      0.878555    4.617419   -0.394079
C      1.326070    4.000436    0.710179
C      2.260890    4.623010    1.579846
N      3.009503    5.195754    2.258271
C      0.864138    2.589399    0.943826
N      1.621856    1.842770    1.702539
C      1.454701    0.468379    1.876313
C      1.731845   -0.426867    0.835731
C      1.577151   -1.801491    1.022829
C      1.162626   -2.290243    2.261158
C      0.923937   -1.402044    3.309228
Br     0.379137   -2.066614    4.993013
C      1.080330   -0.028894    3.126089
C     -0.401267    2.202997    0.217804
C     -1.240579    1.168464    0.644562
