24

C      1.065071   -0.094416    4.188573
O      0.099925    0.877516    3.775148
C      0.195472    1.137849    2.431465
C      1.197614    2.015295    1.969853
Br     2.359902    2.945448    3.154506
C      1.355415    2.260029    0.607399
C      0.511420    1.636896   -0.305440
C      0.683309    1.895367   -1.737521
C      1.067717    0.994135   -2.653599
C      1.423891   -0.456712   -2.431305
O      1.426140   -1.090489   -1.394828
N      1.760570   -0.936368   -3.688917
C      1.656322    0.055358   -4.658951
C      1.917514   -0.075410   -6.007598
C      1.746263    1.057789   -6.805968
C      1.323772    2.277165   -6.244227
C      1.064845    2.386135   -4.872886
C      1.236923    1.260256   -4.087018
C     -0.523307    0.812214    0.161328
C     -0.736641    0.560972    1.537011
C     -1.920858   -0.335610    1.976931
C     -1.417515   -1.782009    2.146814
C     -2.587510    0.131179    3.293083
C     -3.069087   -0.366398    0.930717
