29

O     -3.113802   -1.821068    0.729734
C     -2.379638   -1.403810   -0.156390
C     -2.653454   -1.696017   -1.592984
C     -3.721545   -2.426307   -1.940158
N     -4.148904   -2.808607   -3.203477
C     -3.485243   -2.412949   -4.461544
C     -4.458169   -2.512786   -5.647106
O     -4.986384   -3.830241   -5.852538
C     -5.114885   -4.582631   -4.636998
C     -5.305020   -3.714278   -3.384212
N     -1.240719   -0.638195    0.001728
C     -0.682290   -0.173347    1.211593
C     -1.222526   -0.431730    2.474892
C     -0.611139    0.065324    3.634411
C      0.547801    0.832786    3.543521
N      1.195714    1.332751    4.671701
C      2.317728    2.085088    4.500025
N      2.900843    2.384086    3.389552
C      2.341584    1.902801    2.221168
N      2.879418    2.148389    1.063191
C      4.049842    2.917991    1.004762
C      5.300258    2.292214    0.980968
C      6.470873    3.047502    0.886195
C      6.394826    4.437431    0.803413
C      5.147493    5.061192    0.811981
Br     5.043115    6.945727    0.691093
C      3.977460    4.309317    0.905182
C      1.093109    1.086104    2.280591
C      0.485305    0.591073    1.120471
