24

C      4.858587   -0.653108   -0.190057
C      3.412543   -0.335921   -0.432706
C      2.679249    0.399709    0.500687
C      1.315274    0.671252    0.299280
C      0.621402    1.578385    1.280098
C      0.663808    0.168667   -0.846594
N     -0.697622    0.438216   -1.051853
C     -1.609379   -0.394491   -0.673481
O     -2.872418    0.017599   -0.910288
C     -1.574260   -1.736417    0.022848
C     -0.870636   -2.750324   -0.769653
N     -0.341219   -3.594300   -1.365529
C     -1.015575   -1.633436    1.448954
C     -1.367958   -2.815289    2.336092
C     -0.454629   -3.745977    2.659335
C     -0.803268   -4.877664    3.549770
O      0.035250   -5.706908    3.868956
C     -2.243022   -4.951379    4.056342
O     -2.634059   -5.863689    4.768505
C     -3.155113   -3.858705    3.655305
C     -2.720645   -2.874919    2.859071
C      1.410454   -0.528370   -1.816390
C      0.830623   -0.923952   -3.149050
C      2.772120   -0.790658   -1.587825
