23

C     -4.608061    0.109559   -0.568104
C     -3.479843   -0.018638    0.142899
C     -3.240731   -1.104934    1.117669
O     -4.286590   -1.939344    1.225651
N     -2.230955   -1.377859    1.862659
C     -1.095251   -0.562954    1.804302
C     -0.913949    0.441929    2.756174
C      0.211818    1.264257    2.709974
C      1.171628    1.076382    1.711640
N      2.291417    1.914208    1.625433
C      3.033196    1.842328    0.484034
N      2.994373    0.920455   -0.413918
C      2.171692   -0.165502   -0.174935
N      2.530207   -1.222012   -0.837270
C      1.959874   -2.483511   -0.677813
C      1.228523   -3.043243   -1.727318
C      0.675982   -4.318180   -1.603423
C      0.865902   -5.049144   -0.430118
C      1.612655   -4.512838    0.625570
C      1.864689   -5.315836    1.866397
C      2.176872   -3.237684    0.481129
C      1.040169    0.008796    0.802405
C     -0.111518   -0.782699    0.835168
