34

C     -0.635852   -3.458958    3.027618
C     -0.527944   -2.674564    1.947450
C      0.018078   -1.291764    2.066122
O      0.385939   -0.846252    3.144255
N      0.032763   -0.643294    0.853119
C      0.486463    0.664647    0.570164
C      1.024093    1.524589    1.530016
C      1.485747    2.792954    1.164173
C      2.152936    3.759371    2.105938
N      2.811927    3.518305    3.198013
C      3.117320    2.242708    3.668563
C      4.080816    1.451736    3.029229
C      4.402015    0.188524    3.528292
C      3.774225   -0.274418    4.680618
F      4.103811   -1.488514    5.146592
C      2.839041    0.517204    5.343516
Br     2.002332   -0.101026    6.922940
C      2.518537    1.780688    4.845157
N      2.123495    5.102557    1.780376
C      1.951619    5.403576    0.540333
N      1.717170    4.544553   -0.493524
C      1.316665    3.242122   -0.158993
C      0.798778    2.378804   -1.129233
C      0.372542    1.100163   -0.763736
O     -0.136770    0.192353   -1.664900
C     -1.033356    0.755465   -2.629664
C     -1.908629   -0.356800   -3.209550
C     -2.750907   -1.089073   -2.154508
N     -3.620493   -0.190401   -1.388486
C     -4.804402    0.273451   -2.145329
C     -6.108594   -0.439008   -1.750276
O     -6.434821   -0.292392   -0.362873
C     -5.280678   -0.139568    0.475124
C     -4.032212   -0.814076   -0.110787
