24

C     -3.372563   -1.388407   -2.631882
C     -3.411346   -0.558282   -1.342019
C     -3.665800    0.912983   -1.683834
C     -2.175360   -0.692958   -0.466135
C     -0.946230   -1.018499   -0.905337
C      0.196238   -1.129736   -0.008932
C      1.409745   -1.398123   -0.539488
C      2.659977   -1.531036    0.141946
C      3.283826   -0.553599    0.890390
O      2.958664    0.693936    1.204575
N      4.464778   -1.072773    1.346011
C      4.638793   -2.357997    0.887319
C      5.695210   -3.253774    1.090355
C      5.601383   -4.512269    0.489172
C      4.494897   -4.858874   -0.282580
C      3.446873   -3.951308   -0.475668
C      3.516629   -2.673436    0.118251
C     -0.023123   -0.985288    1.421654
C     -1.223436   -0.664290    1.937418
C     -1.431038   -0.516126    3.433255
C     -1.806443    0.912318    3.835451
C     -2.428181   -1.533558    3.993461
C     -2.382863   -0.459388    1.006993
O     -3.482584   -0.115436    1.430388
