35

C     -3.802729   -2.885858    2.627184
O     -3.003089   -2.996363    1.457463
C     -1.640121   -3.017051    1.617289
C     -0.980810   -2.913870    2.845905
C      0.405028   -2.925876    2.940897
N      0.954663   -2.802885    4.158654
C      2.303394   -2.802352    4.260935
C      3.160272   -2.915936    3.183226
C      4.572042   -2.900674    3.405950
N      5.711526   -2.889995    3.627548
C      2.595620   -3.042492    1.907262
N      3.451328   -3.143365    0.770837
C      3.681550   -2.097837   -0.162740
C      4.322807   -2.402800   -1.374010
C      4.612737   -1.400123   -2.302648
C      4.282907   -0.081036   -2.015348
F      4.561677    0.866091   -2.922567
C      3.681092    0.246132   -0.804275
Cl     3.274489    1.878840   -0.438639
C      3.396693   -0.755244    0.127456
C      1.179542   -3.058469    1.769253
C      0.511885   -3.183133    0.531519
C     -0.881169   -3.138854    0.441541
N     -1.465562   -3.243581   -0.834606
C     -1.981998   -2.186652   -1.346660
O     -2.599092   -2.310288   -2.531535
C     -2.054808   -0.785940   -0.905018
C     -0.929207   -0.064565   -0.792907
C     -0.733950    1.352247   -0.327258
N     -1.828038    2.135458    0.225990
C     -2.857780    2.544589   -0.735006
C     -3.880553    3.487717   -0.078772
O     -4.465642    2.893040    1.088817
C     -3.442392    2.589690    2.047202
C     -2.408728    1.610669    1.466907
