29

C     -2.825104   -1.716591    4.806053
N     -2.879035   -0.425466    4.117194
C     -3.609851    0.542847    4.940226
C     -3.494716   -0.584623    2.793646
C     -3.299452    0.630823    1.937917
C     -4.300502    1.291905    1.337932
C     -4.043840    2.495106    0.531612
O     -4.818992    3.490036    0.993569
N     -3.297102    2.763373   -0.474359
C     -2.510519    1.749327   -1.033189
C     -3.074563    0.787748   -1.875114
C     -2.280625   -0.209262   -2.446729
C     -0.904030   -0.240968   -2.203957
N     -0.115808   -1.266171   -2.735817
C      1.239194   -1.255973   -2.555909
C      1.930931   -0.393346   -1.791354
C      3.343816   -0.528231   -1.730708
N      4.491664   -0.704611   -1.739297
C      1.153851    0.682326   -1.060894
N      1.577666    1.572675   -0.214253
C      2.903625    1.676518    0.203654
C      3.347618    0.958287    1.318267
C      4.663570    1.088886    1.765531
C      5.537423    1.954955    1.108794
C      5.085326    2.693084    0.015610
Br     6.263174    3.883409   -0.862714
C      3.771647    2.565626   -0.433098
C     -0.330639    0.725456   -1.359992
C     -1.135790    1.725398   -0.794055
