42

C     -0.196514   -5.581062    7.091755
O     -0.330585   -4.878697    5.859331
C      0.856999   -4.496482    5.253965
C      0.867563   -3.348028    4.554066
C      2.052535   -2.850367    3.862501
C      2.051288   -1.719298    3.125092
C      0.923832   -0.825145    2.854720
C      1.048286    0.467217    3.450333
N      1.174840    1.504278    3.957130
C     -0.122436   -1.169864    2.064257
O     -0.153256   -2.392679    1.418087
N     -1.244211   -0.464659    1.685957
C     -1.942236    0.606185    2.394497
C     -2.743998    1.437781    1.386726
C     -1.982872    2.606667    0.732119
C     -0.544899    2.354325    0.280209
N     -0.408164    1.137948   -0.485944
C      0.739973    0.872167   -1.198694
O      1.628991    1.678584   -1.436547
C      0.858714   -0.550550   -1.613470
C      1.836457   -1.333435   -0.944167
N      2.570731   -2.006994   -0.346122
C      0.050681   -1.081155   -2.551043
C     -0.987106   -0.330044   -3.264168
C     -0.651894    0.483427   -4.353855
C     -1.633832    1.235856   -5.010523
O     -1.393555    2.046912   -6.089842
C     -0.039550    2.275863   -6.457618
C     -2.968853    1.177507   -4.567592
O     -3.880148    1.942913   -5.254411
C     -3.297719    0.369897   -3.468152
N     -4.665143    0.315806   -2.945609
O     -4.860833   -0.312224   -1.894743
O     -5.549554    0.910425   -3.582230
C     -2.311148   -0.393016   -2.823810
C      3.304560   -3.581326    4.015415
C      3.312303   -4.733249    4.701891
N      4.568889   -5.409333    4.843644
O      4.971483   -5.617862    5.994717
O      5.187565   -5.675984    3.803065
C      2.111017   -5.342385    5.305285
O      2.114152   -6.471598    5.781738
