32

N     -6.783015   -3.060082    0.249124
C     -5.901503   -2.635045    0.874294
C     -4.879917   -2.130235    1.722511
C     -5.088158   -2.140653    3.050574
N     -4.220501   -1.688194    4.004519
C     -3.038964   -1.041531    3.633611
C     -2.179184   -0.521625    4.603500
C     -0.975200    0.091247    4.236751
C     -0.605447    0.181574    2.894770
N      0.586885    0.781363    2.446884
C      1.568580    1.374002    3.207273
O      1.607665    1.503548    4.420972
C      2.669819    1.896102    2.425694
C      3.571281    2.326235    1.756991
C      4.667397    2.850707    0.931467
N      4.180747    3.261004   -0.393071
C      3.382477    4.503901   -0.350074
C      4.148033    5.806340   -0.612577
S      4.815748    5.895345   -2.309463
C      5.010092    4.108665   -2.630831
C      5.307212    3.329547   -1.345492
C     -1.455868   -0.355057    1.921631
C     -2.666437   -0.970463    2.283331
C     -3.570477   -1.558288    1.218303
N     -3.110146   -1.496415    0.003945
C     -3.787795   -1.997665   -1.107011
C     -3.597761   -3.323774   -1.507896
C     -4.241943   -3.818577   -2.643327
C     -5.066116   -2.981166   -3.394633
C     -5.232080   -1.651161   -3.010566
Br    -6.332801   -0.508952   -4.039690
C     -4.590022   -1.153677   -1.877532
