27

C     -1.936459    7.232745    3.925356
C     -1.659458    6.178026    3.147653
C     -2.248157    4.838967    3.445307
O     -2.985158    4.674095    4.407829
N     -1.856244    3.890038    2.521680
C     -2.209083    2.524015    2.502479
C     -3.012348    1.909733    3.455264
C     -3.292924    0.539893    3.365261
C     -2.798011   -0.249680    2.337748
N     -3.098545   -1.550723    2.326612
C     -2.592095   -2.275154    1.324446
N     -1.828589   -1.818202    0.328800
C     -1.543472   -0.503799    0.337078
N     -0.780927    0.049961   -0.729567
C      0.006086   -0.631612   -1.685144
C      0.649616   -1.838436   -1.411712
C      1.480746   -2.444544   -2.360571
C      1.731912   -1.847351   -3.608830
C      2.645912   -2.566794   -4.584169
N      4.098415   -2.396373   -4.412212
C      4.559245   -1.033910   -4.645925
C      4.618284   -2.922990   -3.157053
C      1.099550   -0.623876   -3.875921
Br     1.280307    0.299164   -5.529255
C      0.266066   -0.020834   -2.918857
C     -2.002831    0.354671    1.357268
C     -1.707389    1.742341    1.456771
