34

N      0.256679   -1.548138    1.453075
C      0.311962   -0.576457    2.086901
C      0.430784    0.629897    2.827587
C     -0.623559    1.345527    3.263346
C     -2.031740    1.033956    2.986263
C     -2.652128   -0.119815    3.490647
C     -3.990591   -0.392975    3.188683
C     -4.698305    0.493099    2.390801
O     -5.996864    0.222705    2.058161
C     -4.093528    1.645011    1.896734
O     -4.846428    2.465373    1.102802
C     -2.766482    1.926704    2.192878
C      1.791670    1.190201    3.096103
O      2.017150    1.895591    4.074039
N      2.738506    0.881474    2.142679
C      4.013347    1.562861    2.089263
C      5.108464    0.697417    1.466796
C      4.793472    0.031736    0.116481
C      4.247885    0.971148   -0.957269
N      2.800752    1.093837   -0.828186
C      1.957980    0.446028   -1.542395
O      2.300701   -0.494206   -2.441161
C      0.484967    0.632671   -1.449793
C      0.029832    1.795827   -0.762103
N     -0.347550    2.733077   -0.188641
C     -0.357986   -0.313364   -1.910954
C     -1.814504   -0.294334   -1.721815
C     -2.391767   -1.265219   -0.887083
C     -3.762486   -1.253872   -0.620870
C     -4.553007   -0.271337   -1.199374
O     -5.890093   -0.179342   -0.926965
C     -3.990806    0.673172   -2.054068
O     -4.781264    1.636079   -2.614318
C     -2.628273    0.671125   -2.324761
