31

C     -3.863376    3.400520    2.787253
C     -2.565399    3.709145    2.910400
C     -1.478623    3.251164    2.000099
O     -0.488017    3.961262    1.871381
N     -1.690291    2.015151    1.442826
C     -0.860788    1.314230    0.540058
C      0.281806    1.862388   -0.039605
C      1.090730    1.104090   -0.923696
C      2.271384    1.568510   -1.542562
N      2.717814    2.888417   -1.263011
C      3.716162    3.651305   -1.908395
C      4.061133    3.472893   -3.254022
C      5.011511    4.290762   -3.874511
C      5.617077    5.321554   -3.161659
C      5.257206    5.534433   -1.834759
Br     6.054763    6.948752   -0.864459
C      4.308300    4.718364   -1.214263
N      2.977106    0.796817   -2.388906
C      2.520822   -0.438621   -2.603748
N      1.425876   -0.981553   -2.063543
C      0.719105   -0.210416   -1.233566
C     -0.431797   -0.740819   -0.660903
C     -1.231933   -0.000428    0.214122
O     -2.380078   -0.451815    0.822530
C     -2.915530   -1.718757    0.428217
C     -2.333226   -2.834606    1.292925
C     -2.932776   -4.215596    1.009872
C     -2.840514   -4.682478   -0.451392
N     -1.499799   -4.541826   -1.035980
C     -0.541162   -5.477909   -0.443106
C     -1.552103   -4.744813   -2.486429
