24

C     -4.790529    0.377270   -1.652743
C     -4.069131   -0.152432   -2.593641
C     -3.356424   -0.688915   -3.540306
C     -1.877078   -0.838699   -3.509277
O     -1.334566   -1.402055   -4.453629
N     -1.262752   -0.308541   -2.395990
C      0.110976   -0.329097   -2.078578
C      1.086072   -0.940674   -2.866931
C      2.431592   -0.905992   -2.486723
C      2.813644   -0.262359   -1.309022
N      4.158722   -0.192848   -0.924408
C      4.470208    0.669828    0.085069
N      3.655608    1.229192    0.911795
C      2.323746    0.869071    0.827121
N      1.674236    1.061341    1.934776
C      0.361760    0.652847    2.164047
C     -0.628367    1.619859    2.366240
C     -1.948721    1.244665    2.621715
C     -2.283555   -0.106871    2.693195
C     -1.291827   -1.072728    2.524224
Br    -1.743501   -2.905192    2.632627
C      0.028322   -0.700336    2.274529
C      1.831308    0.290362   -0.471142
C      0.495286    0.297489   -0.885866
