45

C     -4.026349   -2.422862   -0.617691
C     -2.959761   -2.528317   -1.416921
C     -2.636310   -1.515996   -2.428828
C     -1.591075   -2.000208   -3.125034
C     -0.894705   -1.408523   -4.302104
O     -0.196515   -2.110382   -5.029214
N     -1.051733   -0.053737   -4.463566
C     -0.308899    0.660565   -5.485171
C      1.137691    0.978188   -5.056940
N      1.227192    1.874831   -3.881990
C      0.919213    3.284503   -4.214242
C      2.165600    4.136056   -4.508293
O      3.084196    4.197188   -3.410760
C      3.004228    3.055904   -2.545094
C      2.587422    1.779046   -3.290852
N     -1.221443   -3.240919   -2.629478
C     -1.974997   -3.625330   -1.540108
C     -1.753161   -4.723638   -0.800604
C     -2.389211   -5.156173    0.401099
C     -3.039709   -6.374073    0.494511
O     -3.231792   -7.318146   -0.420854
N     -3.506449   -6.490009    1.777307
C     -3.130731   -5.400468    2.511694
N     -3.427524   -5.242680    3.808268
C     -2.929106   -4.093312    4.282951
N     -2.213486   -3.168234    3.621097
C     -1.921154   -3.355644    2.305921
N     -1.191269   -2.404735    1.580266
C     -0.767978   -1.097228    1.876155
C     -0.673328   -0.581757    3.168031
C     -0.278731    0.742033    3.417566
C      0.010486    1.567053    2.321202
C     -0.082306    1.092669    1.011767
C      0.239824    2.167364    0.142583
C      0.534025    3.260571    0.922592
N      0.415323    2.886191    2.240485
C      0.638487    3.786476    3.365963
C      2.108335    3.984622    3.641997
C      2.740464    5.190215    3.302049
C      4.101403    5.373072    3.553614
C      4.845307    4.354436    4.145621
C      4.230373    3.151341    4.484870
C      2.869869    2.966103    4.234765
C     -0.458898   -0.247982    0.796904
C     -2.411148   -4.537091    1.696328
