34

C      1.897856    4.713861    3.656544
C      2.051584    3.473166    3.175929
C      1.479212    3.094799    1.848862
O      0.858348    3.910979    1.179191
N      1.749930    1.776749    1.539450
C      1.340694    1.135281    0.359261
N      0.649059    1.847400   -0.541831
C      0.242535    1.265147   -1.696419
C     -0.484868    1.972975   -2.655755
N     -0.767701    3.331274   -2.342417
C     -1.445245    4.359877   -3.006451
C     -1.531048    5.613403   -2.372287
C     -2.191850    6.688570   -2.971705
C     -2.777333    6.520091   -4.218739
F     -3.408313    7.561057   -4.782052
C     -2.707137    5.291172   -4.866620
Cl    -3.432727    5.077042   -6.415152
C     -2.044751    4.217576   -4.263032
N     -0.902080    1.415278   -3.812133
C     -0.583435    0.131317   -4.005000
N      0.106774   -0.644514   -3.159377
C      0.507764   -0.060782   -2.020143
C      1.226837   -0.780172   -1.078088
C      1.656059   -0.207089    0.136608
C      2.404054   -1.077922    1.117545
C      1.561121   -1.542774    2.313314
C      0.348780   -2.417016    1.964205
C      0.732969   -3.768270    1.343747
N     -0.431562   -4.637978    1.128861
C     -0.030282   -6.003680    0.721370
C     -0.127433   -6.244382   -0.793063
O     -1.451822   -6.061781   -1.309765
C     -2.238105   -5.149045   -0.531360
C     -1.385556   -4.066665    0.148639
