30

C     -6.896150   -1.848742   -2.162594
N     -5.958455   -1.042951   -2.938745
C     -5.010575   -1.882901   -3.664508
C     -5.306119    0.004121   -2.149732
C     -4.392944   -0.471648   -1.056687
C     -3.075860   -0.212307   -1.010880
C     -2.246895   -0.714693    0.123406
O     -2.748053   -1.356163    1.036966
N     -0.918939   -0.363501   -0.017129
C      0.141758   -0.662116    0.866334
C     -0.010037   -1.373592    2.055066
C      1.098892   -1.659270    2.856806
C      2.374116   -1.227638    2.484772
N      3.489156   -1.567128    3.269544
C      4.747372   -1.389878    2.752596
C      5.039454   -0.641582    1.678320
C      6.375358   -0.497974    1.216893
N      7.483284   -0.435094    0.874586
C      3.907187    0.105837    1.028399
N      4.235430    1.144525    0.306068
C      3.337386    2.070088   -0.220882
C      2.623453    2.940071    0.613766
C      1.750885    3.884084    0.070326
C      1.609515    3.970203   -1.310777
F      0.754637    4.871618   -1.815409
C      2.340296    3.132780   -2.151568
Cl     2.162860    3.235088   -3.860655
C      3.213762    2.191101   -1.608033
C      2.527276   -0.425545    1.337088
C      1.417698   -0.202632    0.510091
