30

C     -2.741762   -1.887025   -3.343596
C     -1.528028   -2.403804   -3.108793
C     -0.696605   -3.108559   -4.098758
C     -1.052030   -3.435437   -5.510628
C     -1.938992   -4.648215   -5.602357
C     -1.659855   -5.749253   -6.309353
O     -0.512712   -5.858824   -7.038747
O     -2.496565   -6.829923   -6.351872
C      0.456900   -3.387178   -3.463298
N      0.455452   -2.911647   -2.173246
C     -0.762034   -2.358699   -1.839011
C     -1.206901   -1.921821   -0.651780
C     -0.492403   -1.853712    0.672657
C      1.039701   -2.144173    0.674014
O      1.602571   -3.161510    0.293910
N      1.682425   -1.031000    1.200451
C      0.776903   -0.047479    1.559542
C      1.062269    1.178744    2.126064
C     -0.008630    2.032754    2.443262
C      0.237417    3.351877    3.050419
C     -0.394509    3.728946    4.244770
C     -0.154925    4.979314    4.818390
C      0.721793    5.877547    4.207549
C      1.361612    5.527499    3.020107
O      2.239924    6.307785    2.319087
C      2.513007    7.600572    2.844475
C      1.115763    4.271733    2.452569
C     -1.330155    1.597765    2.171117
C     -1.594790    0.348546    1.594191
C     -0.521630   -0.466545    1.281920
