22

C     -2.101872   -2.627510   -4.153949
C     -0.981215   -1.909371   -3.418255
C     -1.488707   -0.634142   -2.739172
C     -0.391386    0.112595   -1.964895
C      0.125769   -0.501604   -0.681834
C     -0.409806   -1.549753   -0.032038
C      0.166868   -2.080879    1.191089
C     -0.332352   -3.159195    1.833968
C     -1.515661   -4.043299    1.494737
C     -1.355475   -4.710757    0.195902
N     -1.280677   -5.229327   -0.840726
C     -2.836383   -3.278700    1.641134
N     -3.693464   -3.206753    0.579777
O     -3.152510   -2.716589    2.690556
C      1.331484   -1.418524    1.763569
C      1.912821   -0.355311    1.181921
C      3.119179    0.398892    1.696186
C      3.592073    0.126762    3.132205
C      2.637013    0.681896    4.192465
C      3.155441    0.415993    5.597392
C      1.346977    0.161310   -0.110469
O      1.869988    1.111998   -0.686808
