28

C     -5.613080    0.913447   -4.018065
C     -4.442537    0.526152   -3.231660
C     -3.487636    0.196052   -2.580273
C     -2.335602   -0.201156   -1.795219
O     -2.421774   -1.204866   -1.105934
N     -1.254677    0.631417   -1.941645
C      0.011441    0.549894   -1.322787
C      0.350696   -0.429946   -0.384112
C      1.618693   -0.442126    0.209278
C      2.021455   -1.430950    1.279232
N      1.263288   -2.064752    2.133191
C     -0.104064   -1.843366    2.301860
C     -0.578786   -0.649832    2.858949
C     -1.946864   -0.454051    3.056973
C     -2.847871   -1.462923    2.718899
C     -2.373163   -2.665526    2.196715
Br    -3.593395   -4.043251    1.761914
C     -1.007602   -2.863395    1.997812
C      3.500098   -1.672704    1.399875
C      4.008765   -2.810285    2.082420
N      4.497806   -3.722255    2.609799
C      4.319082   -0.733447    0.904096
N      3.912905    0.401020    0.247841
C      2.594452    0.472090   -0.241140
C      2.246206    1.477715   -1.152948
C      0.958657    1.527038   -1.689756
O      0.519580    2.461461   -2.599089
C      1.416339    3.512645   -2.938995
