29

C     -1.922042   -4.491918   -6.596335
C     -0.729071   -5.099221   -6.652786
C      0.549375   -4.534453   -6.136146
O      1.589211   -4.830617   -6.711531
N      0.408339   -3.768822   -5.001230
C      1.422894   -3.095662   -4.290075
C      2.763160   -3.059941   -4.686414
C      3.718525   -2.367398   -3.929741
C      3.344303   -1.705133   -2.762638
N      4.258168   -0.985446   -1.994258
C      3.818169   -0.378009   -0.857506
N      2.612288   -0.341453   -0.402371
C      1.632771   -0.992650   -1.127563
N      0.390042   -0.980874   -0.745241
C      0.045203   -0.294010    0.426431
C     -0.395180    1.028326    0.361353
C     -0.775539    1.715048    1.520297
C     -0.725958    1.082313    2.765644
O     -1.085968    1.664843    3.951449
C     -1.313222    3.076298    3.995540
C     -2.800314    3.391795    3.759414
N     -3.099677    4.832877    3.645039
C     -4.488368    5.018732    3.213447
C     -2.879575    5.536875    4.910530
C     -0.304691   -0.256965    2.820205
Br    -0.227785   -1.206481    4.467108
C      0.073689   -0.940515    1.660887
C      2.000905   -1.728933   -2.373001
C      1.044026   -2.420008   -3.125955
