23

C     -6.054667   -0.140652   -4.939793
C     -4.851082   -0.675393   -4.696711
C     -3.996897   -0.190196   -3.582475
O     -4.340481    0.715906   -2.831537
N     -2.822922   -0.894621   -3.544526
C     -1.945990   -0.609860   -2.627427
C     -0.684046   -1.428890   -2.654260
C      0.264996   -1.182322   -1.729210
N      1.460191   -1.849775   -1.636248
C      2.380191   -1.552599   -0.677358
N      2.287980   -0.655244    0.242427
C      1.144737    0.118028    0.305290
N      0.998985    1.035398    1.215525
C      2.024019    1.237772    2.149873
C      2.984572    2.230420    1.931410
C      3.990319    2.464817    2.871269
C      4.033343    1.711418    4.043880
C      3.066404    0.732213    4.269828
Br     3.118843   -0.284016    5.864019
C      2.060335    0.497483    3.333957
C      0.073473   -0.139286   -0.717833
C     -1.064211    0.577625   -0.716888
N     -2.051201    0.352855   -1.645054
