24

C     -4.058508    2.742535   -0.780573
C     -4.092561    1.863758   -1.791401
C     -2.900436    1.261702   -2.452205
O     -2.978928    0.970602   -3.639132
N     -1.837238    1.043230   -1.605236
C     -0.578581    0.497413   -1.933740
C     -0.199101    0.137666   -3.227897
C      1.080639   -0.367513   -3.480469
C      1.993614   -0.521056   -2.437239
N      3.293643   -0.988237   -2.671226
C      4.194427   -0.839795   -1.656882
N      3.939107   -0.585729   -0.419442
C      2.608500   -0.532446   -0.051535
N      2.415510   -0.790049    1.206376
C      1.165042   -0.959319    1.794514
C      0.384940   -2.090259    1.519529
C     -0.853228   -2.263157    2.139784
C     -1.300477   -1.312511    3.051573
F     -2.498646   -1.487149    3.627977
C     -0.518037   -0.200490    3.357681
Cl    -1.072192    0.978357    4.483196
C      0.719940   -0.029526    2.739018
C      1.594352   -0.237490   -1.121101
C      0.331714    0.317042   -0.884161
