24

C      3.383261    1.544772    4.778095
C      3.550434    1.166804    3.503483
S      2.956912    2.155882    2.210285
O      3.273523    3.544388    2.483414
O      3.364356    1.577508    0.943872
N      1.267227    2.085511    2.263097
C      0.730606    0.852694    1.834110
C      0.313020    0.667484    0.529669
C     -0.151344   -0.610600    0.139761
C     -0.596261   -0.949533   -1.151265
N     -0.519735    0.029817   -2.179201
C     -1.146657    0.013443   -3.447376
C     -0.583269    0.762666   -4.493705
C     -1.199174    0.832829   -5.746842
C     -2.405588    0.173772   -5.966346
C     -2.993079   -0.540507   -4.925943
Br    -4.647755   -1.412479   -5.209063
C     -2.379315   -0.610942   -3.673425
N     -1.068109   -2.175737   -1.438889
C     -1.073090   -3.075350   -0.451894
N     -0.649545   -2.871084    0.798954
C     -0.195445   -1.642342    1.081300
C      0.269484   -1.328247    2.349780
N      0.747797   -0.120908    2.750601
