25

C     -3.015521    1.900155    1.250919
O     -2.943941    0.808022    0.339052
C     -1.946232    0.870758   -0.602137
C     -1.238128    2.017751   -0.961057
C     -0.228140    1.948081   -1.931260
C      0.536763    3.134193   -2.349569
C      1.198455    3.986121   -1.539991
C      1.286600    3.823492   -0.127762
N      1.292408    3.683857    1.025238
C      1.960005    5.117736   -2.136914
N      1.399001    5.737138   -3.215624
O      3.019205    5.517563   -1.671041
C      0.037793    0.724509   -2.563229
C     -0.666183   -0.442413   -2.219414
C     -0.334858   -1.758170   -2.879716
S      1.372039   -2.330766   -2.546332
C      1.322215   -2.474888   -0.768350
C      0.451934   -3.362401   -0.131311
C      0.429578   -3.451151    1.263535
C      1.289822   -2.665592    2.038746
C      1.239197   -2.730888    3.536168
C      2.159146   -1.775964    1.397907
C      2.182381   -1.689538    0.003331
C     -1.663074   -0.341613   -1.246652
O     -2.387339   -1.454594   -0.903848
