34

C     -2.410527   -1.229614    2.929902
C     -2.070001   -0.564362    1.818794
C     -0.656962   -0.487705    1.361217
O      0.263050   -1.024697    1.965547
N     -0.580800    0.198825    0.182307
C      0.289901    1.148432    0.083498
N      1.064861    1.491004    1.162002
C      1.733621    2.595017    1.143594
C      2.570112    2.927943    2.363900
N      2.568332    1.939946    3.328993
C      3.203523    1.872367    4.577498
C      4.000093    2.894882    5.108388
C      4.605296    2.764940    6.363757
C      4.418282    1.605449    7.104092
F      5.006403    1.502459    8.304757
C      3.633047    0.574891    6.602161
Cl     3.391375   -0.867897    7.510388
C      3.030359    0.707298    5.347967
N      3.195571    4.060915    2.406139
C      3.109728    4.939462    1.361186
N      2.471973    4.771425    0.246406
C      1.799066    3.601450    0.079328
C      1.172150    3.250250   -1.047861
C      0.481750    1.975204   -1.176630
C      0.020097    1.593229   -2.385449
C     -0.652990    0.303472   -2.769718
C     -2.178438    0.425659   -2.746115
C     -2.835262   -0.927738   -3.050397
N     -4.301557   -0.833774   -3.133930
C     -4.883931   -2.054322   -3.741229
C     -4.882532   -3.279450   -2.810648
O     -5.557027   -2.998687   -1.578085
C     -4.958487   -1.877457   -0.917633
C     -4.954151   -0.630797   -1.820022
