26

C      1.496244   -3.525907   -2.153034
O      1.420104   -3.780042   -0.757805
C      0.455762   -3.120023   -0.019833
C     -0.439353   -2.234204   -0.499274
C     -1.422109   -1.583177    0.353500
C     -2.324791   -0.685171   -0.098496
C     -2.547819   -0.117598   -1.485491
C     -2.786302   -1.153015   -2.497651
N     -2.933450   -1.952530   -3.327281
C     -1.409749    0.846952   -1.834386
N     -0.625359    0.596889   -2.923358
O     -1.163489    1.837966   -1.144566
C     -1.400074   -1.857703    1.782376
C     -0.501739   -2.688968    2.339760
C     -0.365425   -2.924358    3.817258
S     -0.229014   -1.367672    4.771123
C      1.521418   -0.945912    4.470520
C      1.824442   -0.490559    3.063390
C      2.773301   -1.177882    2.290681
C      3.040506   -0.786471    0.976142
C      2.365801    0.299851    0.425638
Cl     2.661940    0.748686   -1.209133
C      1.442647    1.012477    1.186054
C      1.180725    0.625028    2.503306
C      0.450287   -3.430787    1.456307
O      1.218601   -4.264696    1.932374
