34

C     -2.110617    2.417951    4.633501
C     -1.259442    3.239454    4.004380
C     -0.869495    3.146025    2.569561
O     -0.539063    4.172456    1.987149
N     -0.861434    1.869060    2.067179
C     -0.552330    1.453626    0.753638
C     -0.329902    2.335475   -0.302349
C     -0.003504    1.859594   -1.598444
C      0.254199    2.674415   -2.721887
N      0.206597    4.085810   -2.568376
C      0.207006    5.097340   -3.554346
C      0.594859    6.395691   -3.189118
C      0.551386    7.448527   -4.106091
C      0.098724    7.224607   -5.403571
C     -0.316415    5.947632   -5.789920
C     -0.859081    5.706570   -7.167091
C     -0.280933    4.902007   -4.852334
N      0.536084    2.146444   -3.926774
C      0.579118    0.815565   -4.011041
N      0.363542   -0.046826   -3.012734
C      0.072253    0.478473   -1.820827
C     -0.168086   -0.391592   -0.764049
C     -0.479638    0.071761    0.517342
O     -0.728721   -0.727928    1.609006
C     -0.664206   -2.144031    1.410360
C     -0.970003   -2.812809    2.748622
C     -1.041854   -4.338899    2.647044
N      0.164840   -4.953867    2.085767
C     -0.085790   -6.363348    1.710784
C      1.187184   -7.244768    1.595998
N      2.439078   -6.521029    1.318913
C      2.436028   -5.972651   -0.038709
C      2.623726   -5.449955    2.322262
C      1.333651   -4.878291    2.975511
