26

C      2.091512    5.242073    0.900222
C      2.711445    4.061437    0.775285
C      1.947651    2.837107    0.393656
O      0.741352    2.884829    0.187028
N      2.765770    1.734531    0.319846
C      2.345175    0.438600   -0.014595
N      1.053822    0.206599   -0.292389
C      0.673433   -1.053383   -0.612435
C     -0.656522   -1.359007   -0.911858
N     -1.571222   -0.270822   -0.858236
C     -2.947528   -0.146501   -1.079997
C     -3.778794   -1.213396   -1.442229
C     -5.149672   -1.026086   -1.650416
C     -5.703788    0.237623   -1.497077
F     -7.019920    0.395752   -1.701279
C     -4.901994    1.314627   -1.138112
Cl    -5.578603    2.886637   -0.945087
C     -3.533489    1.123596   -0.931090
N     -1.062466   -2.605524   -1.233791
C     -0.120869   -3.553889   -1.254644
N      1.179879   -3.380187   -0.986827
C      1.556693   -2.132735   -0.669926
C      2.888336   -1.864640   -0.377700
C      3.309524   -0.574882   -0.044387
O      4.597182   -0.209478    0.259413
C      5.583163   -1.236702    0.230734
