36

C     -0.104918   -2.344875    3.332116
C     -0.427562   -1.872680    2.122992
C     -1.276907   -2.584430    1.177569
C     -1.346878   -1.805442    0.083411
C     -2.190059   -2.112515   -1.105010
O     -3.002113   -3.029394   -1.113434
N     -1.956977   -1.271993   -2.166926
C     -2.692125   -1.385148   -3.412275
C     -4.077809   -0.718156   -3.331310
N     -4.927069   -0.784065   -4.519600
C     -4.361767   -0.319743   -5.778469
C     -3.721450   -1.375866   -6.671083
C     -5.900149   -1.868377   -4.575986
C     -5.362472   -3.280983   -4.380311
N     -0.562740   -0.648329    0.213630
C     -0.034638   -0.597496    1.500369
C      0.625679    0.419495    2.072099
C      1.009346    1.688045    1.354864
C     -0.249888    2.477675    0.903708
O     -1.111379    2.092302    0.126060
N     -0.223307    3.702275    1.545458
C      0.916814    3.842074    2.312741
N      1.221916    4.936737    2.993770
C      2.406740    4.851532    3.609937
N      3.256350    3.802463    3.571918
C      2.896811    2.712786    2.866848
N      3.765572    1.609384    2.727262
C      5.124494    1.489995    3.095068
C      5.666863    0.202841    3.262713
C      7.016737    0.022618    3.576928
C      7.845014    1.130037    3.705067
F      9.137732    0.937262    4.005065
C      7.339569    2.411001    3.511142
Cl     8.367343    3.787022    3.642686
C      5.989252    2.588603    3.196208
C      1.685555    2.702129    2.226305
