21

N     -1.503210   -0.094360    5.674382
C     -1.517368   -0.006730    4.516779
C     -1.582139    0.079834    3.098072
C     -2.771414   -0.000709    2.468962
C     -2.999611    0.119964    1.034641
C     -3.403274   -0.977411    0.369874
C     -3.633691   -0.928925   -1.094421
O     -4.205474   -1.869295   -1.650107
C     -3.142766    0.294338   -1.885213
O     -4.106733    0.675460   -2.856358
C     -2.885150    1.473155   -1.006839
C     -2.819037    1.381756    0.328630
C     -0.319645    0.259054    2.345273
O      0.461263    1.179781    2.947862
N      0.003605   -0.368767    1.264001
C      1.220733   -0.110377    0.627337
C      1.313539    0.898880   -0.334513
C      2.530197    1.161469   -0.966160
C      3.657927    0.407068   -0.644848
C      3.567849   -0.613454    0.301063
C      2.349899   -0.874130    0.931232
