30

O      0.260530    2.755447   -2.126437
C      0.524586    2.086424   -1.137082
C      0.681343    2.722034    0.204033
C      0.578185    4.053204    0.342891
C      0.696249    4.770936    1.656007
N     -0.525876    5.415446    2.140927
C     -1.614265    4.462434    2.391104
C     -2.803576    5.150029    3.063017
C     -3.284601    6.348257    2.252078
C     -2.122314    7.287371    1.951373
C     -0.957418    6.538424    1.301018
N      0.715660    0.719804   -1.079383
C      0.592009   -0.203907   -2.138474
C      0.221712    0.135279   -3.433891
C      0.094537   -0.858427   -4.413706
C      0.335027   -2.198608   -4.143627
N      0.178584   -3.090348   -5.124971
C      0.413238   -4.369310   -4.817633
N      0.800149   -4.835505   -3.628705
C      0.969230   -3.930638   -2.648530
N      1.432153   -4.364004   -1.373913
C      1.458358   -5.682487   -0.862937
C      0.495287   -6.640023   -1.205371
C      0.500810   -7.912137   -0.625651
C      1.459915   -8.238747    0.329222
C      2.407250   -7.288486    0.697626
Br     3.702888   -7.715830    2.006961
C      2.403079   -6.016629    0.118834
C      0.730226   -2.556405   -2.849911
C      0.845127   -1.549557   -1.852818
