33

C     -4.378045    0.112941   -0.462993
C     -3.228461   -0.053694    0.216638
C     -2.564831   -1.393784    0.387763
N     -2.233656   -1.752786    1.778644
C     -3.440657   -1.928693    2.591564
C     -1.441835   -2.984434    1.800999
C     -2.604904    1.152933    0.812212
O     -3.519238    1.837073    1.530315
N     -1.427203    1.660536    0.805924
C     -0.407698    1.056669    0.054500
C      0.646368    0.459888    0.753164
C      1.744195   -0.127603    0.086447
C      2.848080   -0.736053    0.750414
N      2.898160   -0.793540    2.171493
C      2.549975   -1.902557    2.982195
C      2.592667   -1.748778    4.377934
C      2.307507   -2.819736    5.228697
C      1.993229   -4.060196    4.688309
F      1.713267   -5.074759    5.519202
C      1.972307   -4.240690    3.309173
Cl     1.575016   -5.772713    2.629711
C      2.262544   -3.170351    2.458588
C      3.863694   -1.327069   -0.015744
C      5.012112   -1.952091    0.563166
N      5.957570   -2.471605    0.992076
C      3.755956   -1.268019   -1.392165
N      2.729739   -0.680129   -2.046901
C      1.748429   -0.119684   -1.324485
C      0.702990    0.486500   -2.010544
C     -0.367847    1.092783   -1.348691
O     -1.421849    1.717155   -1.962785
C     -1.400389    1.918712   -3.373343
C     -2.031603    0.738879   -4.091635
