32

C     -3.520168   -3.378183    2.228787
C     -3.256528   -2.613172    1.161583
C     -2.767391   -1.213893    1.332232
O     -2.632312   -0.722121    2.443354
N     -2.493000   -0.620236    0.121204
C     -2.015882    0.690045   -0.124308
C     -1.829285    1.639867    0.883087
C     -1.374796    2.925310    0.557687
C     -1.157467    3.971810    1.604214
N     -1.366320    3.676232    2.851369
C     -1.167092    4.656721    3.832799
C      0.039053    4.702916    4.538731
C      0.238980    5.652476    5.542778
C     -0.775608    6.557192    5.853615
C     -1.985010    6.501200    5.161186
Br    -3.364732    7.722366    5.588397
C     -2.187517    5.552766    4.160088
N     -0.742215    5.236317    1.231176
C     -0.525362    5.453314   -0.019754
N     -0.645888    4.569004   -1.048235
C     -1.116149    3.284304   -0.771326
C     -1.281485    2.333574   -1.778237
C     -1.717743    1.037981   -1.463457
S     -1.907219   -0.169529   -2.786839
C     -0.187223   -0.265946   -3.410149
C      0.838588   -0.808523   -2.411010
C      0.545454   -2.241969   -1.944834
N      1.675000   -2.881236   -1.243325
C      1.365280   -4.300235   -0.990216
C      2.543091   -5.108730   -0.455882
C      2.135744   -2.152752   -0.049215
C      1.132707   -2.010360    1.090548
