36

N     -1.462042    2.179913   -1.846849
C     -0.422660    2.037847   -1.348670
C      0.847576    1.857505   -0.730792
C      1.424188    2.787848    0.054664
C      0.796812    4.062231    0.414449
C      0.917226    5.173974   -0.433043
C      0.301415    6.383214   -0.100196
C     -0.429988    6.470519    1.075280
O     -1.085169    7.632420    1.361877
C     -0.521642    5.380454    1.935495
O     -1.172251    5.491498    3.130127
C      0.071567    4.168512    1.606936
C      1.578105    0.595655   -1.052230
O      1.439060    0.040538   -2.137833
N      2.343261    0.076939   -0.030025
C      2.960591   -1.245298   -0.126878
C      4.348224   -1.208779    0.538143
C      4.833430   -2.572588    1.033353
C      4.258557   -3.714272    0.209430
C      2.729999   -3.748639    0.266663
C      2.086010   -2.369225    0.494111
N      0.705861   -2.379373    0.009776
C     -0.267682   -1.569309    0.552704
O     -0.060890   -0.803998    1.489660
C     -1.617555   -1.694839   -0.065596
C     -2.722487   -1.777226    0.827066
N     -3.632330   -1.898498    1.538359
C     -1.733164   -1.658848   -1.407873
C     -2.982856   -1.752718   -2.179166
C     -3.237306   -0.790327   -3.166082
C     -4.392309   -0.859676   -3.950528
C     -5.294779   -1.900806   -3.755541
O     -6.429959   -1.982518   -4.511062
C     -5.046907   -2.867840   -2.782543
O     -5.944150   -3.883874   -2.603155
C     -3.892058   -2.804894   -2.000980
