26

C     -5.766503   -2.095599    1.056417
C     -5.552523   -1.191347    0.094617
O     -6.580290   -0.475699   -0.471749
C     -4.233445   -0.886493   -0.413567
C     -3.983520   -0.034875   -1.421956
C     -2.611951    0.223788   -1.929913
O     -2.428206    0.286517   -3.138023
N     -1.690652    0.429778   -0.926271
C     -0.303569    0.642638   -1.062706
C      0.370386    0.625799   -2.280407
C      1.750753    0.838780   -2.321111
C      2.484123    1.051996   -1.150375
N      3.873710    1.286026   -1.303664
C      4.529967    1.523389   -0.217464
N      3.983283    1.537001    1.023122
C      2.674162    1.248173    1.315696
N      2.392971    1.178621    2.591136
C      1.155006    0.826209    3.120065
C      0.313286    1.818740    3.632212
C     -0.920926    1.482843    4.191895
C     -1.313242    0.146150    4.255658
C     -0.461486   -0.846786    3.772165
Br    -0.995876   -2.658066    3.856082
C      0.774865   -0.515315    3.219092
C      1.809970    1.040667    0.096803
C      0.421534    0.864580    0.117638
