35

C     -4.060406    1.491285    1.066143
C     -3.205776    0.483737    0.414879
C     -3.098861   -0.838927    0.571016
C     -2.085231   -1.367251   -0.303519
C     -1.703357   -2.645991   -0.383526
C     -0.637057   -3.189714   -1.291713
C     -0.984964   -2.904591   -2.776306
O     -1.988799   -3.251597   -3.378429
N      0.078160   -2.200061   -3.317786
C      1.082772   -2.012562   -2.388411
N      2.242200   -1.423129   -2.663982
C      3.103056   -1.455295   -1.640471
N      2.890112   -2.011678   -0.429069
C      1.685690   -2.575964   -0.209766
N      1.508109   -3.198888    1.041258
C      0.603840   -2.729133    2.031042
C      0.060789   -3.651759    2.934938
C     -0.784536   -3.225823    3.961764
C     -1.063705   -1.870536    4.105626
F     -1.883127   -1.482403    5.093465
C     -0.494121   -0.937112    3.244432
Cl    -0.817476    0.744314    3.426166
C      0.351021   -1.363209    2.219176
C      0.727761   -2.581547   -1.184660
N     -1.550646   -0.337974   -1.032200
C     -2.192882    0.724585   -0.620635
C     -1.936252    2.108035   -1.165882
O     -2.895879    2.720214   -1.624201
N     -0.634043    2.611803   -1.107095
C     -0.355205    3.797328   -1.916041
C      0.932355    4.531293   -1.498597
N      2.118255    3.667290   -1.328478
C      2.617975    3.172328   -2.610017
C      1.777993    2.563903   -0.411174
C      0.517508    1.763738   -0.789253
