30

O      0.828136   -1.455030    4.235199
C      0.191642   -0.960455    3.315052
C     -1.294063   -1.014062    3.358765
C     -2.047383   -1.277591    2.277711
C     -3.546163   -1.346652    2.302580
N     -4.134625   -0.327105    1.423511
C     -4.064630   -0.717816   -0.004778
C     -4.764374    0.313856   -0.905009
O     -6.136322    0.485429   -0.529560
C     -6.221604    0.906905    0.837015
C     -5.558487   -0.114800    1.773335
N      0.673178   -0.272253    2.224246
C      2.019091   -0.058829    1.865205
C      3.102739   -0.581989    2.563712
C      4.405040   -0.331735    2.124524
C      4.648543    0.439868    0.984035
N      6.006453    0.622719    0.621055
C      6.217984    1.325305   -0.440978
N      5.242837    1.881870   -1.199728
C      3.895551    1.794961   -0.955175
N      3.138353    2.428477   -1.813104
C      1.750043    2.495721   -1.763159
C      1.122619    3.548159   -1.088150
C     -0.270221    3.641089   -1.059162
C     -1.043628    2.688499   -1.722047
C     -0.417632    1.656269   -2.420447
Br    -1.465684    0.366688   -3.321367
C      0.973264    1.562625   -2.454750
C      3.549936    0.979601    0.267190
C      2.251860    0.719976    0.721305
