31

C     -2.653080   -4.325875   -3.357226
C     -2.133397   -3.628080   -2.338369
C     -2.515865   -3.827381   -0.923636
O     -3.457923   -4.773271   -0.775974
N     -2.112455   -3.273140    0.162840
C     -1.125770   -2.275795    0.092610
C      0.187113   -2.616600    0.425834
C      1.200110   -1.654707    0.352647
C      2.618626   -1.988758    0.689928
N      2.906192   -3.200450    1.063115
C      4.230090   -3.524929    1.380233
C      4.689567   -3.395261    2.694069
C      6.008556   -3.717833    3.017774
C      6.872825   -4.182269    2.026583
C      6.408913   -4.328447    0.719644
Br     7.577273   -4.966450   -0.622676
C      5.092365   -4.006821    0.393554
N      3.486889   -0.929466    0.558306
C      3.120627    0.319030    0.157229
N      1.916877    0.677276   -0.149747
C      0.925500   -0.330524   -0.050796
C     -0.390210    0.007091   -0.367147
C     -1.410009   -0.945663   -0.271830
O     -2.666111   -0.516220   -0.622490
C     -3.603848   -0.644549    0.451682
C     -4.615082    0.499515    0.368181
C     -4.000696    1.906275    0.367875
C     -3.202355    2.221019    1.640391
N     -2.609445    3.569646    1.617501
C     -1.594391    3.689732    2.667775
C     -3.617318    4.618326    1.785050
