29

C     -2.722558   -2.702336   -5.192683
C     -2.060014   -3.406638   -4.012982
N     -3.020651   -4.009691   -3.086413
C     -3.994446   -3.103819   -2.472271
C     -3.450389   -1.904634   -1.702491
C     -2.411994   -4.972635   -2.161514
C     -1.365620   -4.416753   -1.294342
C     -0.502670   -3.967770   -0.587986
C      0.525311   -3.394753    0.255324
O      1.304921   -4.149600    0.815170
N      0.482826   -2.020609    0.314369
C      1.331656   -1.162535    1.038464
C      2.390524   -1.604117    1.837631
C      3.195399   -0.690339    2.532012
C      2.946563    0.677386    2.438953
N      3.732348    1.619885    3.099904
C      3.418151    2.938541    2.969113
N      2.470525    3.454003    2.262857
C      1.660286    2.591985    1.548953
N      0.693021    3.035703    0.802153
C      0.470838    4.417799    0.724180
C      1.037317    5.161243   -0.316030
C      0.792979    6.531771   -0.424478
C     -0.031279    7.165179    0.504990
C     -0.608527    6.421498    1.533911
Br    -1.733274    7.278093    2.790145
C     -0.367484    5.052973    1.643326
C      1.891387    1.119407    1.633750
C      1.085446    0.210026    0.938375
