36

C     -2.010655    5.524709    0.593568
C     -1.759749    4.273484    1.000059
C     -0.519978    3.566958    0.566591
O      0.297138    4.109613   -0.166122
N     -0.442890    2.298227    1.095167
C      0.577121    1.337582    0.905858
C      1.673102    1.532122    0.064739
C      2.678388    0.546906   -0.081719
C      3.823083    0.698506   -0.916585
N      4.008668    1.880622   -1.687999
C      3.663012    2.051542   -3.053415
C      3.258135    0.990147   -3.876313
C      2.988662    1.198258   -5.232342
C      3.140910    2.466487   -5.779550
F      2.876428    2.643152   -7.082342
C      3.565504    3.527418   -4.986871
Cl     3.771333    5.099130   -5.659705
C      3.834106    3.319847   -3.631757
C      4.739721   -0.358145   -1.017945
C      5.916043   -0.294513   -1.828380
N      6.881075   -0.293265   -2.473754
C      4.499903   -1.498200   -0.274434
N      3.430795   -1.663142    0.536712
C      2.541413   -0.663810    0.629566
C      1.442360   -0.850144    1.457607
C      0.458259    0.128192    1.609497
O     -0.659367    0.019872    2.401859
C     -0.860335   -1.168137    3.170035
C     -1.538630   -2.270071    2.354535
C     -2.880458   -1.803340    1.774386
N     -3.629938   -2.898729    1.136504
C     -5.011635   -2.458560    0.831464
C     -5.809843   -3.555569    0.110651
O     -5.165472   -3.943619   -1.108816
C     -3.844695   -4.423897   -0.829513
C     -2.997000   -3.351698   -0.123575
