29

O     -1.060249   -1.962168   -3.793118
C     -0.364948   -1.462020   -2.759471
C      0.172217   -2.507545   -1.862549
C     -0.011952   -3.820147   -2.061146
N      0.421649   -4.902434   -1.299877
C      0.342712   -6.276373   -1.853980
C      0.219202   -7.314063   -0.730613
O      1.296470   -7.200272    0.211134
C      1.278347   -5.896147    0.809787
C      1.446642   -4.785700   -0.238395
N     -0.278087   -0.180146   -2.721773
C      0.427283    0.428621   -1.678333
C      1.756023    0.820561   -1.874199
C      2.474340    1.451943   -0.853991
C      1.858686    1.714935    0.369931
N      2.547792    2.310151    1.427206
C      1.871261    2.565062    2.581829
N      0.652213    2.255833    2.863755
C     -0.084626    1.598080    1.897155
N     -1.304547    1.212924    2.125417
C     -1.882852    1.476632    3.374860
C     -1.881477    0.491832    4.367612
C     -2.485253    0.728676    5.604210
C     -3.105137    1.953326    5.850214
C     -3.120643    2.930259    4.855012
Br    -3.968717    4.588255    5.184996
C     -2.520276    2.695367    3.619212
C      0.527123    1.320957    0.564012
C     -0.193157    0.693437   -0.457145
