38

C      2.495195   -3.683327   -0.432329
O      1.557403   -4.524778    0.231826
C      0.452268   -3.893943    0.784173
C     -0.042621   -4.385688    1.930883
C     -1.203696   -3.812051    2.594770
C     -1.543825   -4.273932    3.817803
C     -2.682394   -3.874658    4.638409
C     -3.641505   -4.916104    4.873831
N     -4.388264   -5.790726    5.035792
C     -2.894734   -2.638914    5.147163
O     -4.087517   -2.396928    5.793008
N     -2.106088   -1.503288    5.099093
C     -0.653024   -1.505277    5.297910
C     -0.110309   -0.078755    5.147523
C     -0.130549    0.442363    3.705304
C      0.989041   -0.151756    2.855907
N      0.927283    0.321805    1.486618
C      2.053668    0.288746    0.686132
O      3.166550    0.003955    1.115966
C      1.829707    0.556887   -0.765468
C      2.695560   -0.106342   -1.683135
N      3.387465   -0.627562   -2.457198
C      0.893285    1.444558   -1.156637
C      0.547268    1.766539   -2.535650
C      0.651935    3.044440   -2.937121
C      0.318100    3.502586   -4.320144
Br    -1.164918    4.763036   -4.159730
C     -0.127262    2.412500   -5.290354
O     -0.370263    2.669337   -6.471406
C     -0.259175    1.009684   -4.759705
O     -0.738458   -0.040030   -5.528451
C     -0.216159   -0.098738   -6.852594
C      0.048802    0.776701   -3.475705
C     -1.966823   -2.790277    1.896251
C     -1.527252   -2.252301    0.749494
Br    -2.462273   -0.874736   -0.102818
C     -0.232619   -2.710132    0.141426
O      0.241661   -2.117599   -0.824822
