26

C     -3.044017    2.981941    1.258695
O     -1.969518    2.048107    1.310292
C     -1.582118    1.487729    0.118679
C     -2.107019    1.787799   -1.137133
C     -1.630842    1.121966   -2.275778
C     -2.159985    1.421155   -3.613037
C     -3.449703    1.376408   -4.003482
C     -3.811104    1.790184   -5.316947
N     -4.051700    2.115273   -6.405083
C     -4.560384    0.959752   -3.109938
N     -4.422185   -0.252153   -2.503320
O     -5.557658    1.649015   -2.940819
C     -0.601415    0.179509   -2.149215
C     -0.047500   -0.129097   -0.894528
C      1.054640   -1.153765   -0.787064
S      2.598200   -0.611322   -1.591896
C      3.272890    0.454715   -0.279426
C      3.970839   -0.327554    0.806567
C      3.403806   -0.438953    2.084432
C      4.050363   -1.163966    3.088496
C      5.269972   -1.781129    2.821394
Cl     6.065174   -2.674367    4.058448
C      5.849165   -1.679691    1.559169
C      5.202030   -0.954978    0.555580
C     -0.559118    0.532619    0.224042
O     -0.054178    0.248813    1.466802
