27

C     -0.603023    4.898636   -0.839416
C     -0.694194    3.440576   -0.569779
N      0.273331    2.569932   -1.002136
C     -0.028321    1.289796   -0.611950
C      0.862715    0.265118   -1.005839
C      1.524310   -0.530896   -0.152938
C      1.535641   -0.510353    1.359215
O      0.953595    0.225499    2.129503
N      2.394506   -1.539904    1.721935
C      2.922253   -2.185557    0.611515
C      3.814480   -3.240131    0.616866
C      4.220591   -3.743383   -0.620921
C      3.716964   -3.183483   -1.813948
S      4.267857   -3.841053   -3.369153
N      3.228423   -5.148014   -3.570680
O      5.605695   -4.351682   -3.195205
O      3.919629   -2.899660   -4.408027
C      2.820666   -2.105429   -1.800735
C      2.428588   -1.615376   -0.567141
C     -1.226858    1.331072    0.081304
C     -1.954492    0.181052    0.688117
C     -1.646630    2.704408    0.115908
C     -2.882375    3.242556    0.774223
C     -4.070885    3.268978   -0.180874
C     -5.293961    3.812054    0.497699
O     -5.392921    4.223680    1.640420
O     -6.364952    3.814246   -0.321755
