32

C     -3.447926   -0.311862    4.514405
C     -3.272730    0.220282    3.298751
C     -2.245822   -0.305512    2.381859
O     -2.391189    0.300514    1.189199
N     -1.365541   -1.205374    2.651555
C     -0.368455   -1.554970    1.725530
C      0.678017   -0.649066    1.503123
C      1.743187   -0.990992    0.667379
C      2.857006   -0.034193    0.386957
N      2.810388    1.153460    0.912651
C      3.842739    2.060974    0.650698
C      4.954156    2.124213    1.495958
C      5.987307    3.027342    1.239952
C      5.907272    3.880022    0.139125
C      4.789724    3.828933   -0.693369
Br     4.675741    4.990016   -2.180906
C      3.756613    2.928119   -0.440153
N      3.834946   -0.544288   -0.435664
C      3.809275   -1.793904   -0.975638
N      2.871268   -2.664380   -0.788454
C      1.810773   -2.258406    0.059748
C      0.775246   -3.163192    0.297850
C     -0.327169   -2.819134    1.100596
S     -1.587040   -4.078302    1.312662
C     -3.034293   -3.289498    0.519207
C     -3.156669   -3.558105   -0.981408
C     -2.184044   -2.783105   -1.885112
N     -2.255460   -1.305994   -1.750552
C     -1.058063   -0.723740   -2.403788
C     -0.900296    0.778495   -2.193927
C     -3.495875   -0.792784   -2.378771
C     -4.216729    0.174095   -1.450454
