30

O      3.276333    0.957993   -1.753775
C      2.418979    0.627678   -0.774293
C      1.875474   -0.708584   -1.064184
C      1.894965   -1.682034   -0.141053
C      1.360534   -3.064133   -0.379793
N      2.331531   -4.143796   -0.231041
C      2.872419   -4.321989    1.125623
C      4.367925   -3.981177    1.232972
O      5.189717   -4.744997    0.340854
C      4.521294   -5.105753   -0.876928
C      3.389110   -4.138098   -1.255008
N      2.241941    1.491256    0.155676
C      1.315605    1.237929    1.174648
C      1.773853    1.102034    2.489786
C      0.882129    0.869200    3.541932
C     -0.486925    0.789939    3.287938
N     -1.410014    0.523550    4.299542
C     -2.734073    0.495147    3.979960
N     -3.263936    0.618925    2.811451
C     -2.415242    0.811326    1.737997
N     -2.870539    0.888326    0.523104
C     -4.249826    0.772162    0.301602
C     -5.039715    1.920593    0.189774
C     -6.408556    1.819119   -0.066696
C     -6.993659    0.563118   -0.223819
C     -6.203616   -0.582115   -0.127690
Br    -6.994516   -2.285770   -0.349157
C     -4.836706   -0.483271    0.126596
C     -0.946007    0.931468    1.971250
C     -0.055501    1.172383    0.920517
