34

C      0.881008   -4.417366    1.938708
O     -0.211966   -5.180712    2.431685
C     -0.161016   -5.394701    3.845494
C     -0.630069   -4.176238    4.664501
C     -0.335709   -4.363635    6.152751
C     -1.311677   -3.431226    6.862419
C     -2.330807   -3.028257    5.802856
N     -2.087467   -3.965721    4.708989
C     -2.719942   -3.589558    3.444249
C     -2.174064   -2.375247    2.822246
C     -1.696376   -1.401950    2.303238
C     -1.098241   -0.262531    1.681604
O     -1.903634    0.780018    1.426230
N      0.160512   -0.371995    1.434076
C      0.841068    0.684553    0.826883
C      1.408871    1.695808    1.591782
C      2.093832    2.741453    0.968412
C      2.244108    2.798917   -0.409945
N      2.902250    3.843757   -0.931630
C      3.049567    3.903404   -2.274573
C      2.564478    2.950185   -3.150049
C      2.792726    3.113484   -4.552141
N      3.005547    3.290588   -5.679745
C      1.884091    1.848627   -2.611764
N      1.347913    0.855287   -3.479116
C      0.043890    0.872603   -4.040047
C     -0.763528    2.018257   -4.045747
C     -2.019120    2.008447   -4.661155
C     -2.475340    0.858092   -5.300117
C     -1.666528   -0.273869   -5.329620
Br    -2.268294   -1.832072   -6.216102
C     -0.412432   -0.268026   -4.716258
C      1.698566    1.764643   -1.203140
C      0.996696    0.715803   -0.559472
