23

C     -1.534324   -3.330264   -5.394429
C     -1.108652   -2.764021   -4.257678
C     -2.048322   -1.986748   -3.396421
O     -3.223665   -1.852172   -3.708821
N     -1.417588   -1.484090   -2.276501
C     -1.991771   -0.707864   -1.246665
C     -3.335217   -0.324885   -1.210501
C     -3.833016    0.447299   -0.150986
C     -3.001842    0.852502    0.891844
N     -3.561736    1.630618    1.935162
C     -2.747721    1.978334    2.877685
N     -1.425326    1.655618    2.929366
C     -0.771562    0.908627    1.976256
N      0.483722    0.568280    1.964117
C      1.315920    0.978693    3.011811
C      2.002713    2.193791    2.929088
C      2.838603    2.606868    3.967914
C      2.998152    1.797375    5.092306
C      2.326682    0.577463    5.166945
Cl     2.528240   -0.422607    6.552573
C      1.491005    0.163661    4.131421
C     -1.648807    0.463878    0.849296
C     -1.146526   -0.307610   -0.206165
