26

C      1.840985    5.018231    4.697479
C      1.699446    4.060989    3.771391
C      0.406582    3.892016    3.044622
O     -0.551122    4.614268    3.285386
N      0.467472    2.866079    2.122179
C     -0.568623    2.421287    1.273915
C     -1.851340    2.954957    1.259045
C     -2.823070    2.433669    0.394575
C     -2.553607    1.386594   -0.474436
N     -3.535224    0.935294   -1.259254
C     -3.233887   -0.080916   -2.073013
N     -2.043194   -0.674825   -2.184970
C     -1.054892   -0.204744   -1.403195
N      0.250126   -0.761013   -1.520560
C      0.628048   -1.975188   -2.137047
C     -0.214728   -3.090533   -2.189993
C      0.217207   -4.298137   -2.744560
C      1.516503   -4.418961   -3.230728
C      2.401106   -3.336674   -3.148903
C      3.809981   -3.452328   -3.671903
F      4.297658   -4.723571   -3.632628
F      3.916983   -3.048866   -4.967586
F      4.699637   -2.693158   -2.971174
C      1.945972   -2.124884   -2.596809
C     -1.261699    0.848386   -0.488368
C     -0.279720    1.368993    0.399030
