31

C     -3.762210   -3.058471   -4.642209
C     -2.643647   -2.129531   -4.191947
C     -2.463833   -2.173887   -2.668535
N     -1.432964   -1.221095   -2.209731
C     -0.083822   -1.773085   -2.428431
C      0.958705   -0.694181   -2.387569
C      2.003917   -0.699297   -1.545081
C      2.982482    0.403552   -1.466131
O      3.030563    1.126493   -2.595621
N      3.788975    0.761086   -0.531822
C      3.779502    0.077637    0.691028
C      4.923657   -0.621638    1.088585
C      4.961851   -1.303755    2.309776
C      3.851905   -1.281817    3.154222
N      3.825576   -1.988042    4.357683
C      2.715938   -1.889130    5.142957
N      1.611342   -1.282107    4.871717
C      1.514873   -0.642491    3.650943
N      0.403309   -0.095503    3.259082
C     -0.724389   -0.161043    4.088032
C     -1.067507    0.933495    4.886862
C     -2.216397    0.901381    5.679798
C     -3.036893   -0.226161    5.667523
C     -2.703190   -1.312322    4.859236
Br    -3.822622   -2.836111    4.828274
C     -1.556642   -1.282847    4.067649
C      2.704273   -0.585720    2.752370
C      2.673206    0.113853    1.542635
C     -1.632515   -0.881689   -0.782641
C     -2.742492    0.162837   -0.600314
C     -2.897343    0.554661    0.861999
