29

C     -5.562365    3.838437   -0.837792
C     -5.690547    2.509806   -0.737001
C     -4.957114    1.750587    0.291714
O     -5.263172    0.445015    0.157992
N     -4.159341    2.234490    1.180617
C     -3.521639    1.403796    2.104721
C     -4.057109    1.254109    3.388021
C     -3.425082    0.445464    4.337854
C     -2.235589   -0.207822    4.014363
N     -1.590413   -1.052386    4.918582
C     -0.411990   -1.624787    4.543995
N      0.168388   -1.550148    3.395749
C     -0.446749   -0.801466    2.410954
N      0.043929   -0.729556    1.210048
C      1.224722   -1.422547    0.911105
C      1.170071   -2.724416    0.404151
C      2.343123   -3.404673    0.068217
C      3.577508   -2.767442    0.214206
O      4.772018   -3.390833   -0.066468
C      4.876244   -4.043334   -1.274239
C      5.481689   -5.300377   -1.262532
C      5.650348   -6.002816   -2.456214
C      5.227268   -5.440979   -3.661294
C      4.642390   -4.174075   -3.675374
C      4.472952   -3.469264   -2.482699
C      3.643027   -1.471955    0.726450
C      2.466440   -0.797693    1.060327
C     -1.703547   -0.059834    2.725566
C     -2.333248    0.751691    1.776444
