30

O      0.313417    1.515146   -4.341088
C      0.574086    0.988103   -3.137872
C      0.494330   -0.441113   -3.031142
C      0.441871   -1.638259   -2.925597
C      0.388928   -3.101843   -2.787562
N      0.930145   -3.626508   -1.526404
C      0.156408   -3.196915   -0.347664
C      0.745831   -3.777760    0.949213
O      2.129362   -3.418171    1.107544
C      2.882785   -3.901952   -0.015166
C      2.357626   -3.317784   -1.337270
N      0.886537    1.753196   -2.148917
C      1.149457    1.190631   -0.892577
C      2.447482    0.788566   -0.558084
C      2.707728    0.169160    0.667152
C      1.665504   -0.058450    1.566290
N      1.888187   -0.678236    2.801159
C      0.802864   -0.931961    3.588031
N     -0.415206   -0.551981    3.403560
C     -0.693355    0.178961    2.265035
N     -1.887095    0.637770    2.033567
C     -2.904049    0.395288    2.967206
C     -3.174540    1.330559    3.970929
C     -4.208006    1.113110    4.884408
C     -4.985538   -0.040733    4.790631
C     -4.726100   -0.966291    3.780209
Br    -5.784779   -2.527826    3.646534
C     -3.696240   -0.750548    2.866120
C      0.384610    0.420485    1.263678
C      0.122377    1.042059    0.039669
