30

O      1.367458    4.520001   -2.501908
C      0.895853    3.889981   -1.569118
C      0.509393    4.605992   -0.372081
C      0.160994    5.089247    0.671786
C     -0.309176    5.565379    1.978365
N     -0.663269    4.480203    2.900786
C     -1.815082    3.678093    2.460778
C     -1.715265    2.161866    2.679449
S     -0.248002    1.465652    1.847516
C      1.020774    2.567432    2.568139
C      0.471162    3.716666    3.426958
N      0.671006    2.534928   -1.478235
C      0.936712    1.550213   -2.445297
C      1.492052    1.808513   -3.691598
C      1.714835    0.757981   -4.591534
C      1.402672   -0.559187   -4.283485
N      1.637372   -1.504830   -5.196413
C      1.311787   -2.756724   -4.859863
N      0.786772   -3.150735   -3.696798
C      0.566516   -2.196159   -2.775324
N      0.042594   -2.558418   -1.503553
C     -0.557232   -3.774875   -1.106368
C     -1.245835   -4.608392   -1.996762
C     -1.888046   -5.769554   -1.553962
C     -1.874306   -6.102609   -0.202432
C     -1.227422   -5.263277    0.698954
Br    -1.226891   -5.690195    2.541621
C     -0.585021   -4.103846    0.257991
C      0.853145   -0.838197   -3.026600
C      0.616674    0.229073   -2.119241
