23

C     -4.608625   -0.384644   -3.916708
C     -3.405308   -0.972001   -3.894539
C     -2.935148   -1.724967   -2.703457
O     -3.624495   -1.895610   -1.708121
N     -1.678576   -2.219675   -2.910833
C     -0.752145   -2.001208   -2.023794
C     -0.883325   -1.165795   -0.778586
C      0.199032   -1.063831    0.020423
C      0.107946   -0.212179    1.262682
N     -0.956780    0.487747    1.520987
C     -1.000856    1.264958    2.686736
C     -1.556975    0.745164    3.857203
C     -1.645884    1.530750    5.006972
C     -1.184471    2.847686    4.989684
C     -0.625906    3.386814    3.824663
C     -0.168062    4.813789    3.788244
C     -0.556047    2.590955    2.672317
N      1.197565   -0.194701    2.112346
C      2.260127   -0.840410    1.778569
N      2.453482   -1.577015    0.651487
C      1.462762   -1.744206   -0.274066
C      1.539676   -2.468071   -1.404235
N      0.478483   -2.579953   -2.264646
