24

C     -3.720035   -1.896291    0.439402
C     -4.100966   -1.538547   -0.794642
C     -3.304114   -0.695708   -1.727933
O     -3.686872   -0.532167   -2.880175
N     -2.209794   -0.123355   -1.143590
C     -1.075163   -0.072796   -1.774658
C     -0.776547   -0.628334   -3.143374
C      0.460657   -0.441312   -3.639880
C      1.501744    0.257188   -2.897048
N      2.725242    0.490005   -3.466410
C      3.588793    1.335093   -2.840055
N      3.447667    1.805012   -1.647941
C      2.367929    1.369613   -0.897227
N      2.501589    1.592382    0.371460
C      1.583675    1.150548    1.321366
C      0.765685    2.082345    1.970361
C     -0.159427    1.665012    2.928520
C     -0.252869    0.314099    3.248392
F     -1.154323   -0.070118    4.163834
C      0.576616   -0.619220    2.629789
Cl     0.461390   -2.291440    3.022269
C      1.504117   -0.201077    1.675518
C      1.221526    0.703355   -1.652600
N     -0.036272    0.540774   -1.111872
