29

C     -4.883804   -0.906311   -5.044376
N     -3.655110   -0.584811   -4.312966
C     -3.452313    0.867414   -4.312017
C     -2.514430   -1.289333   -4.912980
C     -1.334086   -1.286259   -3.986584
C     -0.120656   -0.822204   -4.326074
C      1.067682   -0.840106   -3.430111
O      2.172187   -1.001865   -3.934005
N      0.775513   -0.599239   -2.106744
C      1.676540   -0.561767   -1.023171
C      3.043522   -0.833097   -1.134913
C      3.880720   -0.782341   -0.012019
C      3.357509   -0.466778    1.239889
N      4.158974   -0.384416    2.377605
C      3.571688   -0.085961    3.569332
N      2.329407    0.183461    3.788372
C      1.470072    0.161055    2.705237
N      0.209505    0.447494    2.846594
C     -0.270161    0.738703    4.133963
C     -0.438838    2.070882    4.520212
C     -0.930072    2.381523    5.792060
Cl    -1.099527    4.052326    6.200960
C     -1.268320    1.354104    6.683542
Cl    -1.881364    1.668214    8.268318
C     -1.118909    0.021281    6.299765
C     -0.627397   -0.275375    5.032287
F     -0.502776   -1.564436    4.679629
C      1.991315   -0.186982    1.350939
C      1.151600   -0.238021    0.231886
