26

N     -2.407037    3.314441   -2.059429
C     -1.936561    2.253273   -2.048086
C     -1.332299    0.967797   -2.006316
C     -0.417206    0.526231   -2.889657
C      0.139248    1.297626   -4.007459
C      0.868599    2.477502   -3.789786
C      1.410192    3.182539   -4.867360
C      1.225694    2.700504   -6.153883
O      1.757604    3.389130   -7.205486
C      0.510546    1.527766   -6.379958
O      0.368880    1.110882   -7.674979
C     -0.032053    0.817202   -5.314191
C     -1.786310   -0.014342   -0.981786
O     -2.083817   -1.157228   -1.330246
N     -1.868481    0.411731    0.337237
C     -2.371608   -0.549269    1.325921
C     -1.208975   -1.329299    1.969534
N     -0.231571   -0.383468    2.564861
C      0.783535   -0.920523    3.376305
C      1.122382   -2.281628    3.396828
C      2.138982   -2.770214    4.227113
C      2.834242   -1.906201    5.066149
C      2.508723   -0.555226    5.078646
C      1.493699   -0.073715    4.245460
C      0.259316    0.642919    1.608362
C     -0.924891    1.373693    0.931566
