34

C      5.653213    1.643961    1.720360
N      6.206591    1.615910    0.369489
C      6.170864    2.938714   -0.247193
C      5.611790    0.571131   -0.467876
C      4.143103    0.713177   -0.745968
C      3.209946   -0.161167   -0.336525
C      1.775665    0.059411   -0.676274
O      1.429256    0.977524   -1.408780
N      0.955613   -0.856091   -0.057359
C     -0.449525   -0.958811   -0.153552
C     -1.235036   -0.186489   -1.006096
C     -2.647692   -0.340313   -1.046129
C     -3.523417    0.406214   -1.862739
N     -2.983624    1.407538   -2.715297
C     -3.607895    2.117478   -3.764569
C     -3.057283    3.345876   -4.170417
C     -3.603346    4.066467   -5.236084
C     -4.694379    3.552112   -5.924364
F     -5.204038    4.257644   -6.945048
C     -5.232442    2.320699   -5.566878
Cl    -6.566306    1.661888   -6.437486
C     -4.683239    1.601471   -4.501805
N     -4.851315    0.186933   -1.861810
C     -5.309371   -0.765496   -1.046948
N     -4.573841   -1.523434   -0.227562
C     -3.257317   -1.308585   -0.235321
C     -2.464607   -2.085121    0.596664
C     -1.082288   -1.900371    0.664442
O     -0.287395   -2.681690    1.465818
C     -0.654557   -2.665885    2.856549
C     -0.544044   -4.078158    3.384204
C      0.950996   -4.230570    3.585895
O      1.470014   -2.929820    3.902920
C      0.434242   -1.960645    3.655531
