31

C     -3.970524   -3.018948   -0.603280
C     -2.735927   -3.102180   -1.490329
C     -3.122235   -3.332532   -2.956357
N     -2.036064   -3.327772   -3.927140
C     -0.921241   -4.240385   -3.715066
C      0.122008   -3.720437   -2.824556
C      0.971962   -3.293086   -2.089811
C      1.963949   -2.738055   -1.193710
O      3.033464   -3.315995   -1.079191
N      1.548964   -1.585609   -0.566728
C      2.265397   -0.798897    0.354127
C      3.562449   -1.090680    0.786760
C      4.216041   -0.259453    1.706954
C      3.580406    0.877460    2.201686
N      4.188695    1.721863    3.128819
C      3.507058    2.820528    3.556508
N      2.314623    3.183093    3.226137
C      1.625856    2.385855    2.332103
N      0.414228    2.676665    1.961190
C     -0.201129    3.824079    2.481050
C     -1.021410    3.729722    3.609724
C     -1.668277    4.859718    4.114158
C     -1.505368    6.092173    3.482448
C     -0.699488    6.183993    2.347943
Br    -0.484914    7.853433    1.485457
C     -0.053783    5.057155    1.841719
C      2.280015    1.165494    1.773654
C      1.623705    0.337692    0.855045
C     -1.754176   -2.082437   -4.631503
C     -1.492769   -0.848554   -3.760629
C     -1.157208    0.366541   -4.614371
