34

C     -3.075100    1.341905   -4.329871
O     -2.513870    1.491366   -3.032736
C     -2.500736    0.388909   -2.216969
C     -2.751613   -0.915550   -2.643520
C     -2.728085   -1.986710   -1.733470
N     -2.997817   -3.283161   -2.205913
C     -3.181706   -4.306676   -1.318834
C     -2.917998   -4.247836   -0.006796
C     -3.139390   -5.378955    0.827388
N     -3.357265   -6.337801    1.445559
C     -2.348330   -2.968751    0.552573
N     -1.877295   -3.062340    1.767720
C     -1.231097   -2.061648    2.485352
C      0.126286   -1.797015    2.278012
C      0.783495   -0.830395    3.042398
C      0.087810   -0.131654    4.028230
C     -1.257147   -0.417664    4.256430
Br    -2.197026    0.514980    5.605749
C     -1.914444   -1.387134    3.500369
C     -2.390798   -1.770439   -0.378053
C     -2.158671   -0.456425    0.036124
C     -2.186467    0.618208   -0.865762
N     -1.962917    1.904851   -0.344144
C     -0.860436    2.511310   -0.595250
O     -0.721833    3.721789   -0.029606
C      0.315351    2.140060   -1.410329
C      1.505948    2.753422   -1.309440
C      2.691231    2.429206   -2.163956
N      3.792352    1.708135   -1.538097
C      3.538281    0.285238   -1.273633
C      2.935903   -0.017118    0.105360
O      3.717511    0.563044    1.155857
C      3.798857    1.983737    0.986441
C      4.411876    2.359969   -0.375064
