39

C     -6.124385   -3.887459    1.660071
C     -5.381064   -2.945247    0.728997
O     -4.018979   -2.869591    1.164200
C     -3.303960   -1.871111    0.549700
C     -3.175099   -1.866425   -0.847286
C     -2.305616   -0.975999   -1.485486
N     -2.156317   -1.005308   -2.877128
C     -1.363081   -0.080638   -3.499335
C     -0.550885    0.803282   -2.894094
C      0.176887    1.716853   -3.703164
N      0.719766    2.431669   -4.440012
C     -0.501090    0.788854   -1.380763
N      0.274176    1.449830   -0.573537
C      1.285157    2.307623   -1.007323
C      1.063636    3.684065   -1.046511
C      2.083534    4.546650   -1.447027
C      3.339103    4.037860   -1.790326
C      3.582112    2.666112   -1.718878
O      4.755737    2.037586   -2.033920
C      5.933450    2.835500   -2.183001
C      6.126971    3.414162   -3.568471
C      5.460916    2.899163   -4.689433
C      5.675620    3.444371   -5.956664
C      6.568293    4.501153   -6.121051
C      7.249088    5.013070   -5.018823
C      7.033035    4.470937   -3.750447
C      2.551332    1.808518   -1.323796
C     -1.500438   -0.130907   -0.709164
C     -1.610805   -0.150713    0.689813
C     -2.533098   -0.990895    1.327160
N     -2.573795   -0.917622    2.738192
C     -3.696063   -1.093963    3.521058
O     -4.856168   -1.177923    3.140643
C     -3.359533   -1.064287    4.973505
C     -4.333411   -1.056275    5.898167
C     -4.086575   -1.038301    7.378761
N     -4.580621   -2.198433    8.124297
C     -3.948933   -3.448256    7.710166
C     -6.036053   -2.311827    8.111577
