27

C      0.080384    8.228638    2.928056
C      0.171900    6.878238    2.235354
C     -0.411037    5.763397    3.101571
C     -0.317781    4.462761    2.423532
C     -0.246450    3.402001    1.862328
C     -0.157069    2.122828    1.188846
O     -0.633001    2.017435    0.068066
N      0.462222    1.150349    1.923907
C      0.707626   -0.172084    1.567562
C      0.416022   -0.715630    0.327501
C      0.693515   -2.084217    0.076889
C      0.437329   -2.758430   -1.133488
N     -0.166307   -2.043965   -2.203077
C     -0.291706   -2.419399   -3.559401
C     -1.304281   -1.826552   -4.334461
C     -1.436737   -2.119055   -5.694591
C     -0.540079   -2.990741   -6.299251
F     -0.682033   -3.258034   -7.605801
C      0.491808   -3.561051   -5.561285
Cl     1.623489   -4.620763   -6.312183
C      0.622716   -3.266216   -4.201615
N      0.752117   -4.055786   -1.302373
C      1.307003   -4.690084   -0.266566
N      1.581887   -4.154552    0.925689
C      1.275818   -2.858719    1.080852
C      1.531554   -2.206607    2.274976
N      1.266637   -0.900666    2.547552
