42

C     -8.037952    1.657916    1.491019
C     -7.102218    0.926923    0.544349
O     -5.789385    1.489814    0.652444
C     -4.815458    0.610367    1.049420
C     -4.959745   -0.078456    2.265062
C     -3.910930   -0.837360    2.791856
N     -4.057282   -1.504755    4.014953
C     -3.066278   -2.342454    4.453294
C     -1.837608   -2.459953    3.921055
C     -0.944883   -3.425924    4.456995
N     -0.269413   -4.246469    4.924734
C     -1.502624   -1.583955    2.734417
N     -0.356014   -1.381201    2.157361
C      0.841738   -1.939195    2.603366
C      1.371159   -3.056303    1.958107
C      2.598655   -3.597924    2.357358
C      3.321873   -3.017923    3.403760
O      4.534609   -3.462983    3.861220
C      5.086944   -4.668725    3.328716
C      5.812716   -4.460378    2.017056
C      6.527016   -3.279366    1.766676
C      7.209829   -3.104878    0.561838
C      7.195376   -4.111780   -0.400815
C      6.506948   -5.298293   -0.155512
C      5.826154   -5.476283    1.050290
C      2.795037   -1.875029    4.029140
Cl     3.642575   -1.079345    5.312886
C      1.569465   -1.335026    3.627762
C     -2.672943   -0.834902    2.136046
C     -2.518493   -0.128516    0.933861
C     -3.593005    0.565705    0.359675
N     -3.321240    1.193948   -0.877715
C     -4.213782    1.449326   -1.893732
O     -5.398594    1.154846   -1.963122
C     -3.593279    2.134420   -3.059115
C     -2.457123    1.711054   -3.637734
C     -1.871525    2.342117   -4.869552
N     -0.514771    2.879459   -4.722791
C      0.480728    1.838275   -4.476740
C     -0.449365    3.974291   -3.742158
C      0.800754    4.853061   -3.888226
O      0.742292    5.924779   -2.949673
