42

C     -4.595108   -0.545778    2.882676
C     -4.284985   -0.231962    1.617501
C     -4.760580   -0.983952    0.414551
N     -3.653988   -1.745714   -0.136244
C     -2.901137   -1.315556   -1.090565
C     -3.047866    0.047790   -1.773662
O     -3.547697    1.016531   -1.222301
C     -2.546711    0.170885   -3.151778
C     -1.679052   -0.733948   -3.615355
N     -1.131105   -0.723302   -4.880493
C     -0.522693    0.327818   -5.301163
O     -0.070891    0.292500   -6.567013
C     -0.188560    1.642947   -4.707794
C     -0.783826    2.829324   -5.404317
C      0.609743    1.642153   -3.622503
C      1.049414    2.824959   -2.915647
C      1.851444    2.912537   -1.840786
C      2.594576    1.894042   -0.992322
O      2.357756    0.556931   -1.441450
C      3.490220   -0.288633   -1.279729
C      2.354104    2.032896    0.558974
O      2.571102    3.396161    0.998107
C      3.837564    3.812364    1.091383
N      4.877809    3.110168    0.845567
O      3.897216    5.087831    1.476202
C      0.987845    1.606168    1.119133
C     -0.234440    2.074307    0.376403
C      0.925686    0.897919    2.269741
C     -0.312652    0.408521    2.998231
C     -0.645712    1.397888    4.124019
C     -0.135961   -1.025941    3.563909
O     -1.329454   -1.414555    4.259542
C      0.268851   -2.104333    2.512942
O      0.266917   -3.414563    3.114051
C      1.332424   -3.627250    4.029048
C     -0.698520   -2.179061    1.313630
C     -0.308957   -3.227366    0.246474
C      1.030474   -2.889772   -0.410945
C     -1.420504   -3.420034   -0.815884
C     -1.799691   -2.190913   -1.611899
C     -1.281737   -1.884877   -2.813184
O     -0.326273   -2.695347   -3.401064
