41

C     -7.324596   -2.784087   -0.589716
C     -5.975203   -3.476364   -0.652952
O     -5.169017   -2.961858    0.403352
C     -3.896884   -3.456498    0.539165
C     -3.318299   -4.415333   -0.299278
C     -2.013284   -4.859868   -0.121082
N     -1.534875   -5.782057   -0.970604
C     -0.262163   -6.207882   -0.807833
C      0.592878   -5.737975    0.171927
C      1.931098   -6.232197    0.224826
N      3.017750   -6.633882    0.288586
C      0.108559   -4.772234    1.065055
N      0.977473   -4.158770    2.013746
C      1.491626   -2.837422    1.948434
C      1.187129   -1.953986    0.903312
C      1.653367   -0.637382    0.915997
C      2.428625   -0.183861    1.980164
O      2.825100    1.128537    1.982192
C      4.110221    1.296137    1.350103
C      4.853182    2.402071    2.099621
C      3.930966    1.665017   -0.113137
C      3.070077    2.704297   -0.501473
C      2.914750    3.032300   -1.849015
C      3.613837    2.324106   -2.823937
C      4.470395    1.289490   -2.453333
C      4.629648    0.961446   -1.105819
C      2.712677   -1.038786    3.046858
Cl     3.624873   -0.505136    4.410723
C      2.249933   -2.358511    3.026901
C     -1.238664   -4.327850    0.930206
C     -1.840883   -3.394220    1.801429
C     -3.147182   -2.938354    1.604862
N     -3.693216   -2.009392    2.506706
C     -3.396536   -0.766600    2.381625
O     -3.956479    0.055802    3.283231
C     -2.532762   -0.052589    1.417389
C     -2.181562    1.237614    1.549059
C     -1.265726    1.958294    0.602479
N     -1.958470    2.996675   -0.172099
C     -2.327435    4.146151    0.658555
C     -1.108987    3.446355   -1.277312
