42

C     -5.518285   -1.333749   -3.568714
C     -4.230078   -0.897413   -2.892153
O     -4.484437    0.345554   -2.231827
C     -3.401615    1.170609   -2.078087
C     -3.695653    2.530223   -2.228741
C     -2.698720    3.501869   -2.086628
N     -3.004658    4.858747   -2.293143
C     -1.980268    5.765007   -2.404517
C     -0.708234    5.539879   -2.042013
C      0.287182    6.545583   -2.169927
N      1.057250    7.403030   -2.313390
C     -0.392834    4.207646   -1.418998
N      0.683597    4.150857   -0.679236
C      1.051627    3.060376    0.108005
C      0.325743    2.720097    1.254923
C      0.706489    1.627646    2.036482
C      1.848648    0.898502    1.699064
O      2.206174   -0.198849    2.438592
C      2.643079    0.130692    3.764279
C      4.124455    0.401557    3.794797
C      4.618372    1.713058    3.719177
C      5.995239    1.944528    3.719593
C      6.874714    0.867802    3.788982
F      8.194600    1.097553    3.794663
C      6.407179   -0.437003    3.857784
C      5.035315   -0.659130    3.857812
F      4.586476   -1.920030    3.934971
C      2.584019    1.241405    0.558833
Cl     3.976471    0.341480    0.081142
C      2.198093    2.333135   -0.219938
C     -1.402282    3.117535   -1.693482
C     -1.105560    1.755594   -1.596219
C     -2.097742    0.775763   -1.745099
N     -1.720488   -0.557097   -1.533897
C     -1.769632   -1.073050   -0.352495
O     -2.218568   -0.438509    0.748986
C     -1.354508   -2.433731    0.026662
C     -0.876172   -3.286662   -0.893311
C     -0.411323   -4.678805   -0.582270
N     -1.312141   -5.704969   -1.126467
C     -0.985421   -7.011412   -0.548134
C     -1.234026   -5.785338   -2.587493
