30

O     -3.725004   -1.613064    1.087434
C     -2.710689   -1.276802    0.496858
C     -2.513045   -1.728585   -0.863944
C     -2.289526   -2.056843   -1.998343
C     -1.983142   -2.419432   -3.389164
N     -0.902018   -1.579416   -3.924187
C     -0.837868   -1.645257   -5.392443
C     -0.282280   -2.965087   -5.932845
C      1.081911   -3.277100   -5.327601
C      1.034682   -3.193764   -3.805936
C      0.416692   -1.872985   -3.338633
N     -1.676354   -0.496733    0.958307
C     -1.553834    0.127287    2.212630
C     -2.522556    0.066683    3.213627
C     -2.314122    0.709900    4.438257
C     -1.135340    1.422536    4.669469
N     -0.897631    2.050741    5.898474
C      0.369890    2.496882    6.132200
N      1.313873    2.653146    5.269548
C      1.006842    2.414140    3.943154
N      1.808106    3.019374    3.119268
C      1.633144    3.058290    1.737144
C      0.622606    3.836105    1.160104
C      0.458932    3.872128   -0.226044
C      1.318908    3.142232   -1.045998
C      2.348466    2.395549   -0.474260
Br     3.512268    1.403258   -1.585790
C      2.518272    2.363027    0.909267
C     -0.187248    1.548682    3.641008
C     -0.382129    0.859479    2.440299
