40

C      1.123617    6.261340    1.223235
C      1.729051    5.938698   -0.132302
O      1.912848    4.531373   -0.288168
C      0.868408    3.761619   -0.742244
C     -0.402027    4.233279   -1.076136
C     -1.403496    3.385695   -1.531573
N     -2.593507    3.929713   -1.826922
C     -3.580928    3.115897   -2.262750
C     -3.443788    1.750329   -2.425429
C     -4.554319    0.998769   -2.923196
N     -5.480552    0.431658   -3.334738
C     -2.200164    1.171617   -2.127931
N     -2.025411   -0.237655   -2.226760
C     -2.476301   -1.206156   -1.293312
C     -2.154822   -2.553147   -1.521447
C     -2.621220   -3.561807   -0.672518
C     -3.450705   -3.240004    0.402735
O     -3.893977   -4.198759    1.274720
C     -4.623735   -5.262713    0.645752
C     -3.810857   -6.536128    0.579905
C     -2.954237   -6.901726    1.630227
C     -2.216120   -8.085026    1.567084
C     -2.335477   -8.922609    0.459278
C     -3.197904   -8.580536   -0.582855
C     -3.935676   -7.395974   -0.521985
C     -3.775359   -1.901445    0.642705
Cl    -4.780242   -1.446218    1.973883
C     -3.305281   -0.895056   -0.208008
C     -1.142384    2.004051   -1.658824
C      0.143532    1.526715   -1.307438
C      1.145883    2.390574   -0.864563
N      2.451050    1.966772   -0.530572
C      2.979115    0.701135   -0.597577
O      2.400088   -0.332507   -0.909121
C      4.407863    0.623473   -0.189505
C      5.326482    1.554930   -0.497251
C      6.778271    1.443477   -0.125470
N      7.294240    2.512840    0.731816
C      6.652469    2.554435    2.043184
C      7.300633    3.823927    0.092152
