26

C     -1.223216   -1.649259   -4.354802
C     -1.313330   -2.093387   -2.878420
C     -0.276571   -3.234736   -2.706680
C     -2.697399   -2.717560   -2.602179
C     -1.056214   -0.899618   -1.934405
C     -0.101578   -0.871870   -0.984318
C      0.110363    0.276458   -0.126082
C      0.940869    0.246819    0.936882
C      1.694499   -0.935521    1.488583
C      3.170625   -0.915054    1.009494
O      3.574308   -0.936512   -0.142525
N      3.978032   -0.870387    2.141648
C      3.222035   -0.857573    3.302422
C      3.681906   -0.819209    4.601015
C      2.725027   -0.817472    5.618904
C      1.350800   -0.855378    5.316288
C      0.908762   -0.894085    3.990349
C      1.863670   -0.889600    2.988195
C     -0.532933    1.531488   -0.470575
C     -1.508954    1.616563   -1.394664
C     -2.226120    2.924449   -1.789641
C     -1.621767    4.175994   -1.100396
C     -2.108496    3.171793   -3.309556
C     -3.713081    2.876496   -1.379773
C     -1.923488    0.332004   -2.079007
O     -2.945751    0.293917   -2.757223
