31

O      2.341569    1.535954   -2.896607
C      1.376452    0.986679   -2.373021
C      0.331604    0.478773   -3.237856
C     -0.544532    0.040659   -3.935216
C     -1.619583   -0.510629   -4.771146
N     -2.137931   -1.769002   -4.220483
C     -3.041979   -2.452978   -5.170047
C     -4.532809   -2.259992   -4.849511
O     -4.895497   -2.735376   -3.547497
C     -3.811446   -2.687866   -2.608412
C     -2.812699   -1.561700   -2.917212
N      1.186609    0.803275   -1.026972
C      2.063581    1.264053   -0.187094
C      1.760586    1.008333    1.262599
C      2.616003    1.458089    2.201925
C      2.404699    1.272883    3.696572
N      1.401594    0.815636    4.392040
C      0.191026    0.396911    3.848721
C     -0.054171   -0.969281    3.668114
C     -1.279578   -1.405267    3.161216
C     -2.265911   -0.473046    2.854466
F     -3.433926   -0.910786    2.362861
C     -2.043320    0.887074    3.059703
Cl    -3.265483    2.041556    2.691960
C     -0.818894    1.323248    3.566733
N      3.465055    1.687061    4.458947
C      4.570948    2.300425    3.973010
N      4.813749    2.553469    2.730109
C      3.874969    2.150124    1.804259
C      4.095126    2.359545    0.493025
N      3.219512    1.951508   -0.477732
