29

C     -0.539682    3.492081    5.476660
N      0.005838    2.192678    5.090795
C      0.972842    2.287041    3.997593
C      0.401901    2.634973    2.652804
C      0.569283    1.889717    1.547959
C     -0.031719    2.316759    0.250671
O     -0.738523    3.312911    0.180176
N      0.312353    1.463535   -0.778157
C     -0.076607    1.559063   -2.130603
C     -0.889155    2.561358   -2.645181
C     -1.212026    2.576645   -4.008889
C     -0.752488    1.606763   -4.888574
N     -1.087354    1.697445   -6.179694
C     -0.603991    0.755832   -6.996834
N      0.161327   -0.280627   -6.642174
C      0.459950   -0.374863   -5.334561
N      1.242102   -1.501926   -4.992613
C      0.864874   -2.532584   -4.091937
C     -0.465875   -2.773830   -3.724227
C     -0.790000   -3.833617   -2.872696
C      0.211272   -4.676247   -2.393948
C      1.532133   -4.459163   -2.777949
Br     2.893067   -5.607006   -2.141703
C      1.859930   -3.403302   -3.629081
C      0.048151    0.577373   -4.383619
C      0.392797    0.574837   -3.004735
C     -1.071613    1.204718    4.896086
C     -0.618138   -0.244950    4.643657
O      0.106331   -0.759964    5.755589
