45

C     -2.167888    1.788539   -5.246502
C     -3.458347    1.885168   -4.451687
O     -3.192571    1.816460   -3.053783
C     -3.200165    0.603504   -2.417104
C     -3.260258   -0.638162   -3.052333
C     -3.232810   -1.827366   -2.305623
N     -3.319839   -3.064755   -2.970622
C     -3.538362   -4.204865   -2.241529
C     -3.405886   -4.308253   -0.911180
C     -3.639631   -5.540503   -0.242619
N     -3.865054   -6.572490    0.240183
C     -2.935037   -3.092752   -0.160194
N     -2.434056   -3.311146    1.027265
C     -1.811049   -2.351418    1.822728
C     -0.551413   -1.842469    1.491661
C      0.062338   -0.884073    2.302604
C     -0.562262   -0.458521    3.476955
O     -0.021311    0.516186    4.273065
C      1.348818    0.307400    4.635237
C      2.285181    1.252831    3.915280
C      1.863838    2.521884    3.492773
C      2.756785    3.397491    2.872564
C      4.081789    3.017051    2.671080
C      4.516992    1.763526    3.095495
C      3.626126    0.888879    3.720623
C     -1.814013   -0.984325    3.819970
Cl    -2.633970   -0.483568    5.255933
C     -2.425410   -1.940223    3.006766
C     -3.071334   -1.783225   -0.904986
C     -3.080149   -0.539020   -0.273491
C     -3.108873    0.650273   -1.012315
N     -3.053687    1.864540   -0.301922
C     -1.921283    2.465465   -0.205704
O     -1.918095    3.608085    0.498531
C     -0.587608    2.124140   -0.744436
C      0.550410    2.759481   -0.422989
C      1.945985    2.492848   -0.922512
N      2.207951    1.399810   -1.844266
C      1.652486    1.537306   -3.187175
C      1.332461    0.118552   -3.641583
C      2.067594   -0.772993   -2.657410
C      2.018643    0.031046   -1.358719
C      3.076576   -0.445731   -0.353694
O      2.789222   -1.798528    0.018580
C      3.748086   -2.302403    0.938108
