19

C      2.157611    1.023989    5.118681
S      3.109764    2.165031    4.088404
C      2.631227    1.599370    2.496953
C      3.400250    0.827465    1.658368
C      2.728214    0.534167    0.434935
C      1.457349    1.077548    0.370748
C      0.480928    1.048539   -0.664842
C      0.062130   -0.047850   -1.316878
C      0.482667   -1.476562   -1.049614
O      1.265592   -1.911422   -0.228785
N     -0.236632   -2.237588   -1.950190
C     -1.065209   -1.452077   -2.739721
C     -1.910393   -1.926238   -3.724023
C     -2.669096   -0.990794   -4.418608
C     -2.562213    0.376935   -4.116043
C     -1.693993    0.851634   -3.109673
C     -1.633131    2.325638   -2.848845
C     -0.939477   -0.091723   -2.411171
S      1.127275    1.991488    1.795596
