44

N     -0.109909    2.256107   -5.425031
C     -0.818829    1.046385   -5.596142
C     -1.221683    0.656618   -6.877144
C     -1.809228   -0.592943   -7.085400
C     -1.965740   -1.477575   -6.020616
C     -1.515504   -1.121571   -4.749327
C     -0.915181    0.122649   -4.531661
N     -0.450201    0.445272   -3.242270
C      0.810314    0.364376   -2.967744
O      1.767881    0.026424   -3.848886
C      1.348373    0.648441   -1.627568
C      2.621765    0.420574   -1.278812
C      3.074957    0.708145    0.037262
C      4.337496    0.512298    0.581315
C      4.307645    0.959607    1.924548
C      3.028171    1.414919    2.156428
C      2.339068    2.006491    3.301857
C      3.036538    2.290718    4.485473
C      2.396773    2.898295    5.570991
C      1.043643    3.227689    5.489724
N      0.388450    3.881840    6.542155
C     -0.833479    4.423448    6.262920
N     -1.587799    4.165217    5.250404
C     -1.160756    3.167759    4.394062
N     -2.131696    2.581294    3.762537
C     -1.976696    1.433491    2.986937
C     -2.209741    1.494941    1.612266
C     -2.097986    0.351106    0.813565
C     -1.765795   -0.879650    1.388736
O     -1.639297   -2.053257    0.692410
C     -1.624448   -1.971062   -0.728192
C     -1.292403   -3.335418   -1.278666
C     -2.269984   -4.343167   -1.318697
C     -1.967223   -5.609162   -1.827486
C     -0.682203   -5.881643   -2.293409
C      0.289817   -4.888687   -2.241518
F      1.527257   -5.152567   -2.683971
C      0.000182   -3.624638   -1.737794
C     -1.569183   -0.943484    2.777799
Cl    -1.174090   -2.433579    3.563716
C     -1.683112    0.200742    3.570914
C      0.310889    2.869472    4.346215
C      0.968710    2.308402    3.246435
O      2.287076    1.260301    1.021836
