45

C     -2.889652    5.748452    0.525054
C     -1.475742    5.824585   -0.023693
O     -0.886441    4.525223   -0.083477
C     -1.048872    3.764831   -1.217126
C     -1.845910    4.104989   -2.312319
C     -1.964950    3.274980   -3.419272
N     -2.746022    3.683866   -4.431264
C     -2.870492    2.880198   -5.510535
C     -2.249181    1.651992   -5.637301
C     -2.469366    0.877983   -6.816936
N     -2.627231    0.250809   -7.781036
C     -1.431150    1.212967   -4.586715
N     -0.840405   -0.082919   -4.623101
C     -1.302736   -1.235299   -3.934402
C     -0.601709   -2.439586   -4.103963
C     -0.969894   -3.593163   -3.406617
C     -2.050490   -3.555446   -2.526985
O     -2.387926   -4.677733   -1.818844
C     -3.065282   -5.643172   -2.637463
C     -2.171737   -6.829917   -2.916732
C     -1.475292   -7.459562   -1.872948
C     -0.659477   -8.563786   -2.127297
C     -0.535822   -9.054024   -3.426409
C     -1.229097   -8.442371   -4.471363
C     -2.045875   -7.337477   -4.218451
C     -2.730373   -2.355183   -2.313223
Cl    -4.052980   -2.260477   -1.207347
C     -2.355451   -1.201913   -3.010383
C     -1.274117    2.045504   -3.440467
C     -0.453803    1.710286   -2.336550
C     -0.341322    2.551230   -1.229900
N      0.442903    2.251654   -0.092807
C      1.257111    1.162062    0.115152
O      1.500642    0.259678   -0.675893
C      1.870851    1.184410    1.472277
C      2.676175    0.186855    1.875256
C      3.355136    0.064712    3.210895
N      3.211509    1.261439    4.058028
C      4.431286    2.099032    4.141448
C      5.000443    2.505360    2.775615
C      5.528755    1.468985    5.018597
C      5.002581    1.113128    6.405400
C      3.726745    0.283009    6.310866
C      2.670248    0.921521    5.392222
C      2.010632    2.145216    6.045704
