26

O      0.687132   -5.099635   -2.293581
C      0.878479   -5.028374   -0.887860
C     -0.324461   -4.483103   -0.266781
C     -1.319066   -4.030927    0.234381
C     -2.513243   -3.485599    0.808863
O     -3.299610   -4.335381    1.481741
N     -2.842274   -2.244426    0.702325
C     -2.013983   -1.356787    0.002228
C     -2.139307   -1.210102   -1.381400
C     -1.340210   -0.297643   -2.070986
C     -0.415525    0.484195   -1.374131
N      0.376205    1.429615   -2.040038
C      1.044693    2.332627   -1.267213
N      1.259858    2.265163    0.001068
C      0.835769    1.123806    0.655005
N      1.485729    0.902780    1.756835
C      1.362428   -0.244979    2.534534
C      0.780940   -0.152291    3.804489
C      0.686993   -1.277494    4.624627
C      1.199272   -2.492035    4.180456
F      1.102505   -3.563314    4.981507
C      1.810650   -2.589391    2.931775
Cl     2.470583   -4.086680    2.394762
C      1.899698   -1.465547    2.110412
C     -0.245885    0.301979    0.011402
C     -1.084166   -0.579515    0.697711
