34

C      4.229760    5.458637    1.859567
C      2.732442    5.556191    2.104792
C      2.138939    4.363621    2.863049
C      1.763240    3.160322    1.985074
N      2.931436    2.462952    1.429253
C      2.894185    2.392562   -0.041294
C      1.800964    1.568615   -0.580711
C      0.913199    0.886476   -1.018499
C     -0.159444    0.065090   -1.536862
O      0.092571   -1.083785   -1.868269
N     -1.366079    0.704278   -1.603667
C     -2.583863    0.198392   -2.047663
C     -2.789491   -1.112295   -2.445353
C     -4.072474   -1.517128   -2.896075
C     -4.410328   -2.813223   -3.333992
N     -3.400972   -3.813122   -3.360857
C     -3.542036   -5.210782   -3.512048
C     -4.686679   -5.907067   -3.097287
C     -4.765860   -7.298889   -3.205750
C     -3.685746   -8.011754   -3.708858
F     -3.779028   -9.346221   -3.803492
C     -2.525614   -7.348167   -4.092888
Cl    -1.171758   -8.224635   -4.697379
C     -2.448644   -5.956737   -3.983781
N     -5.659963   -3.126382   -3.723429
C     -6.571015   -2.150502   -3.696350
N     -6.359000   -0.889061   -3.312421
C     -5.114757   -0.589592   -2.913730
C     -4.794462    0.687469   -2.485877
N     -3.573080    1.106660   -2.058921
C      3.158769    1.136671    2.028433
C      3.651497    1.178059    3.482577
C      4.993463    1.885025    3.695812
C      6.153946    1.224300    2.967976
