34

C      1.036804    1.285992    4.486796
C      0.926198    2.312121    5.602587
C      0.005232    3.501129    5.295341
C     -1.498938    3.174810    5.304175
N     -1.932864    2.371092    4.150719
C     -2.035743    3.193077    2.934568
C     -1.445725    2.488096    1.790632
C     -0.951795    1.928407    0.849580
C     -0.327063    1.280111   -0.282996
O     -0.942457    1.239360   -1.338124
N      0.938803    0.804173   -0.017408
C      1.844739    0.210320   -0.918600
C      3.109576   -0.116948   -0.424942
C      4.087704   -0.640195   -1.273641
C      3.812910   -0.874253   -2.622159
N      4.893955   -1.319814   -3.425537
C      4.642072   -1.443715   -4.687296
N      3.428064   -1.223075   -5.258028
C      2.278366   -0.931267   -4.568042
N      1.174618   -1.005151   -5.262183
C     -0.107513   -0.906583   -4.726278
C     -0.901367    0.204199   -5.036417
C     -2.205957    0.304735   -4.543481
C     -2.719854   -0.718838   -3.753113
F     -3.976344   -0.611911   -3.293818
C     -1.947913   -1.842704   -3.461576
Cl    -2.582714   -3.117565   -2.494920
C     -0.647391   -1.945010   -3.959136
C      2.508297   -0.615693   -3.112549
C      1.554662   -0.036174   -2.264295
C     -3.198379    1.675193    4.456432
C     -3.575586    0.598719    3.428631
C     -4.842591   -0.141851    3.861815
C     -5.245846   -1.208336    2.854532
