24

C     -2.580036   -2.506178   -3.284261
C     -4.016580   -2.686439   -2.910421
C     -4.841215   -1.784872   -2.352787
C     -4.479380   -0.405308   -1.930337
O     -5.184811    0.526793   -2.290911
N     -3.394077   -0.372020   -1.084618
C     -2.794594    0.761786   -0.501073
C     -3.216229    2.073561   -0.733546
C     -2.566758    3.154178   -0.120073
C     -1.485090    2.947477    0.734547
N     -0.868541    4.078514    1.324821
C      0.130335    3.830995    2.107748
N      0.613071    2.589760    2.393214
C      0.098210    1.420613    1.881518
N      0.511025    0.209057    2.112599
C      1.598107    0.008488    2.971107
C      1.387001   -0.178578    4.340296
C      2.466606   -0.380914    5.201753
C      3.765027   -0.406915    4.693289
C      3.973726   -0.237693    3.324934
Br     5.732672   -0.281786    2.633562
C      2.897570   -0.034846    2.462438
C     -1.064525    1.622545    0.962715
C     -1.709600    0.539588    0.352898
