31

C     -3.383022   -2.667827   -0.467142
C     -2.616305   -3.879450    0.058380
N     -2.297766   -4.940987   -0.897729
C     -3.361702   -5.329138   -1.824198
C     -4.568843   -5.927504   -1.108468
C     -0.970886   -4.836370   -1.527099
C     -0.728505   -3.715371   -2.552004
C     -0.244127   -2.473474   -1.929145
C      0.158397   -1.458225   -1.426680
C      0.626186   -0.231899   -0.812517
O      1.779052    0.114804   -1.013414
N     -0.330863    0.401260   -0.050893
C     -0.205565    1.611104    0.659178
C     -1.333456    2.060323    1.356943
C     -1.287476    3.238842    2.106515
C     -0.111232    3.987091    2.158262
N     -0.026394    5.155569    2.927257
C      1.222378    5.664673    3.139126
N      2.300510    5.377690    2.494816
C      2.176384    4.522494    1.416026
N      3.104183    4.687806    0.522903
C      3.111517    4.063943   -0.723540
C      4.114923    3.134316   -1.019092
C      4.158965    2.511828   -2.267890
C      3.207233    2.836311   -3.228804
F      3.262471    2.229136   -4.423795
C      2.222805    3.784512   -2.957339
Cl     1.048120    4.197026   -4.147744
C      2.181989    4.409608   -1.711134
C      0.998509    3.587550    1.394104
C      0.963546    2.374974    0.694826
