44

C     -5.475724   -3.041675   -5.346470
C     -4.269181   -2.620098   -4.533031
O     -4.282629   -1.189573   -4.430901
C     -3.094396   -0.726457   -3.919250
C     -2.266425   -0.022092   -4.798222
C     -1.058622    0.516099   -4.346123
N     -0.203337    1.186328   -5.227392
C      0.913548    1.818991   -4.751902
C      1.399292    1.727094   -3.501777
C      2.545245    2.489577   -3.151705
N      3.477166    3.144155   -2.925079
C      0.667375    0.824755   -2.531392
N      1.036885    0.412295   -1.356402
C      2.271275    0.717924   -0.785376
C      2.356382    1.707375    0.196325
C      3.583441    2.012585    0.786906
C      4.731249    1.322366    0.392540
O      5.928134    1.616899    0.991236
C      6.502668    2.816813    0.447647
C      6.366698    3.960622    1.425476
C      5.856094    5.195801    1.011220
C      5.739738    6.253607    1.915661
C      6.133577    6.087530    3.241816
C      6.646575    4.865278    3.663997
C      6.764023    3.807442    2.759782
C      4.641233    0.290939   -0.544796
Cl     6.032516   -0.619446   -1.013637
C      3.411467   -0.011887   -1.131359
C     -0.676903    0.319515   -3.007991
C     -1.530865   -0.360949   -2.126282
C     -2.760312   -0.864360   -2.561183
N     -3.555211   -1.535039   -1.620351
C     -4.735905   -1.134781   -1.292058
O     -5.387123   -0.084696   -1.824561
C     -5.608522   -1.761388   -0.285309
C     -5.065057   -2.460680    0.722445
C     -5.838452   -3.133708    1.808851
N     -5.609600   -2.404333    3.046677
C     -5.961520   -3.061528    4.357463
C     -4.651873   -2.787646    3.900834
C     -3.356691   -2.894482    4.140069
O     -2.895253   -3.465080    5.309473
O     -2.465070   -2.440596    3.189038
C     -1.116520   -2.392011    3.640408
