43

C     -5.774452    2.725687    3.763461
O     -4.519732    2.055347    3.748858
C     -3.411127    2.799633    3.419634
C     -3.412840    4.175141    3.171956
C     -2.226219    4.835079    2.820892
N     -2.236532    6.223887    2.591367
C     -1.042156    6.891868    2.482114
C      0.150830    6.313968    2.274945
C      1.335922    7.087437    2.150957
N      2.265096    7.780377    2.077665
C      0.172073    4.821872    2.097455
N      1.196113    4.324296    1.452820
C      1.301788    2.988116    1.060691
C      0.461823    2.451842    0.080661
C      0.540346    1.098090   -0.255406
C      1.490532    0.265071    0.354989
C      1.487070   -1.174512    0.049130
C      1.619194   -1.697509   -1.178541
N      1.832676   -1.036862   -2.367700
C      2.135065   -1.897606   -3.406374
C      2.529932   -1.373960   -4.719706
C      3.572143   -1.960407   -5.452206
C      3.949387   -1.443406   -6.694614
C      3.291010   -0.332754   -7.217941
C      2.256903    0.263409   -6.499964
C      1.880488   -0.252705   -5.257420
C      2.028342   -3.201678   -3.080549
S      1.586655   -3.465161   -1.394189
C      2.374737    0.826560    1.291785
Cl     3.604635   -0.116294    2.063542
C      2.287341    2.180750    1.629813
C     -1.038098    4.098035    2.645915
C     -1.023192    2.745221    2.997594
C     -2.200717    2.083034    3.353953
N     -2.256581    0.692130    3.601131
C     -1.212006   -0.197321    3.645459
O     -0.015813    0.064775    3.673436
C     -1.618162   -1.624757    3.723694
C     -2.687165   -2.137822    3.093455
C     -3.013806   -3.602736    3.075603
N     -3.175374   -4.097774    1.702048
C     -3.762725   -5.439849    1.718326
C     -1.894629   -4.133229    0.984607
