38

O     -5.272459   -2.506628   -4.537119
C     -4.434153   -1.966116   -3.823110
C     -3.429490   -2.710139   -3.033764
C     -3.399728   -4.049183   -3.094444
C     -2.444726   -4.783792   -2.341716
C     -2.256173   -6.157341   -2.276463
C     -1.179591   -6.407519   -1.390059
C     -0.747502   -5.178161   -0.943457
C      0.301659   -4.721268   -0.034896
C      1.179017   -5.637790    0.567336
C      2.190299   -5.210233    1.438676
C      2.346612   -3.853584    1.718442
N      3.324342   -3.387713    2.596589
C      3.425959   -2.045765    2.806658
N      2.681580   -1.114844    2.315615
C      1.658282   -1.491415    1.466565
N      0.855269   -0.609266    0.949007
C      1.040160    0.744877    1.258217
C      0.343948    1.322118    2.324057
C      0.494796    2.678627    2.618643
C      1.322644    3.473894    1.822739
O      1.500361    4.801770    2.118250
C      0.307416    5.579937    1.956338
C      0.105286    5.992602    0.518334
C     -0.905269    5.407491   -0.261054
C     -1.077339    5.779156   -1.597314
C     -0.238827    6.735521   -2.166945
C      0.766965    7.309017   -1.398250
F      1.574399    8.225895   -1.948094
C      0.948044    6.947076   -0.067727
C      2.036585    2.895168    0.766457
Cl     3.113421    3.826587   -0.211234
C      1.880587    1.539295    0.475365
C      1.469754   -2.934509    1.131298
C      0.459235   -3.359713    0.260960
O     -1.509245   -4.203666   -1.516470
N     -4.329928   -0.607032   -3.698121
O     -5.191241    0.166097   -4.508597
