41

C     -5.579435   -1.844919   -2.435080
C     -4.280933   -1.132754   -2.098765
O     -3.481456   -1.112430   -3.283988
C     -2.536562   -0.122111   -3.355993
C     -2.364446    0.404741   -4.642237
C     -1.424897    1.412448   -4.888569
N     -1.306886    1.973920   -6.172746
C     -0.592486    3.137455   -6.329041
C      0.269134    3.640003   -5.429955
C      0.989639    4.840260   -5.678420
N      1.535056    5.835345   -5.931498
C      0.510208    2.831611   -4.185668
N      1.639682    3.035826   -3.560215
C      2.119580    2.244281   -2.514900
C      2.291426    2.809019   -1.246581
C      2.778095    2.039511   -0.187044
C      3.097733    0.697501   -0.397706
O      3.593189   -0.045230    0.641395
C      2.554181   -0.432252    1.557433
C      2.827317    0.136461    2.932409
C      1.769111    0.609404    3.723771
C      2.010641    1.118818    5.002449
C      3.311573    1.146827    5.502658
Cl     3.611917    1.782199    7.073776
C      4.371096    0.665873    4.737147
C      4.129492    0.160475    3.457452
C      2.985718    0.142590   -1.675293
Cl     3.408502   -1.501265   -1.980416
C      2.506463    0.917984   -2.732591
C     -0.574901    1.837386   -3.850673
C     -0.790033    1.350636   -2.558180
C     -1.736800    0.347515   -2.301315
N     -1.810910   -0.134562   -0.986744
C     -1.075734   -1.128610   -0.615636
O     -0.247848   -1.825401   -1.418553
C     -0.977883   -1.680846    0.745871
C     -1.783759   -1.247838    1.729504
C     -1.752331   -1.668877    3.174014
N     -0.808365   -2.748753    3.489321
C     -1.378111   -4.061643    3.168063
C     -0.451266   -2.711128    4.910205
