28

C     -2.432076    0.870497   -0.595663
O     -1.812009   -0.198094   -1.313814
C     -0.479764   -0.283174   -1.002380
C     -0.072873   -1.412176   -0.294144
C      1.265894   -1.562521    0.081006
C      1.691344   -2.717807    0.869892
C      1.273280   -3.101589    2.088317
C      0.335892   -2.583809    3.114277
C      0.135975   -1.066273    3.059233
N     -1.092280   -0.667880    2.905924
C     -1.861934   -1.840167    2.823976
C     -3.229003   -1.911573    2.643286
C     -3.823090   -3.175112    2.580158
C     -3.046121   -4.340483    2.701682
C     -1.663559   -4.262003    2.883785
C     -1.089807   -3.003244    2.933376
C      2.071264   -4.281960    2.301063
O      1.924517   -4.969052    3.425785
N      2.905491   -4.632981    1.396637
C      2.750735   -3.677271    0.425335
O      3.377524   -3.591043   -0.615646
C      2.204136   -0.593247   -0.313195
C      1.812802    0.522832   -1.062760
O      2.658550    1.512494   -1.493330
C      4.052841    1.309606   -1.308037
C      0.461052    0.667377   -1.412594
O      0.059731    1.768857   -2.129817
C      0.067466    1.463414   -3.524116
