41

C     -3.865129   -0.226567   -1.739240
C     -3.688802   -0.960281   -3.058394
O     -2.522303   -1.793516   -3.026553
C     -1.392925   -1.130458   -3.433915
C     -1.214574   -0.839866   -4.788735
C     -0.046945   -0.203457   -5.223370
N      0.127992    0.086556   -6.586514
C      1.356207    0.494970   -7.037923
C      2.365468    0.915278   -6.258068
C      3.602466    1.335528   -6.816580
N      4.593848    1.643685   -7.338300
C      2.111377    0.994200   -4.777945
N      2.899936    1.784349   -4.095464
C      2.721112    2.097038   -2.748453
C      1.656883    2.900498   -2.329577
C      1.442886    3.125555   -0.968880
Cl     0.082332    4.085401   -0.500140
C      2.300675    2.555032   -0.019976
O      2.043120    2.702512    1.321337
C      1.233791    1.605907    1.768083
C      0.923868    1.782806    3.232690
C     -0.284714    2.362195    3.643445
C     -0.571782    2.506509    5.001616
C      0.349057    2.086817    5.959758
C      1.561085    1.525625    5.560726
C      1.849651    1.377663    4.203573
C      3.430777    1.850297   -0.448359
Cl     4.575325    1.207601    0.674743
C      3.641619    1.625224   -1.809225
C      0.932400    0.180150   -4.283273
C      0.779884   -0.223546   -2.950943
C     -0.378532   -0.868362   -2.503159
N     -0.485190   -1.086683   -1.120186
C     -0.757840   -2.225919   -0.584144
O     -0.999576   -3.370060   -1.248068
C     -0.836506   -2.497074    0.862452
C     -0.978084   -1.488191    1.738029
C     -1.049743   -1.596820    3.236877
N     -1.374758   -2.934625    3.754692
C     -2.806415   -3.217543    3.612156
C     -0.999771   -3.023566    5.168891
