43

C     -3.905109    4.560606    4.420238
C     -4.363442    3.313613    3.682881
O     -3.947877    3.422366    2.316742
C     -4.118692    2.265673    1.598835
C     -5.396296    1.702146    1.481155
C     -5.633805    0.631184    0.610492
N     -6.924814    0.085719    0.509186
C     -7.210658   -0.795693   -0.500460
C     -6.299248   -1.402008   -1.274798
C     -6.687840   -2.320303   -2.287544
N     -7.070826   -3.049274   -3.106774
C     -4.846707   -1.131540   -0.987391
N     -3.993397   -2.001640   -1.462610
C     -2.625112   -2.013443   -1.198286
C     -2.129964   -2.299450    0.079825
C     -0.756402   -2.276715    0.327927
C      0.128737   -2.014142   -0.718027
O      1.468742   -1.917829   -0.450149
C      2.084247   -3.211862   -0.361107
C      2.418728   -3.544314    1.073644
C      2.164484   -4.826367    1.582247
C      2.487728   -5.140926    2.903682
C      3.072759   -4.180476    3.727785
C      3.339059   -2.905698    3.231461
C      3.018476   -2.589934    1.910206
C     -0.356586   -1.771176   -2.006592
Cl     0.713733   -1.447731   -3.321156
C     -1.730143   -1.784925   -2.247100
C     -4.573982    0.096459   -0.145524
C     -3.332169    0.738833   -0.104387
C     -3.071988    1.775161    0.806395
N     -1.735296    2.231441    0.837775
C     -1.044924    2.654047    1.952780
O     -1.445066    2.773239    3.102196
C      0.386092    2.938343    1.670639
C      1.179333    2.060165    1.034167
C      2.638862    2.289210    0.771029
N      2.906678    2.517328   -0.656311
C      2.771180    1.285324   -1.439823
C      4.250406    3.113032   -0.826476
C      4.644558    3.508539   -2.268196
O      3.666518    4.278487   -2.970142
C      3.415253    5.548592   -2.387664
