36

C      2.605884   -0.166460   -3.782727
O      2.182806    0.236063   -2.487433
C      1.385377   -0.628642   -1.780859
C      0.983526   -1.890261   -2.230186
C      0.177660   -2.722696   -1.463667
N     -0.164767   -3.914633   -1.976060
C     -0.946029   -4.732334   -1.236646
C     -1.414580   -4.420720    0.025753
C     -2.221500   -5.369760    0.723190
N     -2.894414   -6.122128    1.295363
C     -1.067584   -3.176550    0.573116
N     -1.460478   -2.833787    1.900974
C     -0.645437   -2.915531    3.059536
C      0.726808   -3.159869    3.013798
C      1.497416   -3.160797    4.183164
C      0.919536   -2.887161    5.436449
N      1.779048   -2.864116    6.573978
C      2.982848   -3.532719    6.700036
C      3.475886   -3.212884    7.941750
N      2.642301   -2.345108    8.580762
C      1.650022   -2.141822    7.740609
C     -0.460118   -2.636228    5.489594
Cl    -1.377501   -2.442481    6.943397
C     -1.219872   -2.637743    4.306039
C     -0.246481   -2.295576   -0.187523
C      0.150085   -1.015360    0.258396
C      0.950739   -0.179240   -0.523651
N      1.330839    1.066221    0.005127
C      0.738222    2.127217   -0.410395
O      1.170212    3.279188    0.129144
C     -0.363711    2.330080   -1.374248
C     -0.860706    3.534533   -1.704262
C     -1.973039    3.805760   -2.680760
N     -2.760371    2.628843   -3.078531
C     -3.465649    2.893801   -4.334873
C     -3.732716    2.269491   -2.040228
