43

C     -6.488205   -1.822657    1.950220
C     -5.741508   -0.766029    1.154302
O     -4.330656   -0.887443    1.324571
C     -3.636511   -1.837876    0.624037
C     -4.154623   -2.596166   -0.429343
C     -3.386816   -3.529075   -1.115959
N     -3.972107   -4.213323   -2.110226
C     -3.239072   -5.132799   -2.778704
C     -1.911987   -5.408022   -2.510844
C     -1.236849   -6.407062   -3.278512
N     -0.734909   -7.234757   -3.919474
C     -1.285160   -4.681238   -1.490643
N      0.083866   -4.949864   -1.188310
C      1.144223   -4.019173   -1.367108
C      1.065660   -2.979121   -2.297457
C      2.109335   -2.062623   -2.469697
C      3.267507   -2.225883   -1.694646
C      3.408127   -3.296987   -0.804632
C      4.695726   -3.194924   -0.202620
C      5.297733   -2.057138   -0.689626
N      4.428879   -1.488575   -1.585651
S      4.664017    0.051128   -2.277950
O      4.313766   -0.101024   -3.677418
O      5.975796    0.499100   -1.851101
C      3.452345    1.071687   -1.482663
C      2.559359    1.812517   -2.262475
C      1.575353    2.577150   -1.636934
C      1.490416    2.602590   -0.244148
C      2.395147    1.874322    0.529992
C      3.384394    1.108717   -0.086184
C      2.342990   -4.210330   -0.660708
C     -2.038961   -3.723787   -0.750211
C     -1.521934   -2.961102    0.322165
C     -2.294898   -2.014259    0.999036
N     -1.697215   -1.340765    2.077260
C     -1.464885   -0.071081    2.052068
O     -1.747128    0.745722    1.021046
C     -0.820607    0.636044    3.174885
C     -0.590782    1.958935    3.207201
C      0.077366    2.663939    4.351596
N     -0.814585    3.620727    5.019708
C     -0.254822    4.007936    6.317272
C     -1.043932    4.819746    4.209644
