37

C     -0.056509    4.368934    3.343028
C      0.057229    4.272928    1.847584
N     -0.414780    5.332723    1.157024
C     -0.334925    5.257016   -0.175876
N      0.173438    4.239272   -0.878943
C      0.654701    3.191785   -0.182003
N      1.227796    2.091353   -0.876057
C      1.177923    1.785078   -2.252232
C      0.119595    2.173128   -3.079274
C      0.069116    1.799257   -4.429758
C      1.075811    1.009157   -4.983780
O      1.105064    0.582756   -6.284558
C      0.294999    1.258268   -7.248603
C     -1.083160    0.651691   -7.387352
C     -2.171048    1.458664   -7.760146
C     -3.446483    0.908867   -7.918581
C     -3.645514   -0.455210   -7.716965
C     -2.568273   -1.258611   -7.363904
F     -2.759439   -2.571446   -7.178245
C     -1.294795   -0.722315   -7.203898
C      2.114485    0.575204   -4.148999
Cl     3.383245   -0.439997   -4.746085
C      2.160271    0.951595   -2.800922
C      0.608644    3.156228    1.220711
C      1.100315    2.010183    1.996689
C      0.436756    0.849338    2.050260
F     -0.734306    0.664937    1.402521
C      0.938774   -0.313384    2.830792
O      1.979270   -0.269799    3.476164
N      0.121298   -1.414209    2.749412
C      0.397885   -2.635183    3.484403
C     -0.070272   -2.547993    4.949595
N      0.110967   -3.717506    5.819470
C      1.510175   -4.086955    6.040838
C      1.820859   -5.227461    5.084647
C      0.472524   -5.771184    4.641411
C     -0.566884   -4.931133    5.366038
