41

C      2.139691    5.851206   -5.409042
C      2.981951    4.711204   -4.863959
O      2.527705    4.321655   -3.567086
C      1.565335    3.346202   -3.460747
C      0.864282    2.781034   -4.527058
C     -0.101655    1.802478   -4.334100
N     -0.716343    1.311879   -5.419989
C     -1.651896    0.351825   -5.248250
C     -2.021406   -0.159782   -4.018556
C     -3.046880   -1.155684   -3.968017
N     -3.878719   -1.965642   -3.980707
C     -1.394798    0.356292   -2.873570
N     -1.712120   -0.158942   -1.587062
C     -1.359172   -1.425755   -1.060883
C     -0.644843   -2.384225   -1.791090
C     -0.385509   -3.648391   -1.253922
C     -0.868243   -3.982126    0.009757
O     -0.568008   -5.228904    0.490718
C     -1.673588   -6.144333    0.352004
C     -1.397056   -7.076197   -0.828900
C     -1.813847   -6.952761    1.630947
C     -0.689997   -7.457729    2.303529
C     -0.836522   -8.214462    3.467228
C     -2.107695   -8.478789    3.971903
C     -3.232941   -7.986717    3.314178
C     -3.088221   -7.229884    2.149871
C     -1.566948   -3.033480    0.759512
Cl    -2.130616   -3.368371    2.355682
C     -1.822972   -1.770012    0.217814
C     -0.393952    1.360235   -3.025890
C      0.325002    1.930008   -1.947552
C      1.284050    2.922643   -2.152194
N      2.008424    3.538166   -1.105669
C      1.860556    3.352675    0.250091
O      1.055434    2.618543    0.808466
C      2.817704    4.187537    1.030609
C      2.793366    4.176830    2.373325
C      3.728343    4.973439    3.236543
N      3.104200    5.986722    4.089971
C      2.234797    5.418501    5.115902
C      2.416820    7.025713    3.329178
