26

C     -1.337677    1.056759   -2.961182
N     -2.560989    0.304276   -3.244749
C     -3.654480    1.107553   -3.798514
C     -2.836194   -0.919304   -2.638324
C     -2.021056   -1.711764   -1.928185
C     -2.443376   -2.995855   -1.330894
O     -3.741298   -3.270124   -1.536618
N     -1.792810   -3.878173   -0.659378
C     -0.434258   -3.672677   -0.396483
C      0.530078   -4.263594   -1.220135
C      1.893852   -4.090809   -0.963990
C      2.304759   -3.336580    0.135253
N      3.653903   -3.110441    0.409602
C      3.979870   -2.390867    1.519269
N      3.177141   -1.812350    2.345263
C      1.820143   -1.924083    2.108120
N      0.951852   -1.324524    2.866684
C      1.404251   -0.550691    3.944364
C      1.474104   -1.107332    5.225229
C      1.889232   -0.336641    6.313121
C      2.227427    1.003116    6.125334
C      2.143065    1.563091    4.850844
Br     2.593207    3.382393    4.596443
C      1.727283    0.796193    3.763720
C      1.336540   -2.745778    0.959536
C     -0.027374   -2.921836    0.706690
