36

C      1.674983   -2.346767   -4.809804
C      2.665948   -2.182923   -3.918366
N      3.901019   -2.759624   -4.082772
C      4.887722   -2.586547   -3.164065
N      4.803224   -1.907376   -2.068386
C      3.584951   -1.286252   -1.818683
N      3.544595   -0.515294   -0.647606
C      2.630066   -0.744375    0.410266
C      2.144465   -2.016483    0.728161
C      1.234059   -2.196145    1.775875
C      0.805118   -1.104842    2.535421
O     -0.118942   -1.175338    3.544497
C     -0.843677   -2.397482    3.687895
C     -1.925549   -2.215216    4.728035
C     -1.673725   -1.518831    5.922080
C     -2.670445   -1.376481    6.891479
C     -3.927902   -1.937880    6.682490
C     -4.176375   -2.638559    5.508795
F     -5.384014   -3.182762    5.310031
C     -3.191659   -2.786450    4.536396
C      1.347782    0.159273    2.259963
Cl     0.873098    1.557263    3.162323
C      2.265570    0.334017    1.220319
C      2.515284   -1.380451   -2.680646
C      1.299048   -0.619822   -2.388437
C      1.077468    0.627173   -2.822559
F      1.925484    1.235996   -3.678652
C     -0.119843    1.426415   -2.448496
O     -0.696392    2.143254   -3.258614
N     -0.496813    1.319972   -1.127626
C     -1.668777    1.985936   -0.598739
C     -2.929788    1.152309   -0.731924
S     -2.976462   -0.222006    0.405120
C     -3.107452    0.535821    2.008787
O     -4.217028   -0.937116    0.169981
O     -1.709124   -0.927424    0.338257
