31

C     -1.148736   -3.822403   -3.422938
C     -1.988354   -2.952991   -2.491479
N     -1.203229   -2.264987   -1.456924
C     -0.433238   -3.161921   -0.579567
C     -1.245573   -4.162204    0.237296
C     -2.024340   -1.315808   -0.675943
C     -2.395230   -0.023385   -1.430529
C     -1.204331    0.759654   -1.793425
C     -0.192024    1.352153   -2.055908
C      1.057262    1.999088   -2.327637
O      1.462520    2.015781   -3.604373
N      1.780723    2.547694   -1.413489
C      1.365891    2.547638   -0.074018
C      0.944743    3.750619    0.503709
C      0.550228    3.805517    1.843882
C      0.590037    2.652701    2.627471
N      0.170292    2.654674    3.958540
C      0.276475    1.500724    4.673986
N      0.647407    0.342194    4.247318
C      0.992693    0.229851    2.913343
N      1.304482   -0.922095    2.398353
C      1.287075   -2.062405    3.210902
C      0.086346   -2.736266    3.466933
C      0.076470   -3.893224    4.246439
C      1.273620   -4.379985    4.761100
F      1.246485   -5.493934    5.508051
C      2.476479   -3.725483    4.500547
Cl     3.959585   -4.334198    5.130290
C      2.485229   -2.570256    3.720069
C      1.007227    1.446005    2.048040
C      1.413719    1.392953    0.710764
