23

C     -3.487386    2.700376   -4.456506
C     -2.529453    2.083388   -3.752719
C     -2.801280    1.504313   -2.412040
O     -3.904285    1.557741   -1.879156
N     -1.666008    0.930327   -1.906610
C     -1.693606    0.415401   -0.712782
C     -0.406211   -0.194300   -0.233877
C     -0.360415   -0.743265    0.996521
C      0.886275   -1.377686    1.592077
N      2.132576   -1.391535    1.211784
C      2.619704   -0.716226    0.095792
C      2.901365   -1.425015   -1.076283
C      3.428732   -0.770283   -2.190995
C      3.694910    0.597389   -2.131400
C      3.442090    1.298782   -0.953041
Br     3.816935    3.149730   -0.866393
C      2.916671    0.647769    0.162241
N      0.659474   -2.039031    2.770646
C     -0.516850   -2.031290    3.443024
N     -1.607554   -1.457335    3.057899
C     -1.587806   -0.809757    1.840040
C     -2.711393   -0.240481    1.367103
N     -2.768405    0.373947    0.145314
