40

C     -4.012388   -2.378564   -3.409534
C     -2.593633   -1.990795   -3.785282
O     -2.302859   -0.740917   -3.164194
C     -0.986929   -0.354562   -3.134225
C     -0.020217   -0.795488   -4.040134
C      1.305680   -0.348757   -3.939364
N      2.260725   -0.797053   -4.870405
C      3.489124   -0.191591   -4.918785
C      3.985655    0.622199   -3.975906
C      5.279675    1.195368   -4.106412
N      6.335047    1.645398   -4.287263
C      3.151155    0.858096   -2.746505
N      3.790461    1.302412   -1.696839
C      3.239283    1.468267   -0.427370
C      3.171726    2.750287    0.115993
C      2.635471    2.962741    1.391566
C      2.132821    1.901036    2.152301
N      1.630269    2.071959    3.450496
C      1.010745    3.317321    3.882631
C     -0.395071    3.463987    3.349812
C     -0.669802    4.321960    2.274898
C     -1.975104    4.476046    1.803439
C     -3.019612    3.772648    2.399136
C     -2.757961    2.902365    3.455611
C     -1.453239    2.745711    3.927053
C      2.283710    0.601453    1.616242
Cl     1.763445   -0.785724    2.517913
C      2.833065    0.384497    0.348523
C      1.686672    0.508615   -2.885020
C      0.694643    1.014565   -2.042311
C     -0.628615    0.567910   -2.133537
N     -1.559254    1.067578   -1.204931
C     -1.894447    0.322580   -0.212206
O     -2.790889    0.846883    0.637883
C     -1.464941   -1.033172    0.191539
C     -1.901083   -1.665153    1.294408
C     -1.481434   -3.033903    1.756528
N     -0.783129   -3.844916    0.746945
C      0.002612   -4.895414    1.397512
C     -1.732710   -4.448869   -0.192353
