29

C     -2.108420   -3.901229   -2.270198
C     -1.931714   -3.996161   -3.790872
C     -2.883906   -5.063783   -4.348333
N     -0.571077   -4.285928   -4.274900
C      0.180293   -5.266436   -3.499355
C      0.220693   -3.095083   -4.605203
C      0.638090   -2.288833   -3.452102
C      0.987973   -1.629522   -2.509608
C      1.393481   -0.851547   -1.380462
O      1.383760    0.481950   -1.533291
N      1.730252   -1.528431   -0.339052
C      2.142021   -0.865938    0.819746
C      3.506945   -0.738287    1.097063
C      3.944715   -0.099077    2.261476
C      3.014302    0.403139    3.171484
N      3.405586    1.078706    4.327955
C      2.439141    1.504792    5.188945
N      1.161489    1.434742    5.033658
C      0.685604    0.857605    3.872249
N     -0.586690    0.810779    3.612673
C     -1.492586    1.354469    4.534180
C     -2.110416    0.528236    5.478236
C     -3.041343    1.050500    6.378505
C     -3.367664    2.405463    6.331043
C     -2.763565    3.226903    5.379552
Br    -3.211796    5.063001    5.308695
C     -1.835256    2.707528    4.478666
C      1.646935    0.277749    2.888812
C      1.208108   -0.364757    1.726525
