34

C     -4.068135   -1.553630    2.953165
O     -2.797805   -2.160581    3.162256
C     -1.774405   -1.766860    2.333703
C     -1.883697   -0.820834    1.312491
C     -0.776283   -0.497515    0.521977
N     -0.902747    0.467395   -0.481070
C     -1.106761    0.128226   -1.707829
O     -1.216983   -1.140165   -2.149452
C     -1.260140    1.037196   -2.857189
C     -1.220198    2.368718   -2.691602
C     -1.352438    3.356241   -3.812813
N     -2.590106    4.140273   -3.717677
C     -2.538900    5.134726   -2.621825
C     -3.805670    6.005984   -2.594405
O     -3.994985    6.687374   -3.841155
C     -4.096679    5.733769   -4.906015
C     -2.835925    4.859553   -4.987949
C      0.454560   -1.107369    0.767101
C      0.580416   -2.060242    1.785617
C      1.906344   -2.749042    2.029802
N      2.828260   -2.506625    1.146353
C      4.097577   -3.083978    1.178550
C      5.174755   -2.371825    1.713548
C      6.456847   -2.924459    1.716229
C      6.670103   -4.187779    1.165361
C      5.600598   -4.885322    0.605738
Br     5.890740   -6.589934   -0.159394
C      4.319193   -4.336215    0.600807
C      1.965252   -3.625968    3.263957
C      3.165464   -4.184513    3.778891
N      4.104720   -4.664766    4.264452
C      0.814022   -3.859346    3.917197
N     -0.412130   -3.370719    3.570740
C     -0.532596   -2.385213    2.577525
