29

O     -0.931818   -0.310246   -1.060939
C     -1.660431   -0.095113   -0.103363
C     -3.125812   -0.000092   -0.329018
C     -3.873400    0.975646    0.211566
C     -5.359423    1.084853    0.022653
N     -6.061098    1.170291    1.299946
C     -6.801665    2.223801    1.758292
C     -7.269888    1.850597    2.996153
C     -6.755407    0.557236    3.197980
N     -6.012072    0.138987    2.170542
N     -1.314711    0.012910    1.224906
C     -0.020989   -0.021007    1.785100
C      0.058978    0.012179    3.179898
C      1.297301   -0.041801    3.817871
C      2.480011   -0.111500    3.078374
N      3.681617   -0.216121    3.823626
C      4.763001   -0.353318    3.131670
N      4.810773   -0.366491    1.777784
C      3.739702   -0.160262    0.944929
N      4.049551   -0.023034   -0.317418
C      3.150269    0.295289   -1.331138
C      2.757772    1.622239   -1.539952
C      1.898954    1.949728   -2.590577
C      1.444406    0.951409   -3.451651
C      1.859441   -0.366343   -3.261554
Br     1.258247   -1.716758   -4.441161
C      2.717481   -0.696421   -2.213619
C      2.412679   -0.101808    1.659873
C      1.158409   -0.080957    1.032603
