43

C     -4.640310   -0.213021    2.522362
C     -4.816720   -1.716778    2.650054
O     -4.562898   -2.335833    1.381927
C     -3.387613   -3.041258    1.387339
C     -3.348132   -4.299996    1.990208
C     -2.197186   -5.072090    1.974824
N     -2.230604   -6.262447    2.590345
C     -1.116804   -7.028787    2.569067
C      0.063390   -6.660153    1.953609
C      1.174102   -7.559910    1.977751
N      2.047432   -8.325496    2.005884
C      0.116799   -5.406700    1.328915
N      1.310945   -5.027993    0.648458
C      2.158777   -3.947590    1.002063
C      2.163748   -3.386385    2.284161
C      3.033545   -2.337868    2.611568
C      3.933240   -1.846041    1.665061
O      4.807342   -0.815881    1.900109
C      4.403698    0.209961    2.816674
C      3.200741    1.001837    2.349879
C      2.173469    1.330053    3.248138
C      1.059483    2.053450    2.814189
C      0.966828    2.464238    1.484542
C      1.989579    2.158224    0.587297
C      3.104239    1.438040    1.018532
C      3.982198   -2.454896    0.404005
Cl     5.098853   -1.926950   -0.807303
C      3.109659   -3.499010    0.079068
C     -1.047219   -4.585246    1.314405
C     -1.119063   -3.318952    0.682429
C     -2.279323   -2.542324    0.701218
N     -2.219935   -1.269297    0.120888
C     -2.985904   -0.892678   -0.843522
O     -3.958624   -1.632918   -1.406261
C     -2.941984    0.415207   -1.522779
C     -2.109386    1.376531   -1.093861
C     -2.001786    2.738042   -1.710253
N     -0.609214    3.078086   -2.013897
C     -0.072208    2.340805   -3.180204
C     -0.043153    3.175345   -4.471708
O      0.736025    4.375730   -4.355527
C      0.798387    4.879028   -3.014826
C     -0.460959    4.537423   -2.205602
