34

O     -2.227102    1.935929    0.101986
C     -1.771328    1.378225    1.089713
C     -0.935629    0.159198    1.000977
C     -0.507691   -0.245734   -0.203419
C      0.366112   -1.430455   -0.369688
O      1.328474   -1.355339   -1.120162
N     -0.059312   -2.530046    0.326307
C      0.538593   -3.788579    0.397072
C      1.749886   -4.114854   -0.190369
C      2.244066   -5.409428   -0.025289
C      3.570591   -5.890192   -0.540952
N      4.647149   -5.210872   -0.789637
C      4.800416   -3.852456   -0.516556
C      4.947305   -3.395609    0.798724
C      5.131409   -2.036926    1.061689
C      5.190117   -1.128203    0.005713
C      5.078708   -1.586568   -1.306651
Br     5.183401   -0.356731   -2.739016
C      4.896329   -2.942858   -1.571727
N      3.727135   -7.247676   -0.751549
C      2.948719   -8.040356   -0.100434
N      1.922723   -7.688298    0.727683
C      1.469897   -6.369080    0.636311
C      0.290821   -5.935203    1.218089
N     -0.182733   -4.672720    1.119577
N     -1.986943    1.789942    2.379912
C     -2.711034    3.008350    2.697014
C     -4.192954    2.749954    2.968717
C     -5.053859    2.637388    1.708594
N     -5.274722    3.909174    1.050428
C     -6.161150    4.873250    1.445584
C     -6.031385    5.876222    0.513971
N     -5.100757    5.540860   -0.433896
C     -4.669210    4.346612   -0.091917
