29

C      0.590462    4.878544    1.003144
C     -0.433761    4.034770    1.187409
C     -0.307354    2.555036    1.304164
O     -1.200334    1.861013    0.836531
N      0.810073    2.143495    1.995264
C      1.227310    0.820258    2.243973
C      2.397746    0.645253    2.978850
C      2.877163   -0.641016    3.249339
C      2.226765   -1.778749    2.794501
N      2.747314   -2.969893    3.103585
C      2.087701   -4.046310    2.663844
N      0.973265   -4.043939    1.928426
C      0.479316   -2.835470    1.599917
N     -0.682617   -2.886245    0.802249
C     -0.887062   -2.232237   -0.436593
C     -2.203762   -2.055460   -0.883840
C     -2.465769   -1.396989   -2.086401
C     -1.406195   -0.916329   -2.850621
O     -1.698534   -0.244473   -4.012586
C     -1.269033    1.063766   -4.100695
C     -0.927971    1.514985   -5.377221
C     -0.506142    2.832182   -5.564650
C     -0.436525    3.703336   -4.477403
C     -0.794624    3.260390   -3.204136
C     -1.217741    1.943425   -3.014250
C     -0.088236   -1.156141   -2.463169
C      0.168244   -1.817512   -1.260638
C      1.058345   -1.626566    2.038985
C      0.556849   -0.314989    1.792283
