31

C      1.062517    5.395836    2.121417
C      0.142796    5.816464    0.978384
N      0.600648    5.368033   -0.346872
C      1.950983    5.835089   -0.707157
C      2.158092    7.346355   -0.759843
C     -0.379061    5.695503   -1.409346
C     -1.722534    4.942127   -1.329273
C     -1.535772    3.484280   -1.297071
C     -1.326266    2.303070   -1.231854
C     -0.987655    0.901654   -1.107477
O     -1.784673    0.066447   -1.506575
N      0.250958    0.691803   -0.543772
C      0.872911   -0.539002   -0.270602
C      2.179628   -0.507688    0.209972
C      2.855340   -1.699462    0.494496
C      2.261926   -2.940719    0.315729
N      2.970389   -4.032446    0.611782
C      2.358330   -5.207579    0.437526
N      1.113062   -5.389954   -0.009288
C      0.407875   -4.286278   -0.317752
N     -0.918970   -4.424026   -0.807971
C     -1.747369   -5.567437   -0.818885
C     -2.800368   -5.631091   -1.748540
C     -3.683092   -6.714227   -1.766703
C     -3.536010   -7.734127   -0.835386
F     -4.394228   -8.764276   -0.866206
C     -2.524211   -7.675473    0.117304
Cl    -2.353604   -8.924999    1.290744
C     -1.642026   -6.591877    0.132386
C      0.946706   -2.991687   -0.163604
C      0.259312   -1.778464   -0.445235
