25

N     -2.756163   -0.561145   -1.371089
C     -1.748664   -1.007852   -1.005836
C     -0.546787   -1.581141   -0.512665
C      0.565120   -1.718661   -1.263859
C      0.742090   -1.327723   -2.660774
C      1.789882   -0.531446   -2.942484
C      2.046191   -0.059704   -4.324992
O      2.885850    0.823128   -4.513473
C      1.257528   -0.681049   -5.487075
O      0.784318    0.328170   -6.365089
C      0.085904   -1.478530   -5.021882
C     -0.136235   -1.775810   -3.733722
C     -0.464214   -2.041233    0.912670
O      0.552429   -2.570905    1.356572
N     -1.584735   -1.831669    1.688309
C     -1.563489   -2.064900    3.121115
C     -0.897022   -0.909953    3.868463
C     -1.727586    0.381998    3.816208
C     -0.869982    1.637535    3.626876
C     -0.365653    1.799709    2.211263
C     -1.237817    2.199144    1.188698
C     -0.772522    2.365908   -0.116846
C      0.568367    2.134950   -0.414974
C      1.442938    1.729283    0.590936
C      0.978761    1.561705    1.897271
