26

C     -2.348453   -2.442433   -0.060445
C     -1.546708   -1.682371    1.018238
C     -0.574179   -2.648070    1.728173
C     -2.576981   -1.237766    2.090443
C     -0.777728   -0.499332    0.391089
C     -0.916799    0.783370    0.777099
C     -0.168938    1.870525    0.180751
C     -0.167484    3.130448    0.668431
C     -0.801461    3.734752    1.892684
C     -2.320897    3.800022    1.837509
O     -2.942101    4.382084    0.819383
N     -2.975327    3.286158    2.832595
C     -1.973562    2.784112    3.687602
C     -2.173955    2.123467    4.883604
C     -1.052536    1.668232    5.583551
C      0.244268    1.878967    5.081197
C      0.443653    2.548590    3.871919
C     -0.675826    2.988115    3.187953
C      0.570180    1.609162   -1.043574
C      0.775713    0.367177   -1.522350
C      1.560905    0.049021   -2.812917
C      2.847417   -0.739436   -2.488644
C      2.010173    1.322587   -3.576743
C      0.685695   -0.756127   -3.798250
C      0.197401   -0.784259   -0.728880
O      0.504398   -1.940288   -1.004306
