42

C      0.154900    3.795012    7.589914
C      0.379825    3.996247    6.284670
C     -0.555273    4.710529    5.357755
N     -1.230202    3.741443    4.512662
C     -0.805087    3.407575    3.339033
C      0.455502    3.961349    2.670073
O      1.396978    4.411840    3.306632
C      0.523811    3.909745    1.202511
C     -0.370102    3.191289    0.515787
N     -0.129799    2.912706   -0.803920
C     -0.938588    3.258510   -1.750424
O     -2.060664    3.983181   -1.593623
C     -0.759608    2.864029   -3.173676
C     -1.144651    3.848494   -4.228031
C     -0.276036    1.616836   -3.334908
C     -0.008815    0.913407   -4.571860
C      0.493332   -0.333508   -4.656850
C      0.911751   -1.235916   -3.510887
O      2.155505   -1.876957   -3.845318
C      3.285141   -1.032927   -3.659140
C     -0.191604   -2.307942   -3.172036
O      0.114927   -3.581356   -3.782160
C     -0.257873   -3.733146   -5.066348
N      0.178216   -4.926741   -5.528107
O     -0.888766   -2.942469   -5.747646
C     -0.483144   -2.617568   -1.681991
C     -1.729255   -3.454833   -1.508502
C      0.254846   -2.155187   -0.647440
C      0.106963   -2.257887    0.870914
C     -0.645575   -3.475698    1.411995
C     -0.450875   -0.904576    1.418480
O     -1.837447   -0.766256    1.054689
C     -0.226274   -0.725632    2.954426
O      0.553757    0.465826    3.155799
C      1.384246    0.408573    4.311182
C     -1.507871   -0.715023    3.818630
C     -2.088294    0.629780    4.332794
C     -3.228036    0.305140    5.316861
C     -2.639793    1.606468    3.263247
C     -1.607211    2.429668    2.526626
C     -1.414758    2.429448    1.195023
O     -2.206147    1.678597    0.346865
