29

C     -2.383103   -0.026468    0.833173
C     -2.303168   -0.097589   -0.499698
C     -2.973968    0.870413   -1.372712
C     -2.773426    0.439073   -2.629842
C     -3.284846    1.095535   -3.845246
O     -3.952104    2.111745   -3.900776
O     -2.912588    0.426798   -4.955266
N     -2.012287   -0.718207   -2.633694
C     -1.646811   -1.108539   -1.360848
C     -0.849630   -2.149454   -1.072869
C     -0.347778   -2.577239    0.191125
C     -0.663235   -3.808840    0.736716
O     -1.448824   -4.776897    0.276534
N      0.002799   -3.907991    1.930248
C      0.764540   -2.791459    2.133793
N      1.545693   -2.611811    3.206506
C      2.193304   -1.440844    3.144850
N      2.128165   -0.512908    2.173926
C      1.326815   -0.719678    1.095350
N      1.227006    0.235210    0.072964
C      1.824400    1.489900   -0.128641
C      1.324696    2.302950   -1.164054
C      1.859266    3.568795   -1.417011
C      2.904654    4.037828   -0.633505
F      3.407548    5.254521   -0.889521
C      3.416613    3.254661    0.395498
Cl     4.717117    3.831079    1.368103
C      2.878265    1.988615    0.646219
C      0.587764   -1.926957    1.061856
