29

C     -3.308025   -2.990798    0.048961
N     -4.326774   -2.326914    0.855006
C     -3.879404   -2.128816    2.229916
C     -4.867346   -1.111082    0.243126
C     -3.883258    0.012068    0.076533
C     -4.005793    1.206975    0.678979
C     -3.034527    2.324639    0.516240
O     -3.452948    3.474050    0.511649
N     -1.725269    1.902604    0.458054
C     -0.566467    2.694575    0.331550
C     -0.576001    4.080596    0.208979
C      0.626588    4.779786    0.068208
C      1.855551    4.112918    0.065462
N      3.013001    4.902984   -0.144331
C      4.129046    4.258835   -0.230750
N      4.254434    2.913197   -0.104438
C      3.235234    2.056629    0.228806
N      3.597587    0.831172    0.510768
C      2.747224   -0.151527    1.019097
C      2.343414   -1.203129    0.191755
C      1.494781   -2.202311    0.681215
Cl     0.986814   -3.433342   -0.418966
C      1.068174   -2.169280    2.016219
Cl    -0.006138   -3.351308    2.672807
C      1.501218   -1.146662    2.860577
C      2.339567   -0.154874    2.360831
F      2.733446    0.827010    3.185034
C      1.874383    2.706528    0.231735
C      0.661035    2.015894    0.325217
