29

C     -3.324511    1.569940   -6.675008
O     -3.624820    0.662341   -5.625118
C     -4.112784   -0.578678   -6.134278
O     -4.445282   -1.490011   -5.087773
C     -3.352083   -1.899152   -4.445788
C     -2.371804   -2.258935   -3.853123
C     -1.190518   -2.669028   -3.129006
O     -0.551821   -3.618653   -3.555890
N     -0.928579   -1.904378   -2.014593
C      0.136604   -2.045652   -1.104237
C      1.123425   -3.026324   -1.206019
C      2.151697   -3.102456   -0.259136
C      2.201958   -2.208286    0.812322
N      3.251676   -2.260822    1.732843
C      3.263062   -1.425225    2.814198
C      2.391390   -0.430536    3.054996
C      2.550720    0.335298    4.240776
N      2.745384    0.911571    5.230015
C      1.280489   -0.207260    2.049040
N      0.366965    0.717371    2.020286
C      0.265694    1.734994    2.968367
C      0.951958    2.939336    2.783981
C      0.821569    3.976471    3.709369
C     -0.012631    3.819181    4.815868
C     -0.718997    2.628834    4.983544
Br    -1.866208    2.421757    6.472299
C     -0.591475    1.591314    4.061167
C      1.223893   -1.208065    0.912236
C      0.194661   -1.136264   -0.042104
