40

C     -5.243321   -5.009272    3.552111
C     -4.854782   -3.562526    3.277119
O     -3.465333   -3.541338    2.928604
C     -2.992471   -2.253755    2.909869
C     -2.257325   -1.822925    4.015344
C     -1.734611   -0.541768    4.079411
N     -1.067105   -0.183478    5.187293
C     -0.566544    1.068385    5.259602
C     -0.692416    2.007785    4.256985
C     -0.112426    3.298787    4.436917
N      0.337804    4.358925    4.581688
C     -1.386479    1.644684    3.092719
N     -1.478361    2.541774    1.983157
C     -0.480295    2.660928    0.974491
C      0.478301    1.667821    0.744478
C      1.422653    1.794602   -0.283171
C      1.412404    2.910110   -1.121583
O      2.281617    3.102098   -2.162327
C      3.544613    2.428794   -2.130684
C      3.514792    1.080348   -2.798367
C      2.562491    0.732488   -3.763322
C      2.599671   -0.531205   -4.346226
C      3.597235   -1.406382   -3.953149
N      4.545923   -1.102860   -3.039611
C      4.488592    0.133264   -2.493157
C      0.417184    3.878863   -0.931817
Cl     0.314022    5.270365   -1.955782
C     -0.522356    3.753142    0.099580
C     -1.926141    0.333391    2.988633
C     -2.647596   -0.128976    1.860180
C     -3.170354   -1.423717    1.800952
N     -3.917215   -1.818244    0.679312
C     -3.310711   -2.357104   -0.312744
O     -4.063195   -2.668554   -1.381879
C     -1.915986   -2.720967   -0.595618
C     -1.304185   -3.670653    0.130740
C      0.079233   -4.220549   -0.072534
N      0.929723   -3.468671   -1.008626
C      1.504023   -2.284924   -0.361649
C      2.013663   -4.327303   -1.494085
