41

C     -0.468798    1.649289    7.755761
C     -0.790395    2.183351    6.371937
O     -0.606944    1.114422    5.437164
C     -0.776064    1.402187    4.101672
C     -1.233368    2.624778    3.597942
C     -1.355866    2.821786    2.216089
N     -1.837593    4.042495    1.718511
C     -1.818881    4.280105    0.369668
C     -1.562383    3.374379   -0.590558
C     -1.542734    3.799794   -1.947320
N     -1.539714    4.210036   -3.034067
C     -1.278520    1.952259   -0.153303
N     -1.191986    0.876497   -0.877052
C     -1.393704    0.856302   -2.256233
C     -0.290924    0.814488   -3.114960
C     -0.473331    0.792562   -4.497566
C     -1.766556    0.813286   -5.020274
O     -1.910264    0.799685   -6.382000
C     -2.014825    2.135949   -6.897307
C     -0.772026    2.463728   -7.693963
C     -0.428258    1.692583   -8.815621
C      0.721906    1.985600   -9.553828
C      1.541340    3.052041   -9.176788
C      1.205316    3.823162   -8.064758
Cl     2.217713    5.139057   -7.600921
C      0.058040    3.534285   -7.320927
C     -2.874704    0.793554   -4.167383
Cl    -4.485731    0.764062   -4.785556
C     -2.686850    0.807939   -2.785519
C     -1.073169    1.762431    1.336128
C     -0.614609    0.533697    1.838933
C     -0.450700    0.353170    3.214595
N      0.024138   -0.846594    3.793976
C      0.571210   -1.931707    3.156969
O      0.819588   -2.035242    1.961808
C      0.993814   -3.032369    4.067256
C      0.410509   -3.344864    5.237298
C      0.874608   -4.475694    6.111768
N     -0.152285   -5.514645    6.260090
C      0.455500   -6.760679    6.735750
C     -1.221426   -5.112803    7.177611
