39

C      4.602352    4.002877    1.658092
C      4.085970    3.431279    0.349704
O      2.746551    2.987714    0.566964
C      2.083210    2.431288   -0.501646
C      2.617427    2.261146   -1.780157
C      1.882498    1.688961   -2.809794
N      2.478902    1.557787   -4.003604
C      1.778456    0.991020   -5.011493
C      0.478027    0.537765   -4.893215
C     -0.163774   -0.025651   -6.040362
N     -0.635822   -0.476680   -7.000477
C     -0.160600    0.684689   -3.652872
N     -1.486938    0.202541   -3.470504
C     -1.870010   -1.147009   -3.266200
C     -0.975661   -2.218469   -3.362505
C     -1.412408   -3.542088   -3.217677
C     -2.762622   -3.823194   -3.002049
O     -3.262955   -5.086631   -2.827013
C     -2.583198   -6.163505   -3.479073
C     -1.689048   -6.825782   -2.495696
C     -1.837073   -7.202135   -1.176014
C     -0.613141   -7.798119   -0.789706
C      0.201914   -7.750573   -1.895878
O     -0.441526   -7.162275   -2.936816
C     -3.662967   -2.754420   -2.907097
Cl    -5.349784   -3.022821   -2.630901
C     -3.223749   -1.433712   -3.052440
C      0.558079    1.263758   -2.567094
C      0.025295    1.425928   -1.265568
C      0.768710    2.014588   -0.242777
N      0.276350    2.213182    1.065004
C     -0.993540    1.989621    1.536236
O     -1.972725    1.635885    0.890700
C     -1.164665    2.300908    2.981158
C     -0.224765    2.085548    3.916627
C     -0.426803    2.372971    5.377758
N      0.477134    3.371958    5.952249
C      1.875361    2.957175    5.963784
C      0.313675    4.696498    5.361313
