41

C      0.506460   -0.394149    6.615438
C     -0.218840    0.807086    6.035982
O      0.057372    0.851730    4.636584
C     -0.588787    1.812065    3.893445
C     -1.359881    2.849437    4.422959
C     -1.970607    3.780727    3.572733
N     -2.700239    4.856239    4.114789
C     -3.047448    5.903036    3.296150
C     -3.037692    5.869945    1.954805
C     -3.430585    6.994364    1.181302
N     -3.743190    7.957049    0.611722
C     -2.679720    4.563239    1.306210
N     -3.131643    4.366827    0.095623
C     -3.063133    3.145403   -0.577198
C     -2.289209    3.037589   -1.733278
C     -2.206288    1.826072   -2.429015
C     -2.926509    0.711573   -1.991367
O     -2.876512   -0.521381   -2.587386
C     -2.513122   -0.588854   -3.967408
C     -1.042357   -0.859618   -4.201338
C     -0.182926   -1.280518   -3.173753
C      1.165985   -1.543348   -3.431301
C      1.670629   -1.396767   -4.720920
C      0.821906   -0.990168   -5.742184
F      1.302953   -0.855590   -6.985123
C     -0.522038   -0.724771   -5.497356
C     -3.721801    0.831445   -0.841088
Cl    -4.633383   -0.508550   -0.234340
C     -3.805618    2.043090   -0.151327
C     -1.884167    3.618452    2.175234
C     -1.042420    2.630644    1.653696
C     -0.401982    1.721689    2.499490
N      0.423787    0.674619    2.031560
C      0.833629    0.428837    0.745452
O      0.648327    1.130574   -0.241194
C      1.659657   -0.798381    0.588001
C      1.492905   -1.929115    1.292758
C      2.296290   -3.176086    1.061856
N      1.431950   -4.348214    0.877540
C      2.226690   -5.576626    0.953045
C      0.718799   -4.302851   -0.403386
