25

C     -3.236210   -6.741595   -4.057862
C     -2.783661   -6.264867   -2.751697
C     -2.412044   -5.875570   -1.676467
C     -1.963733   -5.406403   -0.379442
O     -2.089277   -6.163107    0.578293
N     -1.431984   -4.141273   -0.339995
C     -1.021713   -3.658954    0.794197
C     -0.453136   -2.266544    0.733720
C     -0.012620   -1.711951    1.881226
C      0.564137   -0.323063    1.929728
N      0.572192    0.476431    0.794054
C      1.232542    1.701781    0.569201
C      2.312260    2.156306    1.338972
C      2.918046    3.391410    1.082652
C      2.445357    4.190036    0.050407
F      3.039626    5.369613   -0.180417
C      1.374996    3.765255   -0.727582
Cl     0.777351    4.745115   -2.011499
C      0.771814    2.530285   -0.470140
N      1.027092    0.121071    3.064486
C      0.962034   -0.664346    4.179102
N      0.465815   -1.854943    4.264253
C     -0.044988   -2.434644    3.144070
C     -0.563779   -3.674407    3.160630
N     -1.051798   -4.273714    2.027460
