28

C     -1.513345    3.815141   -2.981893
C     -0.921899    3.910632   -1.588301
O      0.035067    2.861166   -1.386489
C      1.309824    3.129022   -1.796802
O      1.672298    4.187330   -2.298782
C      2.256900    1.948388   -1.522131
C      3.422302    2.400857   -0.623647
C      3.017942    2.774205    0.786571
C      3.019600    1.811316    1.806009
C      2.610037    2.146763    3.096911
C      2.203149    3.447876    3.384135
C      2.208231    4.415658    2.381785
C      2.614197    4.082041    1.088987
N      1.568368    0.772783   -0.966095
C      0.972739   -0.151066   -1.794265
O      1.121368   -0.126430   -3.013068
C      0.111979   -1.181600   -1.125702
C      0.101318   -1.284086    0.291387
N      0.090744   -1.315255    1.451677
C     -0.604951   -1.994723   -1.927678
C     -1.492429   -3.086988   -1.499983
C     -1.291038   -4.365337   -2.046252
C     -2.122149   -5.430221   -1.690499
C     -3.156002   -5.210254   -0.794645
O     -3.967488   -6.250550   -0.445170
C     -3.373063   -3.945911   -0.254313
O     -4.412551   -3.802268    0.623411
C     -2.554725   -2.876789   -0.607274
