26

C     -2.206228    2.312591    3.049581
O     -1.730286    0.974511    2.961738
C     -1.368110    0.528207    1.715187
C     -1.417708    1.266150    0.532831
C     -1.031023    0.681327   -0.681527
C     -1.028645    1.509002   -1.897482
C     -1.589198    1.208219   -3.085659
C     -2.315694    0.011992   -3.326271
N     -2.907542   -0.956458   -3.570102
C     -1.433906    2.216864   -4.178521
N     -1.977479    1.915378   -5.391012
O     -0.845156    3.282527   -4.023116
C     -0.571307   -0.643102   -0.695214
C     -0.482807   -1.394364    0.486569
C      0.074963   -2.792258    0.451315
S      1.802963   -2.925533    1.022485
C      2.691490   -2.139980   -0.363834
C      2.767976   -0.627641   -0.339908
C      2.971304    0.061167    0.872158
C      3.068236    1.454662    0.910872
C      2.989205    2.192365   -0.264509
C      2.823508    1.534144   -1.480210
C      2.723010    0.137676   -1.520870
Cl     2.534833   -0.582973   -3.082829
C     -0.903517   -0.794540    1.675948
O     -0.864837   -1.516473    2.840941
