24

C     -1.703118   -5.429128    0.601409
C     -2.744132   -4.981117    1.316475
C     -3.014075   -3.552430    1.635855
O     -3.921837   -3.259733    2.404547
N     -2.214603   -2.679184    0.954008
C     -1.641045   -1.690436    1.576165
C     -1.725294   -1.405114    3.053035
C     -1.087969   -0.327429    3.539166
C     -0.313726    0.563520    2.668240
N      0.268285    1.624352    3.253893
C      0.958148    2.418196    2.427459
N      1.132334    2.234577    1.108330
C      0.558978    1.141113    0.568081
N      0.780709    0.965193   -0.814578
C      1.297073   -0.177157   -1.472438
C      1.201584   -0.229663   -2.871942
C      1.697737   -1.324269   -3.583476
C      2.302336   -2.371574   -2.898943
F      2.767903   -3.415501   -3.599659
C      2.422076   -2.329607   -1.513304
Br     3.246926   -3.750031   -0.575490
C      1.930363   -1.232254   -0.800732
C     -0.228819    0.268832    1.311939
N     -0.877630   -0.854957    0.793650
