39

C      1.465030   -4.187467   -5.064529
C      2.017587   -3.967252   -3.667805
O      1.662398   -2.649388   -3.259042
C      2.114395   -2.215054   -2.037938
C      2.803343   -3.008675   -1.115231
C      3.203110   -2.521117    0.122861
N      3.848658   -3.358132    0.949488
C      4.233592   -2.892387    2.158174
C      3.999590   -1.604535    2.604569
C      4.437534   -1.233682    3.911911
N      4.809918   -0.918515    4.964902
C      3.329657   -0.717007    1.750368
N      2.985970    0.591433    2.195365
C      1.689353    1.077774    2.497540
C      0.529663    0.305963    2.369653
C     -0.737504    0.858805    2.597315
C     -0.868146    2.199581    2.945577
O     -2.041684    2.867370    3.156948
C     -3.235566    2.098998    3.334000
C     -3.934876    1.724763    2.043777
C     -4.884616    0.690932    2.051748
C     -5.560283    0.335594    0.882639
C     -5.299671    1.013243   -0.306250
C     -4.371943    2.052400   -0.324782
C     -3.699464    2.412076    0.844766
C      0.280455    2.982539    3.057625
C      1.545435    2.429239    2.834760
C      2.920524   -1.182281    0.466387
C      2.262113   -0.373466   -0.485788
C      1.825298   -0.881847   -1.712473
N      1.134053   -0.039228   -2.602824
C     -0.095417    0.229303   -2.358174
O     -0.712839    1.071930   -3.202592
C     -1.042966   -0.165178   -1.304606
C     -1.304352   -1.460002   -1.070890
C     -2.258921   -1.947613   -0.022953
N     -1.580835   -2.645611    1.081758
C     -2.530389   -2.882788    2.172675
C     -1.001335   -3.922613    0.656673
