44

C     -5.834600    0.427604    6.308610
C     -4.377301    0.628247    5.930434
O     -4.001546   -0.443351    5.055764
C     -2.636899   -0.505240    4.917687
C     -1.979864   -1.530084    5.602233
C     -0.609462   -1.700724    5.504191
N     -0.036354   -2.688555    6.209335
C      1.298990   -2.865010    6.101308
C      2.114552   -2.105656    5.284147
C      3.507892   -2.408114    5.211390
N      4.645173   -2.629729    5.150538
C      1.525284   -1.074149    4.537602
N      2.278528   -0.362279    3.552518
C      2.355225   -0.743082    2.182142
C      1.471590   -1.664191    1.601866
C      1.544282   -1.975414    0.240644
C      2.504823   -1.368079   -0.566531
O      2.569356   -1.611797   -1.910281
C      2.665798   -2.990699   -2.278865
C      1.686114   -3.249269   -3.395545
C      1.924485   -2.726086   -4.675380
C      1.009035   -2.929868   -5.708375
C     -0.154950   -3.657653   -5.472312
C     -0.404364   -4.181347   -4.204510
C      0.510177   -3.977291   -3.169572
C      3.347697   -0.399723   -0.013204
Cl     4.502424    0.440856   -0.985921
C      3.272831   -0.089331    1.349157
C      0.127704   -0.840306    4.662539
C     -0.549652    0.205554    3.987589
C     -1.934031    0.369619    4.083727
N     -2.588698    1.427398    3.434903
C     -2.676033    1.470407    2.155867
O     -3.353323    2.520895    1.664778
C     -2.149308    0.594888    1.086532
C     -2.418694    0.777868   -0.216902
C     -1.817477   -0.034224   -1.325809
N     -1.339230    0.817022   -2.419826
C     -0.200191    1.670918   -2.023336
C      0.308407    2.538710   -3.201303
N      0.668461    1.793529   -4.424624
C      1.941725    1.095363   -4.264266
C     -0.424061    0.856608   -4.758657
C     -0.942402   -0.004878   -3.581570
