37

C      2.748300   -1.269808   -4.662225
C      2.962921   -1.961958   -3.532857
N      4.224692   -2.096772   -3.007117
C      4.464099   -2.912991   -1.949256
N      3.582437   -3.585712   -1.288270
C      2.261939   -3.428864   -1.693736
N      1.312336   -4.135325   -0.939462
C      0.570297   -3.485083    0.091226
C      1.071944   -2.384556    0.803267
C      0.344036   -1.823502    1.852989
C     -0.876512   -2.384816    2.223189
O     -1.594581   -1.780814    3.220747
C     -1.209853   -2.272145    4.512313
C     -0.530027   -1.163661    5.278333
C      0.817559   -1.271217    5.655464
C      1.446907   -0.233929    6.350296
C      0.735820    0.920533    6.672291
C     -0.597149    1.029219    6.297650
F     -1.279282    2.140734    6.603304
C     -1.234855    0.003585    5.606395
C     -1.380418   -3.492027    1.536430
Cl    -2.895147   -4.197980    1.963603
C     -0.647787   -4.052358    0.488121
C      1.892778   -2.664796   -2.776561
C      0.479194   -2.652439   -3.177868
C     -0.350609   -1.601585   -3.262476
C      0.013864   -0.214733   -2.911206
O      0.107213    0.650075   -3.772492
N      0.116500   -0.010323   -1.561953
C      0.163133    1.329809   -1.011826
C     -1.208148    2.035789   -1.052115
N     -2.296584    1.275614   -0.398538
C     -3.607000    1.870316   -0.752105
C     -4.764778    1.159167   -0.035143
O     -4.594515    1.204485    1.386659
C     -3.356422    0.575161    1.747309
C     -2.162742    1.275243    1.075480
