40

C     -2.164397   -5.384035   -3.528104
C     -3.195257   -5.613302   -2.435578
O     -3.220033   -4.517507   -1.524909
C     -2.322743   -4.465679   -0.488368
C     -1.377648   -5.450642   -0.190985
C     -0.504291   -5.337212    0.885429
N      0.361312   -6.340890    1.105006
C      1.196857   -6.250627    2.164826
C      1.229775   -5.176634    3.034609
C      2.156728   -5.187661    4.121481
N      2.887005   -5.195794    5.024846
C      0.341391   -4.113331    2.809377
N      0.392538   -2.947281    3.623638
C      0.890395   -1.669484    3.262719
C      0.810857   -0.634357    4.207730
C      1.198155    0.668622    3.883996
C      1.647238    0.956896    2.597388
O      2.033648    2.234879    2.287195
C      0.895972    3.092447    2.102158
C      0.882384    4.078451    3.225104
N      0.016922    4.095988    4.225523
C      0.381779    5.152203    5.017920
C      1.477002    5.797177    4.496110
N      1.798878    5.099550    3.364928
C      2.926820    5.366128    2.504043
C      1.744427   -0.062915    1.650443
Cl     2.311262    0.256592    0.054999
C      1.354579   -1.364562    1.976807
C     -0.559559   -4.191833    1.706324
C     -1.522335   -3.203031    1.408723
C     -2.386137   -3.316137    0.316732
N     -3.327617   -2.290717    0.119022
C     -3.216316   -1.505514   -0.889867
O     -4.168391   -0.562547   -0.992602
C     -2.221630   -1.421553   -1.981584
C     -2.300806   -0.536215   -2.988948
C     -1.339993   -0.483485   -4.140815
N     -0.517336    0.724365   -4.238428
C      0.407408    0.861260   -3.116261
C     -1.297252    1.940391   -4.430064
