44

C     -4.980477    0.959753    6.684620
C     -4.950512    0.863424    5.169054
O     -3.673798    1.237419    4.657164
C     -2.669748    0.308055    4.582961
C     -2.777482   -1.031108    4.966821
C     -1.718594   -1.924165    4.844031
N     -1.918550   -3.188684    5.243025
C     -0.891966   -4.063184    5.149277
C      0.353620   -3.743217    4.643899
C      1.367274   -4.750150    4.599973
N      2.168159   -5.590652    4.596540
C      0.561301   -2.437628    4.179085
N      1.852186   -2.082382    3.685127
C      2.130157   -1.499337    2.424373
C      1.284507   -1.672044    1.322910
C      1.577051   -1.083912    0.085751
C      2.739012   -0.329924   -0.083011
O      3.102710    0.293368   -1.246349
C      2.116720    0.482226   -2.263843
C      2.071935   -0.670033   -3.240693
C      0.851808   -1.076625   -3.790886
C      0.802522   -2.121751   -4.716485
C      1.974583   -2.779839   -5.119070
C      1.942875   -3.833268   -6.047823
C      3.118780   -4.477470   -6.436655
C      4.339921   -4.077466   -5.902462
C      4.388251   -3.030462   -4.980124
C      3.214648   -2.372136   -4.578583
C      3.247627   -1.317631   -3.650596
C      3.625018   -0.219690    0.998445
Cl     5.110032    0.658468    0.858500
C      3.329260   -0.806176    2.234561
C     -0.486509   -1.479188    4.319193
C     -0.371555   -0.115533    3.969179
C     -1.448873    0.768498    4.068337
N     -1.247397    2.101994    3.673379
C     -1.612559    2.460965    2.495488
O     -1.383368    3.746542    2.183009
C     -2.258248    1.716414    1.392097
C     -2.441738    2.219330    0.159582
C     -3.160057    1.494956   -0.941471
N     -2.286956    1.112677   -2.063762
C     -3.034000    0.237196   -2.975316
C     -1.807254    2.283826   -2.804909
