39

C     -4.059019   -1.710597   -4.442114
C     -4.434077   -0.595823   -3.480722
O     -3.292534   -0.118593   -2.772491
C     -2.844392   -0.791413   -1.665422
C     -3.479033   -1.890786   -1.080604
C     -2.967307   -2.525952    0.044340
N     -3.647634   -3.569108    0.544015
C     -3.151333   -4.199663    1.631723
C     -1.979951   -3.836186    2.268639
C     -1.546860   -4.578299    3.408789
N     -1.196321   -5.152388    4.354004
C     -1.263684   -2.741434    1.762315
N     -0.007497   -2.368991    2.329506
C      1.265039   -2.776528    1.842901
C      2.399457   -2.501093    2.620422
C      3.684671   -2.833916    2.174270
C      3.865053   -3.416211    0.919948
O      5.085762   -3.809698    0.441181
C      6.205008   -2.960519    0.722623
C      7.059568   -3.609551    1.773803
C      7.453093   -3.094769    2.995080
C      8.274602   -4.000963    3.729701
C      8.492350   -5.173318    3.042163
S      7.721771   -5.174151    1.516778
C      2.737288   -3.682805    0.132340
Cl     2.886210   -4.413706   -1.428957
C      1.453021   -3.350107    0.581398
C     -1.764905   -2.061405    0.616271
C     -1.131746   -0.942563    0.033169
C     -1.661458   -0.299646   -1.088429
N     -0.948409    0.783816   -1.629329
C     -1.369496    1.979832   -1.428867
O     -0.634645    2.953300   -1.989204
C     -2.530274    2.505015   -0.679073
C     -2.767032    3.812820   -0.488205
C     -3.951596    4.348296    0.258684
N     -3.553196    5.219427    1.370482
C     -2.956729    4.454598    2.465525
C     -4.711891    5.966099    1.865900
