38

C     -6.334580    3.562742    3.686101
O     -5.308014    2.578628    3.640102
C     -4.542930    2.517589    2.496426
C     -4.681486    3.369157    1.396856
C     -3.841941    3.233872    0.284019
N     -4.012133    4.068608   -0.828978
C     -3.120297    4.014929   -1.864565
C     -2.148652    3.100913   -2.027466
C     -1.283640    3.226270   -3.148044
N     -0.618454    3.419419   -4.080675
C     -2.018660    2.020015   -0.975290
N     -1.273785    0.956024   -0.983443
C     -0.452543    0.597757   -2.050996
C     -0.959066   -0.157658   -3.109693
C     -0.126059   -0.537042   -4.164627
C      1.220054   -0.167144   -4.169884
O      1.937507   -0.595172   -5.252880
C      3.066450    0.200513   -5.632221
C      4.372174   -0.304892   -5.058375
C      4.568648   -1.663146   -4.770263
C      5.790150   -2.112861   -4.265715
C      6.832704   -1.212671   -4.054752
C      6.656585    0.137369   -4.351706
C      5.435091    0.588734   -4.855578
C      1.740969    0.541690   -3.087330
C      0.905994    0.916895   -2.029594
C     -2.884873    2.205517    0.256239
C     -2.742541    1.349702    1.361188
C     -3.560005    1.504498    2.483068
N     -3.478570    0.690814    3.637113
C     -2.601834   -0.337230    3.895242
O     -1.704453   -0.743825    3.170747
C     -2.852341   -0.952052    5.231120
C     -2.096590   -1.974971    5.662800
C     -2.286931   -2.660274    6.984815
N     -1.159334   -2.580923    7.916852
C     -0.839144   -1.209795    8.303579
C      0.027369   -3.286791    7.441239
