41

C     -5.705809   -0.219975   -2.427025
C     -6.147673    0.690766   -1.294778
O     -5.336700    1.873941   -1.280212
C     -4.404394    1.841415   -0.275074
C     -4.803834    2.120690    1.033432
C     -3.889321    2.163528    2.073461
N     -4.351183    2.410879    3.307684
C     -3.465572    2.438683    4.328956
C     -2.105568    2.238415    4.182415
C     -1.266126    2.312033    5.337816
N     -0.633941    2.388541    6.308841
C     -1.610772    2.001948    2.891810
N     -0.220989    1.770366    2.695476
C      0.441485    0.522631    2.840337
C     -0.170546   -0.602358    3.425071
C      0.528897   -1.805170    3.607343
C      1.859302   -1.875898    3.235034
C      2.471112   -0.754271    2.670837
C      1.792055    0.439851    2.474730
C      3.881467   -1.083470    2.319879
C      4.067735   -2.374559    3.131471
N      2.730551   -2.982647    3.310523
C      2.541839   -3.906263    4.429768
C      3.489784   -5.083548    4.333675
C      3.397480   -5.980946    3.258579
C      4.267451   -7.067945    3.166183
C      5.238505   -7.269508    4.145440
C      5.340501   -6.385029    5.218194
C      4.471161   -5.296969    5.313178
C     -2.520854    1.943711    1.798300
C     -2.134688    1.673371    0.461737
C     -3.057427    1.643734   -0.586560
N     -2.576491    1.331888   -1.866001
C     -2.726187    2.105356   -2.885442
O     -3.387095    3.277977   -2.891064
C     -2.205323    1.866133   -4.244193
C     -1.487529    0.766234   -4.523665
C     -0.940419    0.445671   -5.883198
N      0.527659    0.493982   -5.924555
C      1.135589   -0.629976   -5.206982
C      0.990510    0.493852   -7.314746
