34

C      1.478270   -4.200942    1.948683
O      0.836283   -3.015480    2.398194
C      0.236468   -2.217825    1.445741
C      0.510094   -2.324501    0.077220
C     -0.091626   -1.460777   -0.830402
N      0.243282   -1.550476   -2.188722
C      0.872186   -0.579306   -2.743481
O      1.124095   -0.689399   -4.057843
C      1.395674    0.714554   -2.271836
C      2.128506    0.802924   -1.151254
C      2.632969    2.091665   -0.575192
N      1.853908    2.486888    0.602358
C      2.110364    1.655749    1.800582
C      3.010279    2.335190    2.845234
O      2.484923    3.582165    3.319530
C      1.668674    4.254187    2.351370
C      2.067169    3.917843    0.907869
C     -1.019421   -0.531663   -0.362858
C     -1.306007   -0.394734    1.013496
C     -2.205303    0.590479    1.513315
N     -2.942871    1.416129    0.611461
C     -4.136392    1.040958   -0.062514
C     -4.830405    2.022243   -0.787892
C     -5.976837    1.702140   -1.519979
C     -6.434825    0.387798   -1.554717
C     -5.736627   -0.598448   -0.863223
Br    -6.342356   -2.389343   -0.924465
C     -4.590950   -0.281883   -0.129721
C     -2.411378    0.688825    2.895842
C     -3.296914    1.645923    3.477098
N     -4.002190    2.445035    3.936379
C     -1.723132   -0.179607    3.716627
N     -0.869215   -1.122554    3.266325
C     -0.652002   -1.242220    1.937421
