30

O      1.193678    4.584188   -1.168361
C      0.649712    3.651608   -0.598456
C      0.172218    3.855778    0.753025
C     -0.227186    4.000433    1.877493
C     -0.715814    4.168990    3.252532
N     -0.439817    2.973348    4.060771
C     -1.197434    3.032253    5.330769
C     -0.877996    1.828242    6.230419
O      0.523224    1.761232    6.523132
C      1.273908    1.658664    5.306560
C      1.002142    2.857344    4.382969
N      0.419544    2.380768   -1.075380
C      0.752214    1.865814   -2.341807
C      1.379016    2.599545   -3.341346
C      1.656441    2.007696   -4.580491
C      1.331352    0.687885   -4.858536
N      1.617198    0.198583   -6.067474
C      1.277372   -1.073601   -6.295483
N      0.694040   -1.901774   -5.425590
C      0.423277   -1.407422   -4.204425
N     -0.149203   -2.259744   -3.219073
C     -0.772025   -3.515690   -3.405471
C     -1.464687   -3.848774   -4.576856
C     -2.132398   -5.071451   -4.701321
C     -2.140467   -5.973069   -3.640720
C     -1.489102   -5.638743   -2.457631
Br    -1.516775   -6.844363   -1.000442
C     -0.820772   -4.418322   -2.332043
C      0.715959   -0.072333   -3.857142
C      0.422836    0.532489   -2.604009
