31

O      0.193477    2.274857   -0.877691
C     -0.796552    2.062355   -0.190475
C     -2.009968    1.626787   -0.849092
C     -3.028891    1.255284   -1.367775
C     -4.285357    0.800758   -1.978172
N     -5.262271    0.281567   -1.017753
C     -5.705263    1.260027   -0.008344
C     -5.188692    0.954093    1.407680
O     -5.558745   -0.348539    1.881002
C     -5.717515   -1.310351    0.828120
C     -4.858614   -0.996199   -0.406284
N     -0.861727    2.229528    1.167139
C      0.014527    1.639096    1.924558
C      1.106759    0.707610    1.466524
C      1.936320    0.200269    2.399725
C      3.126119   -0.660937    2.020238
N      3.889909   -0.639434    0.977683
C      3.782331    0.319935   -0.029190
C      4.152030    1.652287    0.196164
C      4.066922    2.592848   -0.832032
C      3.631317    2.195063   -2.092403
F      3.566042    3.111545   -3.069920
C      3.289047    0.866583   -2.335703
Cl     2.767042    0.365283   -3.898398
C      3.374829   -0.073002   -1.307997
N      3.496402   -1.608874    2.954960
C      3.220530   -1.371818    4.191378
N      2.491182   -0.326761    4.677642
C      1.714139    0.425108    3.836066
C      0.736173    1.271737    4.202507
N     -0.071393    1.884575    3.280063
