41

C     -4.019654    2.667990   -0.935008
C     -4.577078    1.292720   -1.260478
O     -3.591089    0.271125   -1.120666
C     -2.603414    0.172718   -2.066456
C     -2.769298    0.510209   -3.411307
C     -1.726956    0.317936   -4.331155
N     -1.934848    0.629736   -5.686527
C     -1.029811    0.202890   -6.622742
C      0.194795   -0.270533   -6.353450
C      1.064007   -0.693164   -7.395089
N      1.708647   -1.048604   -8.292883
C      0.639937   -0.273862   -4.916219
N      1.930703   -0.342444   -4.719324
C      2.548182   -0.196721   -3.479945
C      2.627241    1.058456   -2.867066
C      3.219842    1.192879   -1.613047
C      3.735268    0.066949   -0.971432
O      4.272218    0.219755    0.278795
C      3.263035    0.066460    1.285548
C      2.916187    1.413783    1.876424
C      3.910775    2.188653    2.489977
C      3.605318    3.434727    3.039147
C      2.297498    3.919193    2.983216
C      1.304405    3.156857    2.372115
Cl    -0.310105    3.753523    2.301115
C      1.607190    1.914497    1.815291
C      3.729879   -1.175717   -1.610795
Cl     4.399036   -2.575633   -0.857382
C      3.144902   -1.303591   -2.869667
C     -0.472294   -0.158946   -3.893922
C     -0.337759   -0.550563   -2.557656
C     -1.387071   -0.394489   -1.639369
N     -1.137972   -0.740632   -0.299028
C     -1.733974   -1.733352    0.270191
O     -2.619940   -2.552755   -0.328124
C     -1.562819   -2.171205    1.667839
C     -0.699977   -1.548297    2.485041
C     -0.426473   -1.861031    3.930188
N     -1.364220   -2.794620    4.571650
C     -2.624405   -2.122005    4.914469
C     -0.765361   -3.346382    5.790221
