23

C     -0.991011    0.982774    7.015907
C     -0.461344    1.397050    5.857524
C     -0.644698    0.598535    4.609511
O     -1.283714   -0.444277    4.617466
N     -0.018435    1.186696    3.528917
C      0.013126    0.715929    2.197572
C      0.723960    1.479835    1.272328
C      0.798859    1.074668   -0.060146
C      0.161160   -0.112255   -0.494371
C      0.179810   -0.607708   -1.815758
N      0.940516    0.089377   -2.795897
C      0.900415   -0.053439   -4.201981
C     -0.259138   -0.431994   -4.890955
C     -0.284619   -0.494917   -6.288025
C      0.847264   -0.152841   -7.022554
C      1.994047    0.261716   -6.352700
Br     3.529215    0.755082   -7.341474
C      2.021151    0.324668   -4.957337
N     -0.480476   -1.725302   -2.165770
C     -1.141317   -2.361337   -1.195775
N     -1.208886   -1.992177    0.086710
C     -0.565150   -0.872904    0.430872
C     -0.621790   -0.449299    1.757356
