42

C     -2.480704    4.614763   -4.494712
C     -1.856818    3.276228   -4.846268
O     -2.413030    2.292156   -3.978483
C     -1.838005    1.046464   -3.983408
C     -0.993163    0.568559   -4.990268
C     -0.468940   -0.728945   -4.918549
N      0.315874   -1.237167   -5.972424
C      0.548383   -2.591354   -6.029260
C      0.383978   -3.446571   -5.007613
C      0.669196   -4.831072   -5.139238
N      0.900512   -5.955059   -5.318014
C     -0.015500   -2.853658   -3.687710
N      0.320373   -3.513662   -2.611016
C      0.244810   -2.980287   -1.321692
C      1.061606   -1.907925   -0.943366
C      1.003204   -1.395323    0.351425
C      0.151905   -1.978678    1.288935
O      0.082718   -1.421175    2.538468
C      1.115946   -1.944925    3.383292
C      1.241539   -1.101148    4.633181
C      2.495671   -0.924733    5.237426
C      2.620754   -0.181148    6.412932
C      1.493570    0.387914    7.002012
C      0.240331    0.209082    6.420142
C      0.113781   -0.537028    5.246982
C     -0.657613   -3.058292    0.924677
Cl    -1.743891   -3.784708    2.051285
C     -0.595504   -3.569492   -0.373840
C     -0.708712   -1.519777   -3.778147
C     -1.617941   -1.073804   -2.818346
C     -2.178073    0.205646   -2.905796
N     -3.116950    0.597209   -1.936513
C     -2.705431    1.156862   -0.857164
O     -3.667973    1.498709    0.015217
C     -1.355949    1.508932   -0.382378
C     -1.098275    1.822035    0.897183
C      0.191009    2.121815    1.408851
C      0.511334    2.330919    2.728937
N      1.859693    2.540232    2.726128
C      2.690656    2.783473    3.876198
C      2.291958    2.471243    1.432198
N      1.300798    2.210866    0.606905
