42

C     -0.600838    7.367271    0.160601
C      0.504708    6.448053   -0.326542
O      0.232574    5.136480    0.167561
C      1.109884    4.135389   -0.181362
C      2.259940    4.310667   -0.954231
C      3.096015    3.249572   -1.272478
N      4.184184    3.509598   -2.013255
C      5.003389    2.483187   -2.331365
C      4.787594    1.173065   -1.947407
C      5.714688    0.166413   -2.354628
N      6.474598   -0.655853   -2.659680
C      3.653802    0.887817   -1.172522
N      3.336746   -0.457263   -0.826079
C      2.344572   -1.269931   -1.431957
C      2.183105   -2.582489   -0.971340
C      1.179134   -3.417495   -1.481115
C      0.300525   -2.952091   -2.458676
O     -0.711376   -3.679899   -3.020958
C     -0.874621   -5.060057   -2.700564
C      0.046673   -5.948759   -3.497218
C      0.936934   -6.828540   -2.862252
C      1.778183   -7.645290   -3.621211
C      1.725452   -7.588886   -5.010473
F      2.532787   -8.377662   -5.731322
C      0.844839   -6.736483   -5.658777
C      0.010198   -5.927002   -4.897342
F     -0.857097   -5.125773   -5.531453
C      0.442662   -1.628299   -2.902595
Cl    -0.616731   -0.963047   -4.100753
C      1.445864   -0.796226   -2.390421
C      2.777130    1.953663   -0.814241
C      1.622351    1.784121   -0.011377
C      0.789443    2.857153    0.303291
N     -0.381705    2.743233    1.085764
C     -0.889316    1.621891    1.700901
O     -0.403620    0.498531    1.709727
C     -2.170390    1.914431    2.405512
C     -2.739631    0.990323    3.196377
C     -4.041110    1.185195    3.916548
N     -3.862005    1.350452    5.365332
C     -5.107668    1.827036    5.972150
C     -3.450081    0.101790    6.013128
