29

C     -9.109759   -1.787381    0.661588
O     -8.606712   -1.827919   -0.667188
C     -7.178099   -1.754306   -0.736711
C     -6.633623   -0.364079   -0.399445
O     -6.542152   -0.212385    1.023209
C     -6.046669    1.071876    1.403719
C     -4.582558    1.086986    1.367216
C     -3.381224    1.099040    1.330114
C     -1.933054    1.101478    1.284650
O     -1.376253    2.048992    0.754742
N     -1.363297   -0.007307    1.866613
C      0.006528   -0.312042    1.986092
C      0.333544   -1.513128    2.631763
C      1.667748   -1.900588    2.798001
C      2.704039   -1.098848    2.323390
N      4.033932   -1.545297    2.522434
C      4.961667   -0.769282    2.064977
N      4.747698    0.412486    1.424712
C      3.504673    0.947307    1.173444
N      3.242241    2.066602    0.567067
C      4.294805    2.858143    0.094655
C      4.843999    3.853760    0.907696
C      5.894440    4.647308    0.443599
C      6.394418    4.453326   -0.843855
C      5.833849    3.472272   -1.661265
Br     6.505114    3.214955   -3.409809
C      4.784868    2.678513   -1.200276
C      2.370126    0.107926    1.673738
C      1.033974    0.501034    1.505199
