38

C     -3.961241    5.131532    1.304995
O     -2.780834    4.510669    0.807239
C     -2.942783    3.534450   -0.149973
C     -4.171648    3.111112   -0.661118
C     -4.258818    2.118222   -1.626346
N     -5.480546    1.779430   -2.065331
C     -5.577761    0.814810   -3.006644
C     -4.494552    0.146558   -3.545586
C     -4.721398   -0.863521   -4.529180
N     -4.907794   -1.666748   -5.345776
C     -3.212552    0.493363   -3.095034
N     -2.066713   -0.215176   -3.558819
C     -1.435165   -1.297436   -2.891261
C     -0.412477   -1.988203   -3.552838
C      0.279812   -3.024268   -2.918775
C     -0.015756   -3.375919   -1.602217
O      0.736144   -4.401629   -1.102288
C      0.544423   -4.736929    0.269493
C      1.523112   -5.827226    0.631151
C      2.876626   -5.520990    0.834787
C      3.788609   -6.525034    1.163326
C      3.358672   -7.845058    1.284949
C      2.018239   -8.163107    1.073032
C      1.104332   -7.160170    0.744164
C     -1.012740   -2.678058   -0.924288
C     -1.707928   -1.641009   -1.562298
C     -3.078946    1.509396   -2.104280
C     -1.832872    1.948729   -1.592038
C     -1.756663    2.949206   -0.622866
N     -0.545962    3.426483   -0.071359
C      0.738750    3.033234   -0.369096
O      1.081800    2.188813   -1.184541
C      1.744058    3.781631    0.440038
C      3.050645    3.484863    0.350951
C      4.129935    4.191121    1.115330
N      4.946361    3.259692    1.903542
C      6.156070    3.930665    2.383409
C      4.201495    2.709031    3.038373
