39

C      0.669910   -4.397535    1.435667
O      1.981802   -3.833429    1.442320
C      2.319729   -3.179642    0.285467
C      3.596177   -3.473439   -0.201451
C      4.069256   -2.870343   -1.371448
N      5.330155   -3.223676   -1.884376
C      5.655949   -2.850659   -3.164445
C      5.017077   -1.912937   -3.880268
C      5.431716   -1.574418   -5.196174
N      5.808337   -1.361142   -6.273775
C      3.897533   -1.174323   -3.201276
N      3.602675    0.005439   -3.679145
C      2.723782    0.905079   -3.076514
C      3.040495    1.521770   -1.862827
C      2.143261    2.408148   -1.259822
C      0.915991    2.706283   -1.865443
N      0.001545    3.593394   -1.254939
C     -0.306229    3.294069    0.141941
C     -1.688181    3.802171    0.477109
C     -2.820810    3.061253    0.103975
C     -4.101836    3.530396    0.395797
C     -4.264167    4.746294    1.056911
C     -3.147242    5.496112    1.421695
C     -1.864321    5.029803    1.129122
C      0.647730    2.140183   -3.128407
Cl    -0.835985    2.489454   -3.949319
C      1.541369    1.250672   -3.728103
C      3.293142   -1.883003   -2.011316
C      2.000928   -1.626679   -1.539702
C      1.516080   -2.237243   -0.375042
N      0.241317   -1.871168    0.080027
C      0.096213   -0.911798    0.927953
O      1.102070   -0.185530    1.455093
C     -1.172469   -0.421270    1.494124
C     -2.352362   -0.880334    1.049760
C     -3.678202   -0.427133    1.584568
N     -4.496473   -1.556549    2.044892
C     -5.873576   -1.114339    2.278036
C     -3.956179   -2.151443    3.270659
