34

C     -4.675737   -0.687196    0.693391
C     -3.782385   -1.233977   -0.408811
C     -2.910804   -2.416382    0.029010
C     -1.844084   -2.024772    1.063113
N     -0.994294   -3.145300    1.521536
C     -0.254185   -3.812869    0.436456
C      0.643239   -2.924141   -0.313879
C      1.332149   -2.155356   -0.929958
C      2.097541   -1.171232   -1.665843
O      3.118210   -1.537890   -2.239228
N      1.591841    0.102880   -1.654963
C      2.120205    1.010968   -2.417246
C      1.471577    2.363544   -2.341127
C      1.939640    3.359534   -3.117908
C      1.344388    4.757761   -3.143233
N      0.248146    5.252422   -2.640077
C     -0.707431    4.510480   -1.951788
C     -0.765447    4.580559   -0.554772
C     -1.742809    3.873864    0.148402
C     -2.674966    3.113316   -0.550627
F     -3.604164    2.438586    0.141949
C     -2.645145    3.060657   -1.943023
Cl    -3.806066    2.131181   -2.810072
C     -1.668419    3.767053   -2.645985
N      2.089908    5.660269   -3.855526
C      3.182467    5.343274   -4.592839
N      3.715313    4.171352   -4.695724
C      3.139247    3.146317   -3.974947
C      3.682558    1.915384   -4.007110
N      3.185349    0.868412   -3.276326
C     -0.128978   -2.692726    2.628974
C      0.582234   -3.836236    3.366915
C      1.315177   -3.318883    4.607425
C      2.021008   -4.444122    5.347219
