44

N     -4.371987   -3.333626    5.282055
C     -4.966511   -2.344037    4.467254
C     -4.776087   -0.991478    4.765113
C     -5.269771   -0.003232    3.910765
C     -5.930152   -0.360900    2.736536
C     -6.076766   -1.707449    2.401604
C     -5.565773   -2.704083    3.240104
N     -5.707246   -4.063564    2.895361
C     -4.889108   -4.559180    2.042688
O     -5.086084   -5.839330    1.687954
C     -3.737928   -4.039097    1.291581
C     -2.670167   -3.572366    1.952037
C     -1.514568   -3.076179    1.288715
C     -1.220409   -2.919727   -0.060761
C      0.079493   -2.368704   -0.166069
C      0.542874   -2.214509    1.121028
C      1.784484   -1.720755    1.709246
C      1.988038   -1.707912    3.090098
C      3.197276   -1.252388    3.630563
C      4.232363   -0.789863    2.830044
N      5.367801   -0.392239    3.412864
C      6.348524    0.024420    2.603800
N      6.294720    0.104985    1.271063
C      5.134238   -0.269090    0.705216
N      5.099250   -0.136800   -0.703489
C      4.179397    0.669666   -1.423106
C      3.984807    0.403527   -2.783844
C      3.116984    1.185830   -3.552518
C      2.439882    2.257548   -2.968666
O      1.588509    3.060940   -3.682679
C      0.574160    2.372644   -4.427987
C     -0.425901    1.653478   -3.550671
C     -1.080640    2.332466   -2.509780
C     -1.996462    1.669787   -1.689016
C     -2.278720    0.323920   -1.909304
C     -1.642810   -0.345717   -2.947390
F     -1.910123   -1.641613   -3.157594
C     -0.723555    0.302132   -3.767537
C      2.687498    2.573711   -1.627179
Cl     1.939404    3.936556   -0.869961
C      3.550467    1.785699   -0.860058
C      4.044099   -0.767524    1.444283
C      2.822811   -1.249483    0.897809
O     -0.415488   -2.636009    1.993829
