42

C      0.505872    0.821519   -0.021724
C     -0.162937   -0.104466    0.930453
C     -1.470070   -0.055451    1.213344
C     -1.577461   -1.084973    2.238622
C     -2.905542   -1.387685    2.871639
O     -3.743217   -1.962368    2.185736
N     -3.102651   -0.956505    4.174222
C     -4.403167   -1.147577    4.809743
C     -4.725275    0.025962    5.739236
O     -3.741467    0.256227    6.759125
C     -2.450632   -0.295243    6.467293
C     -2.096515   -0.256707    4.977334
N     -0.469319   -1.690894    2.557134
C      0.477943   -1.144868    1.718189
C      1.723649   -1.637704    1.702703
C      2.848538   -1.320601    0.768198
C      3.883361   -0.394078    1.451677
O      3.684185    0.700799    1.952385
N      5.112197   -1.028854    1.381243
C      5.008547   -2.263891    0.772585
N      6.032157   -3.090956    0.601538
C      5.680091   -4.243889    0.019634
N      4.440239   -4.594844   -0.383033
C      3.446251   -3.704231   -0.194590
N      2.163682   -4.120349   -0.572587
C      1.201607   -3.356334   -1.268301
C      1.542866   -2.565281   -2.371037
C      0.579689   -1.828759   -3.072366
C     -0.748519   -1.921845   -2.635726
C     -1.125890   -2.741862   -1.576516
C     -2.520428   -2.560010   -1.456527
N     -3.007402   -1.703546   -2.357401
N     -1.911749   -1.311153   -3.047593
C     -2.056323   -0.330151   -4.115173
C     -1.732236    1.065104   -3.637150
C     -2.584620    1.721582   -2.735298
C     -2.291176    3.011160   -2.290891
C     -1.142737    3.658644   -2.741036
C     -0.288142    3.018419   -3.636610
C     -0.580913    1.729006   -4.084904
C     -0.146711   -3.492157   -0.902855
C      3.703760   -2.499244    0.402019
