30

O      0.480367    1.724614   -1.419140
C      0.407490    0.507136   -1.439752
C      0.203022   -0.146561   -2.715854
C      0.024115   -0.728819   -3.752189
C     -0.194909   -1.469757   -5.001652
N     -0.565158   -2.874020   -4.796266
C      0.531369   -3.688423   -4.255680
C      0.097238   -5.071607   -3.760676
S     -0.948842   -4.958594   -2.267649
C     -1.846221   -3.415601   -2.654825
C     -1.869306   -3.071888   -4.149202
N      0.500345   -0.373307   -0.385274
C      0.656426   -0.071971    0.981425
C      0.761285   -1.156975    1.861197
C      0.946888   -0.951585    3.230440
C      1.018712    0.346045    3.736546
N      1.240462    0.582016    5.100400
C      1.574181    1.856719    5.457375
N      1.429540    2.925970    4.753574
C      0.789807    2.789390    3.535379
N      0.190703    3.873583    3.147666
C     -0.653359    3.942255    2.039215
C     -0.274654    4.711107    0.935092
C     -1.106887    4.809109   -0.181504
C     -2.336364    4.151663   -0.191437
C     -2.730875    3.412546    0.922528
Br    -4.400103    2.524217    0.914281
C     -1.904122    3.317052    2.040878
C      0.824105    1.438899    2.873862
C      0.698215    1.226660    1.494851
