44

C     -0.220483    4.981901   -4.442849
C      0.736715    3.819811   -4.246647
O      0.307503    2.987570   -3.168336
C     -0.525946    1.926574   -3.433575
C     -1.146054    1.672573   -4.657998
C     -1.970071    0.572013   -4.849106
N     -2.522257    0.411163   -6.060623
C     -3.326876   -0.654705   -6.261216
C     -3.608657   -1.604539   -5.297613
C     -4.455337   -2.703391   -5.635493
N     -5.155581   -3.590398   -5.897824
C     -3.034868   -1.452699   -4.026366
N     -3.224330   -2.455807   -3.035270
C     -2.255485   -3.322933   -2.477667
C     -0.913685   -3.323884   -2.871547
C      0.036111   -4.120888   -2.217319
C     -0.335054   -4.932528   -1.144304
O      0.523033   -5.714308   -0.417653
C      1.914942   -5.724154   -0.741812
C      2.674777   -4.497938   -0.279545
C      2.258231   -3.749918    0.831628
C      2.981629   -2.631385    1.249351
C      4.140575   -2.258377    0.572287
C      4.577390   -3.004144   -0.521419
C      3.851068   -4.119499   -0.942935
C     -1.681091   -4.940463   -0.751315
Cl    -2.228181   -5.928574    0.563415
C     -2.626795   -4.141815   -1.405196
C     -2.195286   -0.323367   -3.782399
C     -1.596926   -0.037196   -2.529867
C     -0.759725    1.063312   -2.351610
N     -0.106025    1.366466   -1.135406
C     -0.156983    0.674512    0.053738
O     -0.815263   -0.326507    0.299739
C      0.719031    1.296509    1.088517
C      0.788855    0.779166    2.326095
C      1.644614    1.337368    3.422491
N      0.883890    1.607441    4.647423
C      1.779958    1.843479    5.794461
C      1.559600    3.170614    6.521588
C      1.496986    4.307233    5.509756
O      1.275137    5.548981    6.175718
C      0.420452    4.072281    4.448438
C     -0.137708    2.648584    4.495941
