36

C     -2.939315    2.306723   -5.866645
C     -3.239640    2.315420   -4.561763
C     -2.218123    2.015223   -3.526524
O     -1.926911    2.919387   -2.746469
N     -1.706747    0.730481   -3.486527
C     -2.255815   -0.373750   -4.290430
C     -1.801431   -1.629834   -3.579911
C     -0.453037   -1.227044   -3.017236
C     -0.645962    0.248663   -2.702903
C      0.166887    0.881252   -1.823292
O      0.134889    2.221526   -1.547187
N      1.208730    0.254497   -1.167298
C      1.075838   -0.347584    0.127652
C     -0.159928   -0.795747    0.617472
C     -0.252490   -1.430282    1.857847
C     -1.540391   -1.905220    2.471854
N     -2.776751   -1.568624    2.210113
C     -3.130649   -0.502736    1.373365
C     -3.846149   -0.769830    0.200936
C     -4.250614    0.271462   -0.638196
C     -3.955936    1.593293   -0.300134
C     -3.267485    1.872627    0.880793
Cl    -2.930412    3.510089    1.293141
C     -2.868861    0.832606    1.717697
F     -2.219966    1.102504    2.863636
N     -1.364895   -2.800487    3.497563
C     -0.180825   -3.018697    4.127079
N      0.953291   -2.522892    3.755209
C      0.929036   -1.739400    2.572095
C      2.165047   -1.304167    2.078688
C      2.249204   -0.604043    0.873869
O      3.407510   -0.120637    0.315237
C      4.643089   -0.312704    1.002552
C      4.876346    0.770302    2.053319
O      6.137653    0.549113    2.684736
C      6.403450    1.534103    3.675207
