      -----------------------------------------------------------      
     |                   =====================                   |     
     |                           x T B                           |     
     |                   =====================                   |     
     |                         S. Grimme                         |     
     |          Mulliken Center for Theoretical Chemistry        |     
     |                    University of Bonn                     |     
      -----------------------------------------------------------      

   * xtb version 6.6.1 (unknown) compiled by 'builduser@buildhost' on 2023-08-07

   xtb is free software: you can redistribute it and/or modify it under
   the terms of the GNU Lesser General Public License as published by
   the Free Software Foundation, either version 3 of the License, or
   (at your option) any later version.
   
   xtb is distributed in the hope that it will be useful,
   but WITHOUT ANY WARRANTY; without even the implied warranty of
   MERCHANTABILITY or FITNESS FOR A PARTICULAR PURPOSE.  See the
   GNU Lesser General Public License for more details.
   
   Cite this work as:
   * C. Bannwarth, E. Caldeweyher, S. Ehlert, A. Hansen, P. Pracht,
     J. Seibert, S. Spicher, S. Grimme, WIREs Comput. Mol. Sci., 2020, 11,
     e01493. DOI: 10.1002/wcms.1493
   
   for GFN2-xTB:
   * C. Bannwarth, S. Ehlert and S. Grimme., J. Chem. Theory Comput., 2019,
     15, 1652-1671. DOI: 10.1021/acs.jctc.8b01176
   for GFN1-xTB:
   * S. Grimme, C. Bannwarth, P. Shushkov, J. Chem. Theory Comput., 2017,
     13, 1989-2009. DOI: 10.1021/acs.jctc.7b00118
   for GFN0-xTB:
   * P. Pracht, E. Caldeweyher, S. Ehlert, S. Grimme, ChemRxiv, 2019, preprint.
     DOI: 10.26434/chemrxiv.8326202.v1
   for GFN-FF:
   * S. Spicher and S. Grimme, Angew. Chem. Int. Ed., 2020, 59, 15665-15673.
     DOI: 10.1002/anie.202004239
   
   for ALPB and GBSA implicit solvation:
   * S. Ehlert, M. Stahn, S. Spicher, S. Grimme, J. Chem. Theory Comput.,
     2021, 17, 4250-4261. DOI: 10.1021/acs.jctc.1c00471
   
   for DFT-D4:
   * E. Caldeweyher, C. Bannwarth and S. Grimme, J. Chem. Phys., 2017,
     147, 034112. DOI: 10.1063/1.4993215
   * E. Caldeweyher, S. Ehlert, A. Hansen, H. Neugebauer, S. Spicher,
     C. Bannwarth and S. Grimme, J. Chem. Phys., 2019, 150, 154122.
     DOI: 10.1063/1.5090222
   * E. Caldeweyher, J.-M. Mewes, S. Ehlert and S. Grimme, Phys. Chem. Chem. Phys.
     2020, 22, 8499-8512. DOI: 10.1039/D0CP00502A
   
   for sTDA-xTB:
   * S. Grimme and C. Bannwarth, J. Chem. Phys., 2016, 145, 054103.
     DOI: 10.1063/1.4959605
   
   in the mass-spec context:
   * V. Asgeirsson, C. Bauer and S. Grimme, Chem. Sci., 2017, 8, 4879.
     DOI: 10.1039/c7sc00601b
   * J. Koopman and S. Grimme, ACS Omega 2019, 4, 12, 15120-15133.
     DOI: 10.1021/acsomega.9b02011
   
   for metadynamics refer to:
   * S. Grimme, J. Chem. Theory Comput., 2019, 155, 2847-2862
     DOI: 10.1021/acs.jctc.9b00143
   
   for SPH calculations refer to:
   * S. Spicher and S. Grimme, J. Chem. Theory Comput., 2021, 17, 1701-1714
     DOI: 10.1021/acs.jctc.0c01306
   
   with help from (in alphabetical order)
   P. Atkinson, C. Bannwarth, F. Bohle, G. Brandenburg, E. Caldeweyher
   M. Checinski, S. Dohm, S. Ehlert, S. Ehrlich, I. Gerasimov, C. Hölzer
   A. Katbashev, J. Koopman, C. Lavigne, S. Lehtola, F. März, M. Müller,
   F. Musil, H. Neugebauer, J. Pisarek, C. Plett, P. Pracht, F. Pultar,
   J. Seibert, P. Shushkov, S. Spicher, M. Stahn, M. Steiner, T. Strunk,
   J. Stückrath, T. Rose, and J. Unsleber
   
 * started run on 2026/07/23 at 16:43:30.919     

           -------------------------------------------------
          |                Calculation Setup                |
           -------------------------------------------------

          program call               : xtb /home/selva/covalent_quantum_benchmark/data/quantum/erbB_xyz/ERBB2__CHEMBL92961__state02.xyz --gfn2 --chrg 0 --uhf 0 --iterations 300
          coordinate file            : /home/selva/covalent_quantum_benchmark/data/quantum/erbB_xyz/ERBB2__CHEMBL92961__state02.xyz
          omp threads                :                    24

   ID    Z sym.   atoms
    1    6 C      1-3, 5-8, 11-14, 16, 18, 20-24, 26-31
    2    7 N      4, 10, 15, 17, 19
    3    8 O      9
    4   35 Br     25

           -------------------------------------------------
          |                 G F N 2 - x T B                 |
           -------------------------------------------------

        Reference                      10.1021/acs.jctc.8b01176
      * Hamiltonian:
        H0-scaling (s, p, d)           1.850000    2.230000    2.230000
        zeta-weighting                 0.500000
      * Dispersion:
        s8                             2.700000
        a1                             0.520000
        a2                             5.000000
        s9                             5.000000
      * Repulsion:
        kExp                           1.500000    1.000000
        rExp                           1.000000
      * Coulomb:
        alpha                          2.000000
        third order                    shell-resolved
        anisotropic                    true
        a3                             3.000000
        a5                             4.000000
        cn-shift                       1.200000
        cn-exp                         4.000000
        max-rad                        5.000000


          ...................................................
          :                      SETUP                      :
          :.................................................:
          :  # basis functions                 130          :
          :  # atomic orbitals                 129          :
          :  # shells                           63          :
          :  # electrons                       134          :
          :  max. iterations                   300          :
          :  Hamiltonian                  GFN2-xTB          :
          :  restarted?                      false          :
          :  GBSA solvation                  false          :
          :  PC potential                    false          :
          :  electronic temp.          300.0000000     K    :
          :  accuracy                    1.0000000          :
          :  -> integral cutoff          0.2500000E+02      :
          :  -> integral neglect         0.1000000E-07      :
          :  -> SCF convergence          0.1000000E-05 Eh   :
          :  -> wf. convergence          0.1000000E-03 e    :
          :  Broyden damping             0.4000000          :
          ...................................................

 iter      E             dE          RMSdq      gap      omega  full diag
   1    -72.0176915 -0.720177E+02  0.101E+01    0.37       0.0  T
   2    -37.7478321  0.342699E+02  0.159E+01    0.07       1.0  T
   3    -18.4576803  0.192902E+02  0.160E+01    0.25       1.0  T
   4    -22.4066416 -0.394896E+01  0.163E+01    0.17       1.0  T
   5    -66.7966166 -0.443900E+02  0.102E+01    0.36       1.0  T
   6    -71.7941090 -0.499749E+01  0.711E+00    0.43       1.0  T
   7    -72.0939528 -0.299844E+00  0.548E+00    0.28       1.0  T
   8    -72.2065866 -0.112634E+00  0.468E+00    0.25       1.0  T
   9    -72.5551505 -0.348564E+00  0.375E+00    0.11       1.0  T
  10    -72.9704309 -0.415280E+00  0.288E+00    0.02       1.0  T
  11    -72.7783956  0.192035E+00  0.301E+00    0.10       1.0  T
  12    -72.8416832 -0.632876E-01  0.348E+00    0.08       1.0  T
  13    -72.8940719 -0.523887E-01  0.322E+00    0.06       1.0  T
  14    -72.9557940 -0.617221E-01  0.296E+00    0.09       1.0  T
  15    -72.9750383 -0.192443E-01  0.284E+00    0.08       1.0  T
  16    -73.1218400 -0.146802E+00  0.183E+00    0.02       1.0  T
  17    -72.9706267  0.151213E+00  0.191E+00    0.08       1.0  T
  18    -73.0153185 -0.446918E-01  0.209E+00    0.03       1.0  T
  19    -72.9310798  0.842387E-01  0.214E+00    0.05       1.0  T
  20    -72.9308386  0.241210E-03  0.214E+00    0.05       1.0  T
  21    -72.9628742 -0.320356E-01  0.206E+00    0.04       1.0  T
  22    -72.8172439  0.145630E+00  0.234E+00    0.07       1.0  T
  23    -73.1943575 -0.377114E+00  0.120E+00    0.01       1.0  T
  24    -73.1978734 -0.351585E-02  0.105E+00    0.02       1.0  T
  25    -73.2080724 -0.101990E-01  0.103E+00    0.01       1.0  T
  26    -73.2313946 -0.233222E-01  0.858E-01    0.01       1.0  T
  27    -73.2109904  0.204042E-01  0.924E-01    0.01       1.0  T
  28    -73.2707213 -0.597309E-01  0.478E-01    0.01       1.0  T
  29    -73.2538160  0.169053E-01  0.598E-01    0.01       1.0  T
  30    -73.2713318 -0.175158E-01  0.474E-01    0.02       1.0  T
  31    -73.2837281 -0.123964E-01  0.187E-01    0.02       1.0  T
  32    -73.2824685  0.125962E-02  0.192E-01    0.03       1.0  T
  33    -73.2844303 -0.196184E-02  0.124E-01    0.02       1.0  T
  34    -73.2849832 -0.552837E-03  0.638E-02    0.02       1.0  T
  35    -73.2850717 -0.885340E-04  0.401E-02    0.02       1.0  T
  36    -73.2849232  0.148495E-03  0.573E-02    0.03       1.0  T
  37    -73.2850293 -0.106102E-03  0.444E-02    0.03       1.0  T
  38    -73.2851337 -0.104394E-03  0.257E-02    0.03       1.0  T
  39    -73.2851565 -0.228308E-04  0.171E-02    0.02       1.0  T
  40    -73.2851761 -0.195690E-04  0.112E-02    0.02       1.6  T
  41    -73.2851811 -0.498923E-05  0.466E-03    0.03       3.9  T
  42    -73.2851810  0.534755E-07  0.453E-03    0.02       4.0  T
  43    -73.2851811 -0.332283E-07  0.355E-03    0.02       5.1  T
  44    -73.2851802  0.865230E-06  0.405E-03    0.02       4.4  T
  45    -73.2851814 -0.122133E-05  0.200E-03    0.02       9.0  T
  46    -73.2851817 -0.256469E-06  0.775E-04    0.02      23.2  T
  47    -73.2851817 -0.438868E-07  0.388E-04    0.02      46.3  T

   *** convergence criteria satisfied after 47 iterations ***

         #    Occupation            Energy/Eh            Energy/eV
      -------------------------------------------------------------
         1        2.0000           -0.8702726             -23.6813
       ...           ...                  ...                  ...
        61        2.0000           -0.4391443             -11.9497
        62        2.0000           -0.4382051             -11.9242
        63        2.0000           -0.4350855             -11.8393
        64        1.9988           -0.4298635             -11.6972
        65        1.9556           -0.4264319             -11.6038
        66        1.8494           -0.4252183             -11.5708
        67        1.2308           -0.4232823             -11.5181 (HOMO)
        68        0.7583           -0.4223672             -11.4932 (LUMO)
        69        0.2071           -0.4207851             -11.4501
        70        0.0001           -0.4132081             -11.2440
        71        0.0000           -0.4075359             -11.0896
        72                         -0.4007010             -10.9036
       ...                                ...                  ...
       129                          1.3068533              35.5613
      -------------------------------------------------------------
                  HL-Gap            0.0009151 Eh            0.0249 eV
             Fermi-level           -0.4228357 Eh          -11.5059 eV

 SCC (total)                   0 d,  0 h,  0 min,  0.578 sec
 SCC setup                      ...        0 min,  0.000 sec (  0.073%)
 Dispersion                     ...        0 min,  0.001 sec (  0.182%)
 classical contributions        ...        0 min,  0.001 sec (  0.120%)
 integral evaluation            ...        0 min,  0.008 sec (  1.427%)
 iterations                     ...        0 min,  0.551 sec ( 95.329%)
 molecular gradient             ...        0 min,  0.015 sec (  2.611%)
 printout                       ...        0 min,  0.001 sec (  0.253%)

         :::::::::::::::::::::::::::::::::::::::::::::::::::::
         ::                     SUMMARY                     ::
         :::::::::::::::::::::::::::::::::::::::::::::::::::::
         :: total energy             -72.437290641219 Eh    ::
         :: gradient norm              0.458555989536 Eh/a0 ::
         :: HOMO-LUMO gap              0.024901796842 eV    ::
         ::.................................................::
         :: SCC energy               -73.285181733031 Eh    ::
         :: -> isotropic ES           -0.015522188907 Eh    ::
         :: -> anisotropic ES          0.006621964594 Eh    ::
         :: -> anisotropic XC          0.050725613659 Eh    ::
         :: -> dispersion             -0.042814259838 Eh    ::
         :: repulsion energy           0.848225464078 Eh    ::
         :: add. restraining           0.000000000000 Eh    ::
         :: total charge              -0.000000000000 e     ::
         :::::::::::::::::::::::::::::::::::::::::::::::::::::

           -------------------------------------------------
          |                Property Printout                |
           -------------------------------------------------

    * Orbital Energies and Occupations

         #    Occupation            Energy/Eh            Energy/eV
      -------------------------------------------------------------
         1        2.0000           -0.8702726             -23.6813
       ...           ...                  ...                  ...
        55        2.0000           -0.4620626             -12.5734
        56        2.0000           -0.4611994             -12.5499
        57        2.0000           -0.4536177             -12.3436
        58        2.0000           -0.4473876             -12.1740
        59        2.0000           -0.4467786             -12.1575
        60        2.0000           -0.4435433             -12.0694
        61        2.0000           -0.4391443             -11.9497
        62        2.0000           -0.4382051             -11.9242
        63        2.0000           -0.4350855             -11.8393
        64        1.9988           -0.4298635             -11.6972
        65        1.9556           -0.4264319             -11.6038
        66        1.8494           -0.4252183             -11.5708
        67        1.2308           -0.4232823             -11.5181 (HOMO)
        68        0.7583           -0.4223672             -11.4932 (LUMO)
        69        0.2071           -0.4207851             -11.4501
        70        0.0001           -0.4132081             -11.2440
        71        0.0000           -0.4075359             -11.0896
        72                         -0.4007010             -10.9036
        73                         -0.3962806             -10.7833
        74                         -0.3962132             -10.7815
        75                         -0.3905945             -10.6286
        76                         -0.3811452             -10.3715
        77                         -0.3630517              -9.8791
        78                         -0.3564886              -9.7005
       ...                                ...                  ...
       129                          1.3068533              35.5613
      -------------------------------------------------------------
                  HL-Gap            0.0009151 Eh            0.0249 eV
             Fermi-level           -0.4228357 Eh          -11.5059 eV

     #   Z          covCN         q      C6AA      α(0)
     1   6 C        0.981    -0.082    38.502    10.422
     2   6 C        2.860     0.136    25.017     8.198
     3   6 C        0.982    -0.089    38.719    10.452
     4   7 N        2.721     0.022    20.870     6.785
     5   6 C        1.901     0.002    31.061     9.001
     6   6 C        1.963     0.036    30.153     8.868
     7   6 C        1.975     0.022    30.489     8.917
     8   6 C        2.749     0.325    21.479     7.589
     9   8 O        0.860    -0.341    20.541     6.077
    10   7 N        1.839    -0.194    26.034     7.561
    11   6 C        2.896     0.151    24.723     8.152
    12   6 C        1.987    -0.019    31.542     9.070
    13   6 C        1.992    -0.008    31.261     9.029
    14   6 C        2.950     0.126    25.239     8.240
    15   7 N        1.830    -0.151    25.062     7.418
    16   6 C        1.889     0.169    27.052     8.400
    17   7 N        1.832    -0.206    26.299     7.599
    18   6 C        2.857     0.205    23.664     7.973
    19   7 N        1.836    -0.154    25.129     7.429
    20   6 C        2.934     0.133    25.098     8.216
    21   6 C        1.992     0.009    30.817     8.965
    22   6 C        1.987    -0.016    31.483     9.061
    23   6 C        2.062     0.011    30.675     8.946
    24   6 C        2.907     0.114    25.492     8.279
    25  35 Br       1.069    -0.060   186.649    22.028
    26   6 C        2.066    -0.077    33.040     9.285
    27   6 C        2.978     0.006    27.885     8.662
    28   6 C        1.993    -0.037    32.034     9.140
    29   6 C        2.867     0.138    24.984     8.193
    30   6 C        0.977    -0.089    38.706    10.447
    31   6 C        0.977    -0.081    38.453    10.414

 Mol. C6AA /au·bohr⁶  :      30141.711066
 Mol. C8AA /au·bohr⁸  :     898736.356154
 Mol. α(0) /au        :        278.819048


Wiberg/Mayer (AO) data.
largest (>0.10) Wiberg bond orders for each atom

 ---------------------------------------------------------------------------
     #   Z sym  total        # sym  WBO       # sym  WBO       # sym  WBO
 ---------------------------------------------------------------------------
     1   6 C    2.519 --     2 C    1.406     3 C    0.704    31 C    0.163
                            30 C    0.100
     2   6 C    3.884 --     3 C    1.430     1 C    1.406     4 N    0.989
     3   6 C    2.438 --     2 C    1.430     1 C    0.704    31 C    0.113
     4   7 N    3.464 --     5 C    1.302     2 C    0.989    29 C    0.881
     5   6 C    3.152 --     4 N    1.302     6 C    1.257    31 C    0.147
                            30 C    0.108
     6   6 C    3.945 --     7 C    2.534     5 C    1.257
     7   6 C    3.877 --     6 C    2.534     8 C    1.021
     8   6 C    3.927 --     9 O    1.654    10 N    1.185     7 C    1.021
     9   8 O    1.957 --     8 C    1.654    10 N    0.101
    10   7 N    2.844 --    11 C    1.271     8 C    1.185    13 C    0.125
                             9 O    0.101
    11   6 C    3.885 --    10 N    1.271    28 C    1.254    12 C    1.210
    12   6 C    3.662 --    13 C    1.736    11 C    1.210    28 C    0.238
                            16 C    0.110
    13   6 C    3.495 --    12 C    1.736    14 C    1.306    28 C    0.136
                            10 N    0.125
    14   6 C    3.849 --    13 C    1.306    27 C    1.190    15 N    1.097
    15   7 N    3.102 --    16 C    1.691    14 C    1.097
    16   6 C    3.832 --    15 N    1.691    17 N    1.627    19 N    0.118
                            12 C    0.110
    17   7 N    3.186 --    16 C    1.627    18 C    1.155    19 N    0.107
    18   6 C    3.955 --    19 N    1.580    17 N    1.155    27 C    1.027
    19   7 N    3.211 --    18 C    1.580    20 C    1.088    16 C    0.118
                            17 N    0.107
    20   6 C    3.953 --    26 C    1.356    21 C    1.321    19 N    1.088
                            23 C    0.101
    21   6 C    3.745 --    22 C    1.622    20 C    1.321    23 C    0.387
                            26 C    0.157    24 C    0.101
    22   6 C    3.736 --    23 C    1.632    21 C    1.622    26 C    0.376
    23   6 C    3.745 --    22 C    1.632    24 C    1.366    21 C    0.387
                            26 C    0.154    20 C    0.101
    24   6 C    3.926 --    26 C    1.414    23 C    1.366    25 Br   0.996
                            21 C    0.101
    25  35 Br   1.200 --    24 C    0.996
    26   6 C    3.582 --    24 C    1.414    20 C    1.356    22 C    0.376
                            21 C    0.157    23 C    0.154
    27   6 C    3.940 --    28 C    1.456    14 C    1.190    18 C    1.027
    28   6 C    3.369 --    27 C    1.456    11 C    1.254    12 C    0.238
                            13 C    0.136
    29   6 C    3.896 --    30 C    1.494    31 C    1.449     4 N    0.881
    30   6 C    2.466 --    29 C    1.494    31 C    0.629     5 C    0.108
                             1 C    0.100
    31   6 C    2.618 --    29 C    1.449    30 C    0.629     1 C    0.163
                             5 C    0.147     3 C    0.113
 ---------------------------------------------------------------------------
Note: The following floating-point exceptions are signalling: IEEE_UNDERFLOW_FLAG IEEE_DENORMAL
normal termination of xtb

Topologies differ in total number of bonds
Writing topology from bond orders to xtbtopo.mol

molecular dipole:
                 x           y           z       tot (Debye)
 q only:        1.026       0.514       0.206
   full:        1.710       0.245      -0.726       4.764
molecular quadrupole (traceless):
                xx          xy          yy          xz          yz          zz
 q only:       10.679       3.700       1.200       1.778       1.949     -11.879
  q+dip:       21.754       8.654      -7.250       1.526      -6.830     -14.504
   full:       19.705       4.858      -3.162      -0.160      -5.676     -16.543


           -------------------------------------------------
          | TOTAL ENERGY              -72.437290641219 Eh   |
          | GRADIENT NORM               0.458555989536 Eh/α |
          | HOMO-LUMO GAP               0.024901796842 eV   |
           -------------------------------------------------

------------------------------------------------------------------------
 * finished run on 2026/07/23 at 16:43:31.512     
------------------------------------------------------------------------
 total:
 * wall-time:     0 d,  0 h,  0 min,  0.592 sec
 *  cpu-time:     0 d,  0 h,  0 min,  0.561 sec
 * ratio c/w:     0.947 speedup
 SCF:
 * wall-time:     0 d,  0 h,  0 min,  0.578 sec
 *  cpu-time:     0 d,  0 h,  0 min,  0.542 sec
 * ratio c/w:     0.937 speedup

