      -----------------------------------------------------------      
     |                   =====================                   |     
     |                           x T B                           |     
     |                   =====================                   |     
     |                         S. Grimme                         |     
     |          Mulliken Center for Theoretical Chemistry        |     
     |                    University of Bonn                     |     
      -----------------------------------------------------------      

   * xtb version 6.6.1 (unknown) compiled by 'builduser@buildhost' on 2023-08-07

   xtb is free software: you can redistribute it and/or modify it under
   the terms of the GNU Lesser General Public License as published by
   the Free Software Foundation, either version 3 of the License, or
   (at your option) any later version.
   
   xtb is distributed in the hope that it will be useful,
   but WITHOUT ANY WARRANTY; without even the implied warranty of
   MERCHANTABILITY or FITNESS FOR A PARTICULAR PURPOSE.  See the
   GNU Lesser General Public License for more details.
   
   Cite this work as:
   * C. Bannwarth, E. Caldeweyher, S. Ehlert, A. Hansen, P. Pracht,
     J. Seibert, S. Spicher, S. Grimme, WIREs Comput. Mol. Sci., 2020, 11,
     e01493. DOI: 10.1002/wcms.1493
   
   for GFN2-xTB:
   * C. Bannwarth, S. Ehlert and S. Grimme., J. Chem. Theory Comput., 2019,
     15, 1652-1671. DOI: 10.1021/acs.jctc.8b01176
   for GFN1-xTB:
   * S. Grimme, C. Bannwarth, P. Shushkov, J. Chem. Theory Comput., 2017,
     13, 1989-2009. DOI: 10.1021/acs.jctc.7b00118
   for GFN0-xTB:
   * P. Pracht, E. Caldeweyher, S. Ehlert, S. Grimme, ChemRxiv, 2019, preprint.
     DOI: 10.26434/chemrxiv.8326202.v1
   for GFN-FF:
   * S. Spicher and S. Grimme, Angew. Chem. Int. Ed., 2020, 59, 15665-15673.
     DOI: 10.1002/anie.202004239
   
   for ALPB and GBSA implicit solvation:
   * S. Ehlert, M. Stahn, S. Spicher, S. Grimme, J. Chem. Theory Comput.,
     2021, 17, 4250-4261. DOI: 10.1021/acs.jctc.1c00471
   
   for DFT-D4:
   * E. Caldeweyher, C. Bannwarth and S. Grimme, J. Chem. Phys., 2017,
     147, 034112. DOI: 10.1063/1.4993215
   * E. Caldeweyher, S. Ehlert, A. Hansen, H. Neugebauer, S. Spicher,
     C. Bannwarth and S. Grimme, J. Chem. Phys., 2019, 150, 154122.
     DOI: 10.1063/1.5090222
   * E. Caldeweyher, J.-M. Mewes, S. Ehlert and S. Grimme, Phys. Chem. Chem. Phys.
     2020, 22, 8499-8512. DOI: 10.1039/D0CP00502A
   
   for sTDA-xTB:
   * S. Grimme and C. Bannwarth, J. Chem. Phys., 2016, 145, 054103.
     DOI: 10.1063/1.4959605
   
   in the mass-spec context:
   * V. Asgeirsson, C. Bauer and S. Grimme, Chem. Sci., 2017, 8, 4879.
     DOI: 10.1039/c7sc00601b
   * J. Koopman and S. Grimme, ACS Omega 2019, 4, 12, 15120-15133.
     DOI: 10.1021/acsomega.9b02011
   
   for metadynamics refer to:
   * S. Grimme, J. Chem. Theory Comput., 2019, 155, 2847-2862
     DOI: 10.1021/acs.jctc.9b00143
   
   for SPH calculations refer to:
   * S. Spicher and S. Grimme, J. Chem. Theory Comput., 2021, 17, 1701-1714
     DOI: 10.1021/acs.jctc.0c01306
   
   with help from (in alphabetical order)
   P. Atkinson, C. Bannwarth, F. Bohle, G. Brandenburg, E. Caldeweyher
   M. Checinski, S. Dohm, S. Ehlert, S. Ehrlich, I. Gerasimov, C. Hölzer
   A. Katbashev, J. Koopman, C. Lavigne, S. Lehtola, F. März, M. Müller,
   F. Musil, H. Neugebauer, J. Pisarek, C. Plett, P. Pracht, F. Pultar,
   J. Seibert, P. Shushkov, S. Spicher, M. Stahn, M. Steiner, T. Strunk,
   J. Stückrath, T. Rose, and J. Unsleber
   
 * started run on 2026/07/23 at 16:41:43.584     

           -------------------------------------------------
          |                Calculation Setup                |
           -------------------------------------------------

          program call               : xtb /home/selva/covalent_quantum_benchmark/data/quantum/erbB_xyz/ERBB2__CHEMBL285063__state02.xyz --gfn2 --chrg 0 --uhf 0 --iterations 300
          coordinate file            : /home/selva/covalent_quantum_benchmark/data/quantum/erbB_xyz/ERBB2__CHEMBL285063__state02.xyz
          omp threads                :                    24

   ID    Z sym.   atoms
    1    6 C      1-3, 6-9, 11, 13, 15-19, 21-23
    2    8 O      4
    3    7 N      5, 10, 12, 14
    4   35 Br     20

           -------------------------------------------------
          |                 G F N 2 - x T B                 |
           -------------------------------------------------

        Reference                      10.1021/acs.jctc.8b01176
      * Hamiltonian:
        H0-scaling (s, p, d)           1.850000    2.230000    2.230000
        zeta-weighting                 0.500000
      * Dispersion:
        s8                             2.700000
        a1                             0.520000
        a2                             5.000000
        s9                             5.000000
      * Repulsion:
        kExp                           1.500000    1.000000
        rExp                           1.000000
      * Coulomb:
        alpha                          2.000000
        third order                    shell-resolved
        anisotropic                    true
        a3                             3.000000
        a5                             4.000000
        cn-shift                       1.200000
        cn-exp                         4.000000
        max-rad                        5.000000


          ...................................................
          :                      SETUP                      :
          :.................................................:
          :  # basis functions                  98          :
          :  # atomic orbitals                  97          :
          :  # shells                           47          :
          :  # electrons                       101          :
          :  max. iterations                   300          :
          :  Hamiltonian                  GFN2-xTB          :
          :  restarted?                      false          :
          :  GBSA solvation                  false          :
          :  PC potential                    false          :
          :  electronic temp.          300.0000000     K    :
          :  accuracy                    1.0000000          :
          :  -> integral cutoff          0.2500000E+02      :
          :  -> integral neglect         0.1000000E-07      :
          :  -> SCF convergence          0.1000000E-05 Eh   :
          :  -> wf. convergence          0.1000000E-03 e    :
          :  Broyden damping             0.4000000          :
          ...................................................

 iter      E             dE          RMSdq      gap      omega  full diag
   1    -55.2521679 -0.552522E+02  0.782E+00    0.38       0.0  T
   2    -38.9408249  0.163113E+02  0.124E+01    0.04       1.0  T
   3    -42.8971104 -0.395629E+01  0.119E+01    0.08       1.0  T
   4    -50.5142749 -0.761716E+01  0.864E+00    0.35       1.0  T
   5    -53.7005642 -0.318629E+01  0.599E+00    0.40       1.0  T
   6    -55.0075474 -0.130698E+01  0.435E+00    0.15       1.0  T
   7    -54.7849988  0.222549E+00  0.472E+00    0.36       1.0  T
   8    -54.8573856 -0.723869E-01  0.387E+00    0.22       1.0  T
   9    -55.3987098 -0.541324E+00  0.352E+00    0.12       1.0  T
  10    -55.4042661 -0.555624E-02  0.296E+00    0.08       1.0  T
  11    -55.8398350 -0.435569E+00  0.238E+00    0.10       1.0  T
  12    -55.8252553  0.145797E-01  0.245E+00    0.11       1.0  T
  13    -55.4804456  0.344810E+00  0.313E+00    0.05       1.0  T
  14    -55.4602282  0.202174E-01  0.297E+00    0.01       1.0  T
  15    -55.7892923 -0.329064E+00  0.186E+00    0.02       1.0  T
  16    -55.9464151 -0.157123E+00  0.115E+00    0.02       1.0  T
  17    -55.9590715 -0.126565E-01  0.986E-01    0.05       1.0  T
  18    -55.9517412  0.733033E-02  0.101E+00    0.05       1.0  T
  19    -55.9596905 -0.794933E-02  0.844E-01    0.02       1.0  T
  20    -55.9689555 -0.926493E-02  0.677E-01    0.03       1.0  T
  21    -55.9714817 -0.252623E-02  0.606E-01    0.07       1.0  T
  22    -55.9795894 -0.810767E-02  0.387E-01    0.05       1.0  T
  23    -55.9799760 -0.386602E-03  0.356E-01    0.05       1.0  T
  24    -55.9809642 -0.988224E-03  0.308E-01    0.03       1.0  T
  25    -55.9836336 -0.266940E-02  0.208E-01    0.04       1.0  T
  26    -55.9853445 -0.171096E-02  0.112E-01    0.04       1.0  T
  27    -55.9858382 -0.493642E-03  0.581E-02    0.04       1.0  T
  28    -55.9857090  0.129185E-03  0.679E-02    0.04       1.0  T
  29    -55.9857177 -0.868829E-05  0.702E-02    0.04       1.0  T
  30    -55.9857382 -0.204661E-04  0.644E-02    0.04       1.0  T
  31    -55.9859246 -0.186430E-03  0.274E-02    0.04       1.0  T
  32    -55.9859143  0.102420E-04  0.294E-02    0.04       1.0  T
  33    -55.9859178 -0.344289E-05  0.258E-02    0.04       1.0  T
  34    -55.9859460 -0.282482E-04  0.141E-02    0.04       1.5  T
  35    -55.9859565 -0.104238E-04  0.676E-03    0.04       3.1  T
  36    -55.9859565 -0.895027E-07  0.614E-03    0.04       3.4  T
  37    -55.9859571 -0.583891E-06  0.354E-03    0.04       5.9  T
  38    -55.9859563  0.818069E-06  0.428E-03    0.04       4.9  T
  39    -55.9859574 -0.104194E-05  0.120E-03    0.04      17.3  T
  40    -55.9859573  0.721698E-07  0.146E-03    0.04      14.3  T
  41    -55.9859574 -0.108135E-06  0.757E-04    0.04      27.5  T
  42    -55.9859574 -0.209898E-07  0.384E-04    0.04      54.2  T

   *** convergence criteria satisfied after 42 iterations ***

         #    Occupation            Energy/Eh            Energy/eV
      -------------------------------------------------------------
         1        2.0000           -0.8704211             -23.6854
       ...           ...                  ...                  ...
        45        2.0000           -0.4442075             -12.0875
        46        2.0000           -0.4393144             -11.9544
        47        2.0000           -0.4350214             -11.8375
        48        1.9999           -0.4324791             -11.7684
        49        1.9395           -0.4260142             -11.5924
        50        1.5672           -0.4238367             -11.5332
        51        1.0340           -0.4224826             -11.4963 (HOMO)
        52        0.4594           -0.4210540             -11.4575 (LUMO)
        53                         -0.4013047             -10.9201
        54                         -0.3965947             -10.7919
        55                         -0.3631609              -9.8821
        56                         -0.3568807              -9.7112
       ...                                ...                  ...
        97                          0.6145907              16.7239
      -------------------------------------------------------------
                  HL-Gap            0.0014286 Eh            0.0389 eV
             Fermi-level           -0.4224045 Eh          -11.4942 eV

 SCC (total)                   0 d,  0 h,  0 min,  0.267 sec
 SCC setup                      ...        0 min,  0.000 sec (  0.151%)
 Dispersion                     ...        0 min,  0.001 sec (  0.333%)
 classical contributions        ...        0 min,  0.001 sec (  0.261%)
 integral evaluation            ...        0 min,  0.003 sec (  1.166%)
 iterations                     ...        0 min,  0.239 sec ( 89.451%)
 molecular gradient             ...        0 min,  0.020 sec (  7.671%)
 printout                       ...        0 min,  0.003 sec (  0.953%)

         :::::::::::::::::::::::::::::::::::::::::::::::::::::
         ::                     SUMMARY                     ::
         :::::::::::::::::::::::::::::::::::::::::::::::::::::
         :: total energy             -55.305523088283 Eh    ::
         :: gradient norm              0.371337591421 Eh/a0 ::
         :: HOMO-LUMO gap              0.038874554687 eV    ::
         ::.................................................::
         :: SCC energy               -55.985957413709 Eh    ::
         :: -> isotropic ES            0.045348147518 Eh    ::
         :: -> anisotropic ES          0.006611543238 Eh    ::
         :: -> anisotropic XC          0.030594895350 Eh    ::
         :: -> dispersion             -0.031519137141 Eh    ::
         :: repulsion energy           0.680756347355 Eh    ::
         :: add. restraining           0.000000000000 Eh    ::
         :: total charge              -0.000000000924 e     ::
         :::::::::::::::::::::::::::::::::::::::::::::::::::::

           -------------------------------------------------
          |                Property Printout                |
           -------------------------------------------------

    * Orbital Energies and Occupations

         #    Occupation            Energy/Eh            Energy/eV
      -------------------------------------------------------------
         1        2.0000           -0.8704211             -23.6854
       ...           ...                  ...                  ...
        39        2.0000           -0.4619499             -12.5703
        40        2.0000           -0.4608847             -12.5413
        41        2.0000           -0.4578257             -12.4581
        42        2.0000           -0.4536108             -12.3434
        43        2.0000           -0.4471196             -12.1667
        44        2.0000           -0.4462509             -12.1431
        45        2.0000           -0.4442075             -12.0875
        46        2.0000           -0.4393144             -11.9544
        47        2.0000           -0.4350214             -11.8375
        48        1.9999           -0.4324791             -11.7684
        49        1.9395           -0.4260142             -11.5924
        50        1.5672           -0.4238367             -11.5332
        51        1.0340           -0.4224826             -11.4963 (HOMO)
        52        0.4594           -0.4210540             -11.4575 (LUMO)
        53                         -0.4013047             -10.9201
        54                         -0.3965947             -10.7919
        55                         -0.3631609              -9.8821
        56                         -0.3568807              -9.7112
        57                         -0.3229080              -8.7868
        58                         -0.3156371              -8.5889
        59                         -0.3086011              -8.3975
        60                         -0.2972820              -8.0895
        61                         -0.2939110              -7.9977
        62                         -0.2849342              -7.7535
       ...                                ...                  ...
        97                          0.6145907              16.7239
      -------------------------------------------------------------
                  HL-Gap            0.0014286 Eh            0.0389 eV
             Fermi-level           -0.4224045 Eh          -11.4942 eV

     #   Z          covCN         q      C6AA      α(0)
     1   6 C        0.988    -0.038    37.118    10.237
     2   6 C        1.967     0.007    30.896     8.976
     3   6 C        2.753     0.331    21.372     7.570
     4   8 O        0.857    -0.334    20.408     6.057
     5   7 N        1.836    -0.178    25.661     7.507
     6   6 C        2.895     0.150    24.736     8.154
     7   6 C        1.988    -0.006    31.207     9.021
     8   6 C        1.992    -0.011    31.338     9.041
     9   6 C        2.950     0.126    25.245     8.241
    10   7 N        1.830    -0.148    24.991     7.408
    11   6 C        1.889     0.172    26.992     8.391
    12   7 N        1.832    -0.203    26.245     7.592
    13   6 C        2.857     0.205    23.659     7.972
    14   7 N        1.836    -0.151    25.045     7.416
    15   6 C        2.934     0.132    25.104     8.217
    16   6 C        1.992     0.009    30.821     8.966
    17   6 C        1.987    -0.018    31.516     9.066
    18   6 C        2.062     0.011    30.667     8.945
    19   6 C        2.907     0.114    25.493     8.279
    20  35 Br       1.069    -0.060   186.660    22.029
    21   6 C        2.066    -0.078    33.069     9.289
    22   6 C        2.978     0.006    27.889     8.663
    23   6 C        1.993    -0.039    32.078     9.147

 Mol. C6AA /au·bohr⁶  :      16691.692581
Note: The following floating-point exceptions are signalling: IEEE_UNDERFLOW_FLAG IEEE_DENORMAL
normal termination of xtb
 Mol. C8AA /au·bohr⁸  :     507350.500799
 Mol. α(0) /au        :        206.183098


Wiberg/Mayer (AO) data.
largest (>0.10) Wiberg bond orders for each atom

 ---------------------------------------------------------------------------
     #   Z sym  total        # sym  WBO       # sym  WBO       # sym  WBO
 ---------------------------------------------------------------------------
     1   6 C    2.933 --     2 C    2.607     4 O    0.147
     2   6 C    3.634 --     1 C    2.607     3 C    0.897
     3   6 C    3.914 --     4 O    1.699     5 N    1.206     2 C    0.897
     4   8 O    2.043 --     3 C    1.699     1 C    0.147
     5   7 N    2.884 --     6 C    1.231     3 C    1.206     8 C    0.124
     6   6 C    3.891 --    23 C    1.261     7 C    1.232     5 N    1.231
     7   6 C    3.635 --     8 C    1.722     6 C    1.232    23 C    0.208
     8   6 C    3.495 --     7 C    1.722     9 C    1.303    23 C    0.173
                             5 N    0.124
     9   6 C    3.852 --     8 C    1.303    22 C    1.190    10 N    1.097
    10   7 N    3.110 --    11 C    1.697     9 C    1.097
    11   6 C    3.813 --    10 N    1.697    12 N    1.633    14 N    0.128
    12   7 N    3.182 --    11 C    1.633    13 C    1.153    14 N    0.113
    13   6 C    3.952 --    14 N    1.582    12 N    1.153    22 C    1.027
    14   7 N    3.226 --    13 C    1.582    15 C    1.089    11 C    0.128
                            12 N    0.113
    15   6 C    3.952 --    21 C    1.355    16 C    1.320    14 N    1.089
                            18 C    0.100
    16   6 C    3.746 --    17 C    1.623    15 C    1.320    18 C    0.388
                            21 C    0.157    19 C    0.101
    17   6 C    3.745 --    18 C    1.630    16 C    1.623    21 C    0.384
    18   6 C    3.742 --    17 C    1.630    19 C    1.366    16 C    0.388
                            21 C    0.155    15 C    0.100
    19   6 C    3.927 --    21 C    1.414    18 C    1.366    20 Br   0.996
                            16 C    0.101
    20  35 Br   1.200 --    19 C    0.996
    21   6 C    3.592 --    19 C    1.414    15 C    1.355    17 C    0.384
                            16 C    0.157    18 C    0.155
    22   6 C    3.940 --    23 C    1.455     9 C    1.190    13 C    1.027
    23   6 C    3.393 --    22 C    1.455     6 C    1.261     7 C    0.208
                             8 C    0.173
 ---------------------------------------------------------------------------

Topologies differ in total number of bonds
Writing topology from bond orders to xtbtopo.mol

molecular dipole:
                 x           y           z       tot (Debye)
 q only:        0.895       1.037       0.893
   full:        0.654       1.672       0.768       4.964
molecular quadrupole (traceless):
                xx          xy          yy          xz          yz          zz
 q only:       -2.328      -7.590       3.925     -10.180      -4.619      -1.597
  q+dip:       -0.761      -7.596      11.119     -16.608       0.210     -10.358
   full:       -2.351      -8.557      11.598     -18.988      -4.219      -9.247


           -------------------------------------------------
          | TOTAL ENERGY              -55.305523088283 Eh   |
          | GRADIENT NORM               0.371337591421 Eh/α |
          | HOMO-LUMO GAP               0.038874554687 eV   |
           -------------------------------------------------

------------------------------------------------------------------------
 * finished run on 2026/07/23 at 16:41:43.868     
------------------------------------------------------------------------
 total:
 * wall-time:     0 d,  0 h,  0 min,  0.284 sec
 *  cpu-time:     0 d,  0 h,  0 min,  0.285 sec
 * ratio c/w:     1.004 speedup
 SCF:
 * wall-time:     0 d,  0 h,  0 min,  0.267 sec
 *  cpu-time:     0 d,  0 h,  0 min,  0.266 sec
 * ratio c/w:     0.995 speedup

