      -----------------------------------------------------------      
     |                   =====================                   |     
     |                           x T B                           |     
     |                   =====================                   |     
     |                         S. Grimme                         |     
     |          Mulliken Center for Theoretical Chemistry        |     
     |                    University of Bonn                     |     
      -----------------------------------------------------------      

   * xtb version 6.6.1 (unknown) compiled by 'builduser@buildhost' on 2023-08-07

   xtb is free software: you can redistribute it and/or modify it under
   the terms of the GNU Lesser General Public License as published by
   the Free Software Foundation, either version 3 of the License, or
   (at your option) any later version.
   
   xtb is distributed in the hope that it will be useful,
   but WITHOUT ANY WARRANTY; without even the implied warranty of
   MERCHANTABILITY or FITNESS FOR A PARTICULAR PURPOSE.  See the
   GNU Lesser General Public License for more details.
   
   Cite this work as:
   * C. Bannwarth, E. Caldeweyher, S. Ehlert, A. Hansen, P. Pracht,
     J. Seibert, S. Spicher, S. Grimme, WIREs Comput. Mol. Sci., 2020, 11,
     e01493. DOI: 10.1002/wcms.1493
   
   for GFN2-xTB:
   * C. Bannwarth, S. Ehlert and S. Grimme., J. Chem. Theory Comput., 2019,
     15, 1652-1671. DOI: 10.1021/acs.jctc.8b01176
   for GFN1-xTB:
   * S. Grimme, C. Bannwarth, P. Shushkov, J. Chem. Theory Comput., 2017,
     13, 1989-2009. DOI: 10.1021/acs.jctc.7b00118
   for GFN0-xTB:
   * P. Pracht, E. Caldeweyher, S. Ehlert, S. Grimme, ChemRxiv, 2019, preprint.
     DOI: 10.26434/chemrxiv.8326202.v1
   for GFN-FF:
   * S. Spicher and S. Grimme, Angew. Chem. Int. Ed., 2020, 59, 15665-15673.
     DOI: 10.1002/anie.202004239
   
   for ALPB and GBSA implicit solvation:
   * S. Ehlert, M. Stahn, S. Spicher, S. Grimme, J. Chem. Theory Comput.,
     2021, 17, 4250-4261. DOI: 10.1021/acs.jctc.1c00471
   
   for DFT-D4:
   * E. Caldeweyher, C. Bannwarth and S. Grimme, J. Chem. Phys., 2017,
     147, 034112. DOI: 10.1063/1.4993215
   * E. Caldeweyher, S. Ehlert, A. Hansen, H. Neugebauer, S. Spicher,
     C. Bannwarth and S. Grimme, J. Chem. Phys., 2019, 150, 154122.
     DOI: 10.1063/1.5090222
   * E. Caldeweyher, J.-M. Mewes, S. Ehlert and S. Grimme, Phys. Chem. Chem. Phys.
     2020, 22, 8499-8512. DOI: 10.1039/D0CP00502A
   
   for sTDA-xTB:
   * S. Grimme and C. Bannwarth, J. Chem. Phys., 2016, 145, 054103.
     DOI: 10.1063/1.4959605
   
   in the mass-spec context:
   * V. Asgeirsson, C. Bauer and S. Grimme, Chem. Sci., 2017, 8, 4879.
     DOI: 10.1039/c7sc00601b
   * J. Koopman and S. Grimme, ACS Omega 2019, 4, 12, 15120-15133.
     DOI: 10.1021/acsomega.9b02011
   
   for metadynamics refer to:
   * S. Grimme, J. Chem. Theory Comput., 2019, 155, 2847-2862
     DOI: 10.1021/acs.jctc.9b00143
   
   for SPH calculations refer to:
   * S. Spicher and S. Grimme, J. Chem. Theory Comput., 2021, 17, 1701-1714
     DOI: 10.1021/acs.jctc.0c01306
   
   with help from (in alphabetical order)
   P. Atkinson, C. Bannwarth, F. Bohle, G. Brandenburg, E. Caldeweyher
   M. Checinski, S. Dohm, S. Ehlert, S. Ehrlich, I. Gerasimov, C. Hölzer
   A. Katbashev, J. Koopman, C. Lavigne, S. Lehtola, F. März, M. Müller,
   F. Musil, H. Neugebauer, J. Pisarek, C. Plett, P. Pracht, F. Pultar,
   J. Seibert, P. Shushkov, S. Spicher, M. Stahn, M. Steiner, T. Strunk,
   J. Stückrath, T. Rose, and J. Unsleber
   
 * started run on 2026/07/23 at 16:42:22.434     

           -------------------------------------------------
          |                Calculation Setup                |
           -------------------------------------------------

          program call               : xtb /home/selva/covalent_quantum_benchmark/data/quantum/erbB_xyz/ERBB2__CHEMBL361343__state01.xyz --gfn2 --chrg 0 --uhf 0 --iterations 300
          coordinate file            : /home/selva/covalent_quantum_benchmark/data/quantum/erbB_xyz/ERBB2__CHEMBL361343__state01.xyz
          omp threads                :                    24

   ID    Z sym.   atoms
    1    6 C      1, 2, 4-6, 8-10, 12, 14-17, 19-26, 28-31, 33, 35-37, 39-41
    2    8 O      3, 18, 34, 42
    3    7 N      7, 11, 13, 32, 38
    4   17 Cl     27

           -------------------------------------------------
          |                 G F N 2 - x T B                 |
           -------------------------------------------------

        Reference                      10.1021/acs.jctc.8b01176
      * Hamiltonian:
        H0-scaling (s, p, d)           1.850000    2.230000    2.230000
        zeta-weighting                 0.500000
      * Dispersion:
        s8                             2.700000
        a1                             0.520000
        a2                             5.000000
        s9                             5.000000
      * Repulsion:
        kExp                           1.500000    1.000000
        rExp                           1.000000
      * Coulomb:
        alpha                          2.000000
        third order                    shell-resolved
        anisotropic                    true
        a3                             3.000000
        a5                             4.000000
        cn-shift                       1.200000
        cn-exp                         4.000000
        max-rad                        5.000000


          ...................................................
          :                      SETUP                      :
          :.................................................:
          :  # basis functions                 174          :
          :  # atomic orbitals                 173          :
          :  # shells                           85          :
          :  # electrons                       184          :
          :  max. iterations                   300          :
          :  Hamiltonian                  GFN2-xTB          :
          :  restarted?                      false          :
          :  GBSA solvation                  false          :
          :  PC potential                    false          :
          :  electronic temp.          300.0000000     K    :
          :  accuracy                    1.0000000          :
          :  -> integral cutoff          0.2500000E+02      :
          :  -> integral neglect         0.1000000E-07      :
          :  -> SCF convergence          0.1000000E-05 Eh   :
          :  -> wf. convergence          0.1000000E-03 e    :
          :  Broyden damping             0.4000000          :
          ...................................................

 iter      E             dE          RMSdq      gap      omega  full diag
   1   -101.7263357 -0.101726E+03  0.862E+00    0.08       0.0  T
   2    -67.5587536  0.341676E+02  0.129E+01    0.14       1.0  T
   3    -23.0937305  0.444650E+02  0.163E+01    0.17       1.0  T
   4    -64.8631600 -0.417694E+02  0.123E+01    0.03       1.0  T
   5    -82.1333678 -0.172702E+02  0.997E+00    0.19       1.0  T
   6    -90.3399849 -0.820662E+01  0.879E+00    0.19       1.0  T
   7   -101.0483541 -0.107084E+02  0.572E+00    0.25       1.0  T
   8   -100.1272412  0.921113E+00  0.568E+00    0.16       1.0  T
   9   -101.2670608 -0.113982E+01  0.482E+00    0.01       1.0  T
  10    -99.6939318  0.157313E+01  0.524E+00    0.17       1.0  T
  11   -101.4697547 -0.177582E+01  0.412E+00    0.09       1.0  T
  12   -101.6883899 -0.218635E+00  0.368E+00    0.22       1.0  T
  13   -101.7295961 -0.412063E-01  0.370E+00    0.08       1.0  T
  14   -101.6463695  0.832267E-01  0.352E+00    0.29       1.0  T
  15   -102.1459350 -0.499566E+00  0.276E+00    0.10       1.0  T
  16   -101.7488856  0.397049E+00  0.358E+00    0.08       1.0  T
  17   -102.3534845 -0.604599E+00  0.215E+00    0.10       1.0  T
  18   -102.5706305 -0.217146E+00  0.191E+00    0.04       1.0  T
  19   -102.3808555  0.189775E+00  0.259E+00    0.05       1.0  T
  20   -102.3401242  0.407313E-01  0.219E+00    0.05       1.0  T
  21   -102.5615949 -0.221471E+00  0.198E+00    0.02       1.0  T
  22   -102.5084683  0.531266E-01  0.196E+00    0.05       1.0  T
  23   -102.3220234  0.186445E+00  0.249E+00    0.04       1.0  T
  24   -102.6337438 -0.311720E+00  0.218E+00    0.05       1.0  T
  25   -102.4829529  0.150791E+00  0.222E+00    0.03       1.0  T
  26   -102.2956459  0.187307E+00  0.233E+00    0.00       1.0  T
  27   -102.7022873 -0.406641E+00  0.155E+00    0.01       1.0  T
  28   -102.4463604  0.255927E+00  0.212E+00    0.01       1.0  T
  29   -102.5067187 -0.603583E-01  0.192E+00    0.00       1.0  T
  30   -102.4502915  0.564272E-01  0.199E+00    0.01       1.0  T
  31   -102.7663514 -0.316060E+00  0.123E+00    0.01       1.0  T
  32   -102.9119349 -0.145583E+00  0.801E-01    0.02       1.0  T
  33   -102.9231259 -0.111911E-01  0.725E-01    0.02       1.0  T
  34   -102.9293299 -0.620395E-02  0.689E-01    0.02       1.0  T
  35   -102.9321189 -0.278898E-02  0.659E-01    0.02       1.0  T
  36   -102.9492146 -0.170958E-01  0.505E-01    0.02       1.0  T
  37   -102.9529272 -0.371261E-02  0.454E-01    0.02       1.0  T
  38   -102.9505816  0.234564E-02  0.473E-01    0.02       1.0  T
  39   -102.9425605  0.802111E-02  0.531E-01    0.02       1.0  T
  40   -102.9513879 -0.882738E-02  0.402E-01    0.02       1.0  T
  41   -102.9504542  0.933644E-03  0.422E-01    0.02       1.0  T
  42   -102.9484112  0.204300E-02  0.436E-01    0.02       1.0  T
  43   -102.9500179 -0.160669E-02  0.408E-01    0.02       1.0  T
  44   -102.9508817 -0.863750E-03  0.379E-01    0.02       1.0  T
  45   -102.9522538 -0.137208E-02  0.366E-01    0.02       1.0  T
  46   -102.9517113  0.542441E-03  0.357E-01    0.02       1.0  T
  47   -102.9533051 -0.159378E-02  0.335E-01    0.02       1.0  T
  48   -102.9543742 -0.106914E-02  0.313E-01    0.02       1.0  T
  49   -102.9551869 -0.812661E-03  0.283E-01    0.02       1.0  T
  50   -102.9560896 -0.902665E-03  0.258E-01    0.02       1.0  T
  51   -102.9560370  0.525611E-04  0.247E-01    0.02       1.0  T
  52   -102.9564130 -0.376036E-03  0.229E-01    0.02       1.0  T
  53   -102.9566329 -0.219835E-03  0.218E-01    0.02       1.0  T
  54   -102.9568469 -0.213996E-03  0.203E-01    0.02       1.0  T
  55   -102.9570326 -0.185692E-03  0.181E-01    0.02       1.0  T
  56   -102.9575534 -0.520806E-03  0.158E-01    0.02       1.0  T
  57   -102.9578442 -0.290884E-03  0.123E-01    0.02       1.0  T
  58   -102.9582469 -0.402693E-03  0.815E-02    0.02       1.0  T
  59   -102.9584380 -0.191091E-03  0.504E-02    0.02       1.0  T
  60   -102.9585205 -0.825160E-04  0.277E-02    0.02       1.0  T
  61   -102.9585461 -0.255987E-04  0.190E-02    0.02       1.0  T
  62   -102.9585485 -0.232119E-05  0.138E-02    0.02       1.1  T
  63   -102.9585539 -0.544585E-05  0.978E-03    0.02       1.6  T
  64   -102.9585556 -0.168178E-05  0.732E-03    0.02       2.1  T
  65   -102.9585574 -0.185163E-05  0.250E-03    0.02       6.2  T
  66   -102.9585578 -0.366052E-06  0.165E-03    0.02       9.3  T
  67   -102.9585579 -0.992580E-07  0.141E-03    0.02      10.9  T
  68   -102.9585579 -0.264589E-07  0.137E-03    0.02      11.3  T
  69   -102.9585579  0.159725E-07  0.118E-03    0.02      13.1  T
  70   -102.9585579 -0.272961E-07  0.816E-04    0.02      18.9  T
  71   -102.9585580 -0.437000E-07  0.323E-04    0.02      47.8  T

   *** convergence criteria satisfied after 71 iterations ***

         #    Occupation            Energy/Eh            Energy/eV
      -------------------------------------------------------------
         1        2.0000           -1.0885440             -29.6208
       ...           ...                  ...                  ...
        86        2.0000           -0.4319457             -11.7538
        87        1.9985           -0.4263378             -11.6012
        88        1.9959           -0.4253925             -11.5755
        89        1.8414           -0.4218454             -11.4790
        90        1.7601           -0.4214097             -11.4671
        91        1.4419           -0.4204180             -11.4402
        92        1.3379           -0.4201845             -11.4338 (HOMO)
        93        0.9774           -0.4194732             -11.4144 (LUMO)
        94        0.6204           -0.4187568             -11.3950
        95        0.0261           -0.4154051             -11.3037
        96        0.0004           -0.4113844             -11.1943
        97        0.0000           -0.4067451             -11.0681
       ...           ...                  ...                  ...
       173                          1.0464908              28.4765
      -------------------------------------------------------------
                  HL-Gap            0.0007113 Eh            0.0194 eV
             Fermi-level           -0.4195161 Eh          -11.4156 eV

 SCC (total)                   0 d,  0 h,  0 min,  1.335 sec
 SCC setup                      ...        0 min,  0.000 sec (  0.035%)
 Dispersion                     ...        0 min,  0.004 sec (  0.324%)
 classical contributions        ...        0 min,  0.001 sec (  0.064%)
 integral evaluation            ...        0 min,  0.010 sec (  0.757%)
 iterations                     ...        0 min,  1.282 sec ( 96.008%)
 molecular gradient             ...        0 min,  0.034 sec (  2.515%)
 printout                       ...        0 min,  0.004 sec (  0.293%)

         :::::::::::::::::::::::::::::::::::::::::::::::::::::
         ::                     SUMMARY                     ::
         :::::::::::::::::::::::::::::::::::::::::::::::::::::
         :: total energy            -101.843450861756 Eh    ::
         :: gradient norm              0.614462922514 Eh/a0 ::
         :: HOMO-LUMO gap              0.019354394383 eV    ::
         ::.................................................::
         :: SCC energy              -102.958557990012 Eh    ::
         :: -> isotropic ES            0.050433712565 Eh    ::
         :: -> anisotropic ES          0.003221184606 Eh    ::
         :: -> anisotropic XC          0.061011067909 Eh    ::
         :: -> dispersion             -0.061609702774 Eh    ::
         :: repulsion energy           1.115688163659 Eh    ::
         :: add. restraining           0.000000000000 Eh    ::
         :: total charge               0.000000000006 e     ::
         :::::::::::::::::::::::::::::::::::::::::::::::::::::

           -------------------------------------------------
          |                Property Printout                |
           -------------------------------------------------

    * Orbital Energies and Occupations

         #    Occupation            Energy/Eh            Energy/eV
      -------------------------------------------------------------
         1        2.0000           -1.0885440             -29.6208
       ...           ...                  ...                  ...
        80        2.0000           -0.4472600             -12.1706
        81        2.0000           -0.4448533             -12.1051
        82        2.0000           -0.4414090             -12.0113
        83        2.0000           -0.4392218             -11.9518
        84        2.0000           -0.4337689             -11.8035
        85        2.0000           -0.4337222             -11.8022
        86        2.0000           -0.4319457             -11.7538
        87        1.9985           -0.4263378             -11.6012
        88        1.9959           -0.4253925             -11.5755
        89        1.8414           -0.4218454             -11.4790
        90        1.7601           -0.4214097             -11.4671
        91        1.4419           -0.4204180             -11.4402
        92        1.3379           -0.4201845             -11.4338 (HOMO)
        93        0.9774           -0.4194732             -11.4144 (LUMO)
        94        0.6204           -0.4187568             -11.3950
        95        0.0261           -0.4154051             -11.3037
        96        0.0004           -0.4113844             -11.1943
        97        0.0000           -0.4067451             -11.0681
        98                         -0.3874325             -10.5426
        99                         -0.3842963             -10.4572
       100                         -0.3709350             -10.0937
       101                         -0.3690198             -10.0415
       102                         -0.3686024             -10.0302
       103                         -0.3661948              -9.9647
       ...                                ...                  ...
       173                          1.0464908              28.4765
      -------------------------------------------------------------
                  HL-Gap            0.0007113 Eh            0.0194 eV
             Fermi-level           -0.4195161 Eh          -11.4156 eV

     #   Z          covCN         q      C6AA      α(0)
     1   6 C        0.976    -0.098    38.997    10.486
     2   6 C        1.865     0.107    28.485     8.621
     3   8 O        1.702    -0.121    16.140     5.424
     4   6 C        2.885     0.162    24.507     8.116
     5   6 C        1.987    -0.071    32.968     9.273
     6   6 C        2.912     0.118    25.414     8.266
     7   7 N        1.832    -0.127    24.538     7.341
     8   6 C        1.938     0.088    28.882     8.679
     9   6 C        2.943     0.015    27.673     8.628
    10   6 C        1.913     0.120    28.146     8.568
    11   7 N        0.911    -0.198    25.300     7.275
    12   6 C        2.900     0.131    25.139     8.221
    13   7 N        1.837    -0.102    23.995     7.259
    14   6 C        2.917     0.123    25.293     8.247
    15   6 C        1.992    -0.046    32.276     9.175
    16   6 C        1.986    -0.028    31.796     9.106
    17   6 C        2.881     0.153    24.674     8.143
    18   8 O        1.703    -0.126    16.214     5.436
    19   6 C        1.850     0.024    30.527     8.925
    20   6 C        2.959     0.075    26.329     8.416
    21   6 C        1.989    -0.013    31.398     9.049
    22   6 C        1.986     0.004    30.952     8.985
    23   6 C        1.987     0.028    30.334     8.894
    24   6 C        1.985     0.003    30.985     8.989
    25   6 C        1.990    -0.016    31.478     9.061
    26   6 C        2.879     0.091    25.967     8.354
    27  17 Cl       0.959    -0.076   101.530    15.415
    28   6 C        2.033    -0.081    33.221     9.309
    29   6 C        2.972     0.014    27.695     8.632
    30   6 C        1.995    -0.042    32.176     9.161
    31   6 C        2.917     0.119    25.377     8.261
    32   7 N        1.832    -0.166    25.386     7.466
    33   6 C        2.774     0.301    21.898     7.664
    34   8 O        0.856    -0.411    21.894     6.273
    35   6 C        1.966     0.025    30.417     8.906
    36   6 C        1.962     0.058    29.592     8.785
    37   6 C        1.907    -0.010    31.370     9.046
    38   7 N        2.719     0.147    18.765     6.434
    39   6 C        0.934    -0.066    37.637    10.280
    40   6 C        1.896    -0.012    31.439     9.056
    41   6 C        1.822     0.161    27.280     8.439
    42   8 O        0.849    -0.257    19.023     5.847

 Mol. C6AA /au·bohr⁶  :      50265.153482
 Mol. C8AA /au·bohr⁸  :    1404684.991645
 Mol. α(0) /au        :        355.911797


Wiberg/Mayer (AO) data.
largest (>0.10) Wiberg bond orders for each atom

 ---------------------------------------------------------------------------
     #   Z sym  total        # sym  WBO       # sym  WBO       # sym  WBO
 ---------------------------------------------------------------------------
     1   6 C    2.433 --     2 C    2.180     3 O    0.110
     2   6 C    3.377 --     1 C    2.180     3 O    1.103
     3   8 O    2.339 --     2 C    1.103     4 C    1.021     1 C    0.110
     4   6 C    3.896 --     5 C    1.519    31 C    1.111     3 O    1.021
     5   6 C    3.670 --     4 C    1.519     6 C    1.352    30 C    0.474
     6   6 C    3.883 --     5 C    1.352     7 N    1.191    29 C    1.130
     7   7 N    3.175 --     8 C    1.632     6 C    1.191
     8   6 C    3.793 --     7 N    1.632     9 C    1.575    13 N    0.198
     9   6 C    3.877 --     8 C    1.575    10 C    1.105    12 C    0.969
    10   6 C    3.945 --    11 N    2.776     9 C    1.105
    11   7 N    2.976 --    10 C    2.776
    12   6 C    3.940 --    13 N    1.664    29 C    1.056     9 C    0.969
    13   7 N    3.323 --    12 C    1.664    14 C    1.110     8 C    0.198
    14   6 C    3.934 --    28 C    1.332    15 C    1.286    13 N    1.110
    15   6 C    3.683 --    16 C    1.723    14 C    1.286    28 C    0.335
                            26 C    0.105
    16   6 C    3.448 --    15 C    1.723    17 C    1.346    28 C    0.139
    17   6 C    3.863 --    16 C    1.346    26 C    1.246    18 O    1.052
    18   8 O    2.506 --    19 C    1.296    17 C    1.052
    19   6 C    2.845 --    18 O    1.296    20 C    1.083
    20   6 C    3.904 --    21 C    1.311    25 C    1.307    19 C    1.083
                            23 C    0.108
    21   6 C    3.493 --    22 C    1.651    20 C    1.311    24 C    0.203
                            23 C    0.190
    22   6 C    3.579 --    21 C    1.651    23 C    1.604    25 C    0.214
    23   6 C    3.758 --    22 C    1.604    24 C    1.582    21 C    0.190
                            25 C    0.185    20 C    0.108
    24   6 C    3.583 --    25 C    1.640    23 C    1.582    21 C    0.203
    25   6 C    3.483 --    24 C    1.640    20 C    1.307    22 C    0.214
                            23 C    0.185
    26   6 C    3.891 --    28 C    1.438    17 C    1.246    27 Cl   1.005
                            15 C    0.105
    27  17 Cl   1.186 --    26 C    1.005
    28   6 C    3.422 --    26 C    1.438    14 C    1.332    15 C    0.335
                            16 C    0.139
    29   6 C    3.933 --    30 C    1.497     6 C    1.130    12 C    1.056
    30   6 C    3.736 --    29 C    1.497    31 C    1.392     5 C    0.474
    31   6 C    3.906 --    30 C    1.392    32 N    1.199     4 C    1.111
    32   7 N    3.130 --    33 C    1.442    31 C    1.199    34 O    0.183
    33   6 C    3.938 --    32 N    1.442    34 O    1.391    35 C    1.017
    34   8 O    1.879 --    33 C    1.391    32 N    0.183
    35   6 C    3.760 --    36 C    2.334    33 C    1.017    37 C    0.139
    36   6 C    3.853 --    35 C    2.334    37 C    1.282
    37   6 C    2.961 --    36 C    1.282    38 N    1.038    40 C    0.226
                            39 C    0.141    35 C    0.139
    38   7 N    3.659 --    39 C    1.472    37 C    1.038    40 C    1.010
    39   6 C    2.210 --    38 N    1.472    40 C    0.300    37 C    0.141
                            41 C    0.115    42 O    0.106
    40   6 C    3.205 --    41 C    1.468    38 N    1.010    39 C    0.300
                            37 C    0.226    42 O    0.135
    41   6 C    3.570 --    42 O    1.879    40 C    1.468    39 C    0.115
    42   8 O    2.222 --    41 C    1.879    40 C    0.135    39 C    0.106
 ---------------------------------------------------------------------------

Topologies differ in total number of bonds
Writing topology from bond orders to xtbtopo.mol

molecular dipole:
                 x           y           z       tot (Debye)
 q only:       -2.369       1.223      -0.181
   full:       -2.456       0.913       1.123       7.246
molecular quadrupole (traceless):
                xx          xy          yy          xz          yz          zz
 q only:      -17.834       2.627       8.869     -13.815       1.876       8.965
  q+dip:      -28.533       2.190      13.325     -11.628      10.330      15.208
   full:      -30.012       4.087      13.903      -5.735      11.124      16.109


           -------------------------------------------------
          | TOTAL ENERGY             -101.843450861756 Eh   |
          | GRADIENT NORM               0.614462922514 Eh/α |
          | HOMO-LUMO GAP               0.019354394383 eV   |
           -------------------------------------------------

------------------------------------------------------------------------
 * finished run on 2026/07/23 at 16:42:23.809     
------------------------------------------------------------------------
 total:
 * wall-time:     0 d,  0 h,  0 min,  1.374 sec
 *  cpu-time:     0 d,  0 h,  0 min,  1.340 sec
 * ratio c/w:     0.975 speedup
Note: The following floating-point exceptions are signalling: IEEE_UNDERFLOW_FLAG IEEE_DENORMAL
normal termination of xtb
 SCF:
 * wall-time:     0 d,  0 h,  0 min,  1.336 sec
 *  cpu-time:     0 d,  0 h,  0 min,  1.310 sec
 * ratio c/w:     0.981 speedup

