      -----------------------------------------------------------      
     |                   =====================                   |     
     |                           x T B                           |     
     |                   =====================                   |     
     |                         S. Grimme                         |     
     |          Mulliken Center for Theoretical Chemistry        |     
     |                    University of Bonn                     |     
      -----------------------------------------------------------      

   * xtb version 6.6.1 (unknown) compiled by 'builduser@buildhost' on 2023-08-07

   xtb is free software: you can redistribute it and/or modify it under
   the terms of the GNU Lesser General Public License as published by
   the Free Software Foundation, either version 3 of the License, or
   (at your option) any later version.
   
   xtb is distributed in the hope that it will be useful,
   but WITHOUT ANY WARRANTY; without even the implied warranty of
   MERCHANTABILITY or FITNESS FOR A PARTICULAR PURPOSE.  See the
   GNU Lesser General Public License for more details.
   
   Cite this work as:
   * C. Bannwarth, E. Caldeweyher, S. Ehlert, A. Hansen, P. Pracht,
     J. Seibert, S. Spicher, S. Grimme, WIREs Comput. Mol. Sci., 2020, 11,
     e01493. DOI: 10.1002/wcms.1493
   
   for GFN2-xTB:
   * C. Bannwarth, S. Ehlert and S. Grimme., J. Chem. Theory Comput., 2019,
     15, 1652-1671. DOI: 10.1021/acs.jctc.8b01176
   for GFN1-xTB:
   * S. Grimme, C. Bannwarth, P. Shushkov, J. Chem. Theory Comput., 2017,
     13, 1989-2009. DOI: 10.1021/acs.jctc.7b00118
   for GFN0-xTB:
   * P. Pracht, E. Caldeweyher, S. Ehlert, S. Grimme, ChemRxiv, 2019, preprint.
     DOI: 10.26434/chemrxiv.8326202.v1
   for GFN-FF:
   * S. Spicher and S. Grimme, Angew. Chem. Int. Ed., 2020, 59, 15665-15673.
     DOI: 10.1002/anie.202004239
   
   for ALPB and GBSA implicit solvation:
   * S. Ehlert, M. Stahn, S. Spicher, S. Grimme, J. Chem. Theory Comput.,
     2021, 17, 4250-4261. DOI: 10.1021/acs.jctc.1c00471
   
   for DFT-D4:
   * E. Caldeweyher, C. Bannwarth and S. Grimme, J. Chem. Phys., 2017,
     147, 034112. DOI: 10.1063/1.4993215
   * E. Caldeweyher, S. Ehlert, A. Hansen, H. Neugebauer, S. Spicher,
     C. Bannwarth and S. Grimme, J. Chem. Phys., 2019, 150, 154122.
     DOI: 10.1063/1.5090222
   * E. Caldeweyher, J.-M. Mewes, S. Ehlert and S. Grimme, Phys. Chem. Chem. Phys.
     2020, 22, 8499-8512. DOI: 10.1039/D0CP00502A
   
   for sTDA-xTB:
   * S. Grimme and C. Bannwarth, J. Chem. Phys., 2016, 145, 054103.
     DOI: 10.1063/1.4959605
   
   in the mass-spec context:
   * V. Asgeirsson, C. Bauer and S. Grimme, Chem. Sci., 2017, 8, 4879.
     DOI: 10.1039/c7sc00601b
   * J. Koopman and S. Grimme, ACS Omega 2019, 4, 12, 15120-15133.
     DOI: 10.1021/acsomega.9b02011
   
   for metadynamics refer to:
   * S. Grimme, J. Chem. Theory Comput., 2019, 155, 2847-2862
     DOI: 10.1021/acs.jctc.9b00143
   
   for SPH calculations refer to:
   * S. Spicher and S. Grimme, J. Chem. Theory Comput., 2021, 17, 1701-1714
     DOI: 10.1021/acs.jctc.0c01306
   
   with help from (in alphabetical order)
   P. Atkinson, C. Bannwarth, F. Bohle, G. Brandenburg, E. Caldeweyher
   M. Checinski, S. Dohm, S. Ehlert, S. Ehrlich, I. Gerasimov, C. Hölzer
   A. Katbashev, J. Koopman, C. Lavigne, S. Lehtola, F. März, M. Müller,
   F. Musil, H. Neugebauer, J. Pisarek, C. Plett, P. Pracht, F. Pultar,
   J. Seibert, P. Shushkov, S. Spicher, M. Stahn, M. Steiner, T. Strunk,
   J. Stückrath, T. Rose, and J. Unsleber
   
 * started run on 2026/07/23 at 16:41:33.793     

           -------------------------------------------------
          |                Calculation Setup                |
           -------------------------------------------------

          program call               : xtb /home/selva/covalent_quantum_benchmark/data/quantum/erbB_xyz/ERBB2__CHEMBL204085__state02.xyz --gfn2 --chrg 0 --uhf 0 --iterations 300
          coordinate file            : /home/selva/covalent_quantum_benchmark/data/quantum/erbB_xyz/ERBB2__CHEMBL204085__state02.xyz
          omp threads                :                    24

   ID    Z sym.   atoms
    1    8 O      1, 10
    2    6 C      2-6, 8, 9, 11, 12, 14-17, 19, 21, 23-26, 28, 30-32
    3    7 N      7, 13, 18, 20, 22
    4    9 F      27
    5   17 Cl     29

           -------------------------------------------------
          |                 G F N 2 - x T B                 |
           -------------------------------------------------

        Reference                      10.1021/acs.jctc.8b01176
      * Hamiltonian:
        H0-scaling (s, p, d)           1.850000    2.230000    2.230000
        zeta-weighting                 0.500000
      * Dispersion:
        s8                             2.700000
        a1                             0.520000
        a2                             5.000000
        s9                             5.000000
      * Repulsion:
        kExp                           1.500000    1.000000
        rExp                           1.000000
      * Coulomb:
        alpha                          2.000000
        third order                    shell-resolved
        anisotropic                    true
        a3                             3.000000
        a5                             4.000000
        cn-shift                       1.200000
        cn-exp                         4.000000
        max-rad                        5.000000


          ...................................................
          :                      SETUP                      :
          :.................................................:
          :  # basis functions                 134          :
          :  # atomic orbitals                 133          :
          :  # shells                           65          :
          :  # electrons                       143          :
          :  max. iterations                   300          :
          :  Hamiltonian                  GFN2-xTB          :
          :  restarted?                      false          :
          :  GBSA solvation                  false          :
          :  PC potential                    false          :
          :  electronic temp.          300.0000000     K    :
          :  accuracy                    1.0000000          :
          :  -> integral cutoff          0.2500000E+02      :
          :  -> integral neglect         0.1000000E-07      :
          :  -> SCF convergence          0.1000000E-05 Eh   :
          :  -> wf. convergence          0.1000000E-03 e    :
          :  Broyden damping             0.4000000          :
          ...................................................

 iter      E             dE          RMSdq      gap      omega  full diag
   1    -79.8862597 -0.798863E+02  0.829E+00    0.02       0.0  T
   2    -69.7439866  0.101423E+02  0.104E+01    0.28       1.0  T
   3    -53.5132225  0.162308E+02  0.126E+01    0.14       1.0  T
   4    -62.3738600 -0.886064E+01  0.106E+01    0.07       1.0  T
   5    -76.8593331 -0.144855E+02  0.650E+00    0.08       1.0  T
   6    -78.4405708 -0.158124E+01  0.541E+00    0.05       1.0  T
   7    -79.6334166 -0.119285E+01  0.456E+00    0.09       1.0  T
   8    -79.6459686 -0.125520E-01  0.373E+00    0.06       1.0  T
   9    -79.5494679  0.965007E-01  0.391E+00    0.03       1.0  T
  10    -80.1415258 -0.592058E+00  0.263E+00    0.06       1.0  T
  11    -80.1697327 -0.282069E-01  0.292E+00    0.03       1.0  T
  12    -80.2652851 -0.955524E-01  0.267E+00    0.03       1.0  T
  13    -80.6153326 -0.350048E+00  0.164E+00    0.04       1.0  T
  14    -80.3406361  0.274696E+00  0.225E+00    0.01       1.0  T
  15    -80.1986246  0.142012E+00  0.232E+00    0.01       1.0  T
  16    -80.4209968 -0.222372E+00  0.215E+00    0.08       1.0  T
  17    -80.5397054 -0.118709E+00  0.169E+00    0.02       1.0  T
  18    -80.5423156 -0.261023E-02  0.176E+00    0.06       1.0  T
  19    -80.5592020 -0.168864E-01  0.165E+00    0.04       1.0  T
  20    -80.5717016 -0.124996E-01  0.161E+00    0.04       1.0  T
  21    -80.5962636 -0.245620E-01  0.146E+00    0.03       1.0  T
  22    -80.5734487  0.228149E-01  0.130E+00    0.03       1.0  T
  23    -80.7060040 -0.132555E+00  0.596E-01    0.02       1.0  T
  24    -80.7308633 -0.248593E-01  0.310E-01    0.02       1.0  T
  25    -80.7065628  0.243005E-01  0.620E-01    0.01       1.0  T
  26    -80.7133068 -0.674401E-02  0.551E-01    0.01       1.0  T
  27    -80.7158767 -0.256992E-02  0.514E-01    0.01       1.0  T
  28    -80.7106977  0.517901E-02  0.458E-01    0.02       1.0  T
  29    -80.7207567 -0.100590E-01  0.362E-01    0.02       1.0  T
  30    -80.7327127 -0.119560E-01  0.176E-01    0.02       1.0  T
  31    -80.7343225 -0.160975E-02  0.125E-01    0.02       1.0  T
  32    -80.7354345 -0.111206E-02  0.447E-02    0.02       1.0  T
  33    -80.7352848  0.149709E-03  0.511E-02    0.02       1.0  T
  34    -80.7351136  0.171240E-03  0.628E-02    0.02       1.0  T
  35    -80.7354753 -0.361724E-03  0.254E-02    0.02       1.0  T
  36    -80.7351862  0.289118E-03  0.557E-02    0.02       1.0  T
  37    -80.7354212 -0.235017E-03  0.293E-02    0.02       1.0  T
  38    -80.7354761 -0.548895E-04  0.213E-02    0.02       1.0  T
  39    -80.7354675  0.860257E-05  0.218E-02    0.02       1.0  T
  40    -80.7355218 -0.543523E-04  0.559E-03    0.02       3.2  T
  41    -80.7355146  0.727317E-05  0.998E-03    0.02       1.8  T
  42    -80.7355236 -0.904217E-05  0.247E-03    0.02       7.2  T
  43    -80.7355238 -0.171262E-06  0.197E-03    0.02       9.0  T
  44    -80.7355241 -0.277464E-06  0.955E-04    0.02      18.5  T
  45    -80.7355241 -0.599241E-07  0.632E-04    0.02      28.0  T

   *** convergence criteria satisfied after 45 iterations ***

         #    Occupation            Energy/Eh            Energy/eV
      -------------------------------------------------------------
         1        2.0000           -1.0851666             -29.5289
       ...           ...                  ...                  ...
        66        2.0000           -0.4302063             -11.7065
        67        1.9998           -0.4276476             -11.6369
        68        1.9969           -0.4251362             -11.5685
        69        1.8152           -0.4211415             -11.4598
        70        1.7060           -0.4206285             -11.4459
        71        1.3970           -0.4197180             -11.4211
        72        1.1058           -0.4190838             -11.4039 (HOMO)
        73        0.7828           -0.4184201             -11.3858 (LUMO)
        74        0.1967           -0.4166615             -11.3379
        75                         -0.3990986             -10.8600
        76                         -0.3834862             -10.4352
        77                         -0.3733237             -10.1587
       ...                                ...                  ...
       133                          1.3136307              35.7457
      -------------------------------------------------------------
                  HL-Gap            0.0006638 Eh            0.0181 eV
             Fermi-level           -0.4188681 Eh          -11.3980 eV

 SCC (total)                   0 d,  0 h,  0 min,  0.600 sec
 SCC setup                      ...        0 min,  0.001 sec (  0.086%)
 Dispersion                     ...        0 min,  0.008 sec (  1.329%)
 classical contributions        ...        0 min,  0.002 sec (  0.352%)
 integral evaluation            ...        0 min,  0.012 sec (  2.028%)
 iterations                     ...        0 min,  0.545 sec ( 90.941%)
 molecular gradient             ...        0 min,  0.025 sec (  4.188%)
 printout                       ...        0 min,  0.006 sec (  1.065%)

         :::::::::::::::::::::::::::::::::::::::::::::::::::::
         ::                     SUMMARY                     ::
         :::::::::::::::::::::::::::::::::::::::::::::::::::::
         :: total energy             -79.878112323112 Eh    ::
         :: gradient norm              0.449101854758 Eh/a0 ::
         :: HOMO-LUMO gap              0.018061742598 eV    ::
         ::.................................................::
         :: SCC energy               -80.735524113471 Eh    ::
         :: -> isotropic ES            0.052304554077 Eh    ::
         :: -> anisotropic ES          0.007363599652 Eh    ::
         :: -> anisotropic XC          0.040000555715 Eh    ::
         :: -> dispersion             -0.044153395852 Eh    ::
         :: repulsion energy           0.856865381107 Eh    ::
         :: add. restraining           0.000000000000 Eh    ::
         :: total charge               0.000000000108 e     ::
         :::::::::::::::::::::::::::::::::::::::::::::::::::::

           -------------------------------------------------
          |                Property Printout                |
           -------------------------------------------------

    * Orbital Energies and Occupations

         #    Occupation            Energy/Eh            Energy/eV
      -------------------------------------------------------------
         1        2.0000           -1.0851666             -29.5289
       ...           ...                  ...                  ...
        60        2.0000           -0.4464035             -12.1473
        61        2.0000           -0.4449739             -12.1084
        62        2.0000           -0.4413489             -12.0097
        63        2.0000           -0.4371878             -11.8965
        64        2.0000           -0.4358924             -11.8612
        65        2.0000           -0.4316341             -11.7454
        66        2.0000           -0.4302063             -11.7065
        67        1.9998           -0.4276476             -11.6369
        68        1.9969           -0.4251362             -11.5685
        69        1.8152           -0.4211415             -11.4598
        70        1.7060           -0.4206285             -11.4459
        71        1.3970           -0.4197180             -11.4211
        72        1.1058           -0.4190838             -11.4039 (HOMO)
        73        0.7828           -0.4184201             -11.3858 (LUMO)
        74        0.1967           -0.4166615             -11.3379
        75                         -0.3990986             -10.8600
        76                         -0.3834862             -10.4352
        77                         -0.3733237             -10.1587
        78                         -0.3575662              -9.7299
        79                         -0.3555088              -9.6739
        80                         -0.3543800              -9.6432
        81                         -0.3369545              -9.1690
        82                         -0.3208298              -8.7302
        83                         -0.3083712              -8.3912
       ...                                ...                  ...
       133                          1.3136307              35.7457
      -------------------------------------------------------------
                  HL-Gap            0.0006638 Eh            0.0181 eV
             Fermi-level           -0.4188681 Eh          -11.3980 eV

     #   Z          covCN         q      C6AA      α(0)
     1   8 O        0.859    -0.347    20.650     6.093
     2   6 C        2.748     0.326    21.455     7.584
     3   6 C        1.975     0.014    30.701     8.948
     4   6 C        1.963     0.048    29.856     8.824
     5   6 C        1.953     0.006    30.921     8.980
     6   6 C        1.899     0.019    30.635     8.939
     7   7 N        2.720     0.071    20.004     6.643
     8   6 C        1.902    -0.036    32.084     9.148
     9   6 C        1.841     0.055    29.758     8.812
    10   8 O        1.695    -0.119    16.116     5.420
    11   6 C        1.841     0.043    30.066     8.858
    12   6 C        1.896    -0.052    32.521     9.210
    13   7 N        1.839    -0.206    26.299     7.600
    14   6 C        2.896     0.150    24.745     8.156
    15   6 C        1.987    -0.009    31.296     9.034
    16   6 C        1.992    -0.015    31.454     9.057
    17   6 C        2.952     0.126    25.236     8.239
    18   7 N        1.832    -0.144    24.895     7.394
    19   6 C        1.889     0.166    27.129     8.412
    20   7 N        1.849    -0.159    25.229     7.444
    21   6 C        2.833     0.197    23.807     7.996
    22   7 N        1.848    -0.116    24.293     7.305
    23   6 C        2.912     0.131    25.141     8.222
    24   6 C        1.993    -0.038    32.072     9.146
    25   6 C        1.987    -0.029    31.828     9.111
    26   6 C        2.806     0.185    24.031     8.031
    27   9 F        0.787    -0.162    10.851     3.891
    28   6 C        2.878     0.090    25.996     8.358
    29  17 Cl       0.963    -0.063   101.133    15.385
    30   6 C        2.030    -0.084    33.293     9.319
    31   6 C        2.964     0.005    27.915     8.666
    32   6 C        1.994    -0.051    32.413     9.194

 Mol. C6AA /au·bohr⁶  :      28740.423287
 Mol. C8AA /au·bohr⁸  :     800056.502905
 Mol. α(0) /au        :        267.420957


Wiberg/Mayer (AO) data.
largest (>0.10) Wiberg bond orders for each atom

 ---------------------------------------------------------------------------
     #   Z sym  total        # sym  WBO       # sym  WBO       # sym  WBO
 ---------------------------------------------------------------------------
     1   8 O    1.950 --     2 C    1.663
     2   6 C    3.933 --     1 O    1.663    13 N    1.178     3 C    1.023
     3   6 C    3.883 --     4 C    2.536     2 C    1.023     6 C    0.125
     4   6 C    3.951 --     3 C    2.536     5 C    1.242
     5   6 C    3.450 --     6 C    1.843     4 C    1.242
     6   6 C    3.427 --     5 C    1.843     7 N    1.125    12 C    0.129
                             3 C    0.125
     7   7 N    3.545 --     6 C    1.125     8 C    1.096    12 C    1.078
     8   6 C    2.968 --     9 C    1.539     7 N    1.096    12 C    0.144
     9   6 C    2.960 --     8 C    1.539    10 O    1.122
    10   8 O    2.487 --    11 C    1.184     9 C    1.122
    11   6 C    2.782 --    12 C    1.338    10 O    1.184
    12   6 C    2.875 --    11 C    1.338     7 N    1.078     8 C    0.144
                             6 C    0.129
    13   7 N    2.870 --    14 C    1.271     2 C    1.178    16 C    0.116
    14   6 C    3.897 --    13 N    1.271    32 C    1.250    15 C    1.215
    15   6 C    3.636 --    16 C    1.810    14 C    1.215    19 C    0.126
                            32 C    0.120
    16   6 C    3.626 --    15 C    1.810    17 C    1.311    32 C    0.162
                            13 N    0.116
    17   6 C    3.840 --    16 C    1.311    31 C    1.172    18 N    1.098
    18   7 N    3.080 --    19 C    1.679    17 C    1.098
    19   6 C    3.801 --    18 N    1.679    20 N    1.636    15 C    0.126
    20   7 N    3.210 --    19 C    1.636    21 C    1.188
    21   6 C    3.948 --    22 N    1.566    20 N    1.188    31 C    1.003
    22   7 N    3.166 --    21 C    1.566    23 C    1.142
    23   6 C    3.906 --    30 C    1.311    24 C    1.258    22 N    1.142
    24   6 C    3.614 --    25 C    1.686    23 C    1.258    30 C    0.356
                            28 C    0.102
    25   6 C    3.467 --    24 C    1.686    26 C    1.374    30 C    0.165
    26   6 C    3.814 --    25 C    1.374    28 C    1.255    27 F    0.997
    27   9 F    1.146 --    26 C    0.997
    28   6 C    3.893 --    30 C    1.446    26 C    1.255    29 Cl   1.007
                            24 C    0.102
    29  17 Cl   1.193 --    28 C    1.007
    30   6 C    3.471 --    28 C    1.446    23 C    1.311    24 C    0.356
                            25 C    0.165
    31   6 C    3.935 --    32 C    1.491    17 C    1.172    21 C    1.003
    32   6 C    3.423 --    31 C    1.491    14 C    1.250    16 C    0.162
                            15 C    0.120
 ---------------------------------------------------------------------------

Topologies differ in total number of bonds
Writing topology from bond orders to xtbtopo.mol

molecular dipole:
                 x           y           z       tot (Debye)
 q only:        0.748      -0.407      -0.550
   full:        0.480      -0.005      -0.561       1.877
molecular quadrupole (traceless):
                xx          xy          yy          xz          yz          zz
 q only:        3.420       7.492       3.293     -16.122      -5.764      -6.713
Note: The following floating-point exceptions are signalling: IEEE_UNDERFLOW_FLAG IEEE_DENORMAL
normal termination of xtb
  q+dip:       11.765       4.683       3.717     -12.677      -6.141     -15.482
   full:        7.749       0.491       8.479     -13.010      -5.451     -16.228


           -------------------------------------------------
          | TOTAL ENERGY              -79.878112323112 Eh   |
          | GRADIENT NORM               0.449101854758 Eh/α |
          | HOMO-LUMO GAP               0.018061742598 eV   |
           -------------------------------------------------

------------------------------------------------------------------------
 * finished run on 2026/07/23 at 16:41:34.422     
------------------------------------------------------------------------
 total:
 * wall-time:     0 d,  0 h,  0 min,  0.629 sec
 *  cpu-time:     0 d,  0 h,  0 min,  0.601 sec
 * ratio c/w:     0.956 speedup
 SCF:
 * wall-time:     0 d,  0 h,  0 min,  0.600 sec
 *  cpu-time:     0 d,  0 h,  0 min,  0.574 sec
 * ratio c/w:     0.957 speedup

