      -----------------------------------------------------------      
     |                   =====================                   |     
     |                           x T B                           |     
     |                   =====================                   |     
     |                         S. Grimme                         |     
     |          Mulliken Center for Theoretical Chemistry        |     
     |                    University of Bonn                     |     
      -----------------------------------------------------------      

   * xtb version 6.6.1 (unknown) compiled by 'builduser@buildhost' on 2023-08-07

   xtb is free software: you can redistribute it and/or modify it under
   the terms of the GNU Lesser General Public License as published by
   the Free Software Foundation, either version 3 of the License, or
   (at your option) any later version.
   
   xtb is distributed in the hope that it will be useful,
   but WITHOUT ANY WARRANTY; without even the implied warranty of
   MERCHANTABILITY or FITNESS FOR A PARTICULAR PURPOSE.  See the
   GNU Lesser General Public License for more details.
   
   Cite this work as:
   * C. Bannwarth, E. Caldeweyher, S. Ehlert, A. Hansen, P. Pracht,
     J. Seibert, S. Spicher, S. Grimme, WIREs Comput. Mol. Sci., 2020, 11,
     e01493. DOI: 10.1002/wcms.1493
   
   for GFN2-xTB:
   * C. Bannwarth, S. Ehlert and S. Grimme., J. Chem. Theory Comput., 2019,
     15, 1652-1671. DOI: 10.1021/acs.jctc.8b01176
   for GFN1-xTB:
   * S. Grimme, C. Bannwarth, P. Shushkov, J. Chem. Theory Comput., 2017,
     13, 1989-2009. DOI: 10.1021/acs.jctc.7b00118
   for GFN0-xTB:
   * P. Pracht, E. Caldeweyher, S. Ehlert, S. Grimme, ChemRxiv, 2019, preprint.
     DOI: 10.26434/chemrxiv.8326202.v1
   for GFN-FF:
   * S. Spicher and S. Grimme, Angew. Chem. Int. Ed., 2020, 59, 15665-15673.
     DOI: 10.1002/anie.202004239
   
   for ALPB and GBSA implicit solvation:
   * S. Ehlert, M. Stahn, S. Spicher, S. Grimme, J. Chem. Theory Comput.,
     2021, 17, 4250-4261. DOI: 10.1021/acs.jctc.1c00471
   
   for DFT-D4:
   * E. Caldeweyher, C. Bannwarth and S. Grimme, J. Chem. Phys., 2017,
     147, 034112. DOI: 10.1063/1.4993215
   * E. Caldeweyher, S. Ehlert, A. Hansen, H. Neugebauer, S. Spicher,
     C. Bannwarth and S. Grimme, J. Chem. Phys., 2019, 150, 154122.
     DOI: 10.1063/1.5090222
   * E. Caldeweyher, J.-M. Mewes, S. Ehlert and S. Grimme, Phys. Chem. Chem. Phys.
     2020, 22, 8499-8512. DOI: 10.1039/D0CP00502A
   
   for sTDA-xTB:
   * S. Grimme and C. Bannwarth, J. Chem. Phys., 2016, 145, 054103.
     DOI: 10.1063/1.4959605
   
   in the mass-spec context:
   * V. Asgeirsson, C. Bauer and S. Grimme, Chem. Sci., 2017, 8, 4879.
     DOI: 10.1039/c7sc00601b
   * J. Koopman and S. Grimme, ACS Omega 2019, 4, 12, 15120-15133.
     DOI: 10.1021/acsomega.9b02011
   
   for metadynamics refer to:
   * S. Grimme, J. Chem. Theory Comput., 2019, 155, 2847-2862
     DOI: 10.1021/acs.jctc.9b00143
   
   for SPH calculations refer to:
   * S. Spicher and S. Grimme, J. Chem. Theory Comput., 2021, 17, 1701-1714
     DOI: 10.1021/acs.jctc.0c01306
   
   with help from (in alphabetical order)
   P. Atkinson, C. Bannwarth, F. Bohle, G. Brandenburg, E. Caldeweyher
   M. Checinski, S. Dohm, S. Ehlert, S. Ehrlich, I. Gerasimov, C. Hölzer
   A. Katbashev, J. Koopman, C. Lavigne, S. Lehtola, F. März, M. Müller,
   F. Musil, H. Neugebauer, J. Pisarek, C. Plett, P. Pracht, F. Pultar,
   J. Seibert, P. Shushkov, S. Spicher, M. Stahn, M. Steiner, T. Strunk,
   J. Stückrath, T. Rose, and J. Unsleber
   
 * started run on 2026/07/23 at 16:39:33.146     

           -------------------------------------------------
          |                Calculation Setup                |
           -------------------------------------------------

          program call               : xtb /home/selva/covalent_quantum_benchmark/data/quantum/erbB_xyz/EGFR__CHEMBL94066__state03.xyz --gfn2 --chrg 0 --uhf 0 --iterations 300
          coordinate file            : /home/selva/covalent_quantum_benchmark/data/quantum/erbB_xyz/EGFR__CHEMBL94066__state03.xyz
          omp threads                :                    24

   ID    Z sym.   atoms
    1    6 C      1-3, 5, 6, 8-10, 13-16, 18, 20, 22-26, 28-30
    2    7 N      4, 12, 17, 19, 21
    3    8 O      7, 11
    4   35 Br     27

           -------------------------------------------------
          |                 G F N 2 - x T B                 |
           -------------------------------------------------

        Reference                      10.1021/acs.jctc.8b01176
      * Hamiltonian:
        H0-scaling (s, p, d)           1.850000    2.230000    2.230000
        zeta-weighting                 0.500000
      * Dispersion:
        s8                             2.700000
        a1                             0.520000
        a2                             5.000000
        s9                             5.000000
      * Repulsion:
        kExp                           1.500000    1.000000
        rExp                           1.000000
      * Coulomb:
        alpha                          2.000000
        third order                    shell-resolved
        anisotropic                    true
        a3                             3.000000
        a5                             4.000000
        cn-shift                       1.200000
        cn-exp                         4.000000
        max-rad                        5.000000


          ...................................................
          :                      SETUP                      :
          :.................................................:
          :  # basis functions                 126          :
          :  # atomic orbitals                 125          :
          :  # shells                           61          :
          :  # electrons                       132          :
          :  max. iterations                   300          :
          :  Hamiltonian                  GFN2-xTB          :
          :  restarted?                      false          :
          :  GBSA solvation                  false          :
          :  PC potential                    false          :
          :  electronic temp.          300.0000000     K    :
          :  accuracy                    1.0000000          :
          :  -> integral cutoff          0.2500000E+02      :
          :  -> integral neglect         0.1000000E-07      :
          :  -> SCF convergence          0.1000000E-05 Eh   :
          :  -> wf. convergence          0.1000000E-03 e    :
          :  Broyden damping             0.4000000          :
          ...................................................

 iter      E             dE          RMSdq      gap      omega  full diag
   1    -72.5181199 -0.725181E+02  0.857E+00    0.33       0.0  T
   2    -64.4369133  0.808121E+01  0.112E+01    0.11       1.0  T
   3    -62.0602762  0.237664E+01  0.111E+01    0.27       1.0  T
   4    -67.3100605 -0.524978E+01  0.842E+00    0.15       1.0  T
   5    -71.3951625 -0.408510E+01  0.616E+00    0.05       1.0  T
   6    -70.3313554  0.106381E+01  0.593E+00    0.16       1.0  T
   7    -69.3023990  0.102896E+01  0.608E+00    0.19       1.0  T
   8    -71.3358602 -0.203346E+01  0.531E+00    0.13       1.0  T
   9    -72.4433144 -0.110745E+01  0.409E+00    0.14       1.0  T
  10    -72.8654766 -0.422162E+00  0.300E+00    0.04       1.0  T
  11    -72.9824346 -0.116958E+00  0.266E+00    0.05       1.0  T
  12    -72.8405317  0.141903E+00  0.299E+00    0.05       1.0  T
  13    -73.0335327 -0.193001E+00  0.225E+00    0.06       1.0  T
  14    -73.1018544 -0.683217E-01  0.192E+00    0.04       1.0  T
  15    -73.0315825  0.702719E-01  0.212E+00    0.05       1.0  T
  16    -73.0121631  0.194194E-01  0.191E+00    0.05       1.0  T
  17    -73.0611156 -0.489525E-01  0.189E+00    0.07       1.0  T
  18    -73.1674155 -0.106300E+00  0.131E+00    0.03       1.0  T
  19    -73.0616621  0.105753E+00  0.177E+00    0.03       1.0  T
  20    -73.1480839 -0.864217E-01  0.133E+00    0.02       1.0  T
  21    -73.1715396 -0.234557E-01  0.118E+00    0.02       1.0  T
  22    -73.1864375 -0.148979E-01  0.112E+00    0.04       1.0  T
  23    -73.1598393  0.265982E-01  0.110E+00    0.00       1.0  T
  24    -73.2006212 -0.407818E-01  0.624E-01    0.04       1.0  T
  25    -73.1977785  0.284266E-02  0.678E-01    0.04       1.0  T
  26    -73.2053027 -0.752423E-02  0.628E-01    0.04       1.0  T
  27    -73.1764305  0.288723E-01  0.769E-01    0.04       1.0  T
  28    -73.2227349 -0.463045E-01  0.418E-01    0.05       1.0  T
  29    -73.2275673 -0.483236E-02  0.317E-01    0.03       1.0  T
  30    -73.2296612 -0.209393E-02  0.260E-01    0.04       1.0  T
  31    -73.2311873 -0.152612E-02  0.208E-01    0.04       1.0  T
  32    -73.2318006 -0.613286E-03  0.138E-01    0.04       1.0  T
  33    -73.2332578 -0.145721E-02  0.675E-02    0.03       1.0  T
  34    -73.2330479  0.209942E-03  0.845E-02    0.03       1.0  T
  35    -73.2329335  0.114366E-03  0.904E-02    0.03       1.0  T
  36    -73.2331241 -0.190584E-03  0.690E-02    0.03       1.0  T
  37    -73.2331709 -0.468065E-04  0.593E-02    0.03       1.0  T
  38    -73.2332211 -0.502214E-04  0.518E-02    0.03       1.0  T
  39    -73.2332392 -0.180372E-04  0.473E-02    0.03       1.0  T
  40    -73.2333816 -0.142386E-03  0.261E-02    0.03       1.0  T
  41    -73.2334117 -0.301657E-04  0.182E-02    0.03       1.0  T
  42    -73.2334253 -0.135628E-04  0.138E-02    0.03       1.3  T
  43    -73.2334392 -0.138911E-04  0.490E-03    0.03       3.7  T
  44    -73.2334387  0.450667E-06  0.508E-03    0.03       3.6  T
  45    -73.2334399 -0.113661E-05  0.239E-03    0.03       7.6  T
  46    -73.2334400 -0.163361E-06  0.163E-03    0.03      11.2  T
  47    -73.2334400 -0.749881E-08  0.150E-03    0.03      12.2  T
  48    -73.2334401 -0.312751E-07  0.109E-03    0.03      16.8  T
  49    -73.2334401 -0.528630E-07  0.418E-04    0.03      43.7  T
  50    -73.2334401 -0.140436E-08  0.289E-04    0.03      63.3  T

   *** convergence criteria satisfied after 50 iterations ***

         #    Occupation            Energy/Eh            Energy/eV
      -------------------------------------------------------------
         1        2.0000           -0.8755685             -23.8254
       ...           ...                  ...                  ...
        60        2.0000           -0.4456968             -12.1280
        61        1.9999           -0.4428989             -12.0519
        62        1.9751           -0.4370586             -11.8930
        63        1.9233           -0.4359664             -11.8632
        64        1.8224           -0.4351174             -11.8401
        65        1.7263           -0.4346547             -11.8276
        66        1.4960           -0.4339387             -11.8081 (HOMO)
        67        0.8719           -0.4326604             -11.7733 (LUMO)
        68        0.1850           -0.4307359             -11.7209
        69                         -0.4109100             -11.1814
        70                         -0.4060733             -11.0498
        71                         -0.4037606             -10.9869
       ...                                ...                  ...
       125                          0.5595271              15.2255
      -------------------------------------------------------------
                  HL-Gap            0.0012784 Eh            0.0348 eV
             Fermi-level           -0.4329051 Eh          -11.7799 eV

 SCC (total)                   0 d,  0 h,  0 min,  0.553 sec
 SCC setup                      ...        0 min,  0.000 sec (  0.050%)
 Dispersion                     ...        0 min,  0.001 sec (  0.151%)
 classical contributions        ...        0 min,  0.003 sec (  0.615%)
 integral evaluation            ...        0 min,  0.004 sec (  0.667%)
 iterations                     ...        0 min,  0.510 sec ( 92.085%)
 molecular gradient             ...        0 min,  0.034 sec (  6.180%)
 printout                       ...        0 min,  0.001 sec (  0.245%)

         :::::::::::::::::::::::::::::::::::::::::::::::::::::
         ::                     SUMMARY                     ::
         :::::::::::::::::::::::::::::::::::::::::::::::::::::
         :: total energy             -72.464903469492 Eh    ::
         :: gradient norm              0.436656126363 Eh/a0 ::
         :: HOMO-LUMO gap              0.034785689347 eV    ::
         ::.................................................::
         :: SCC energy               -73.233440131728 Eh    ::
         :: -> isotropic ES            0.036070314898 Eh    ::
         :: -> anisotropic ES          0.009632914275 Eh    ::
         :: -> anisotropic XC          0.040414919247 Eh    ::
         :: -> dispersion             -0.046834229148 Eh    ::
         :: repulsion energy           0.767172490078 Eh    ::
         :: add. restraining           0.000000000000 Eh    ::
         :: total charge               0.000000000451 e     ::
         :::::::::::::::::::::::::::::::::::::::::::::::::::::

           -------------------------------------------------
          |                Property Printout                |
           -------------------------------------------------

    * Orbital Energies and Occupations

         #    Occupation            Energy/Eh            Energy/eV
      -------------------------------------------------------------
         1        2.0000           -0.8755685             -23.8254
       ...           ...                  ...                  ...
        54        2.0000           -0.4693055             -12.7705
        55        2.0000           -0.4590533             -12.4915
        56        2.0000           -0.4539707             -12.3532
        57        2.0000           -0.4515845             -12.2882
        58        2.0000           -0.4492738             -12.2254
        59        2.0000           -0.4475500             -12.1785
        60        2.0000           -0.4456968             -12.1280
        61        1.9999           -0.4428989             -12.0519
        62        1.9751           -0.4370586             -11.8930
        63        1.9233           -0.4359664             -11.8632
        64        1.8224           -0.4351174             -11.8401
        65        1.7263           -0.4346547             -11.8276
        66        1.4960           -0.4339387             -11.8081 (HOMO)
        67        0.8719           -0.4326604             -11.7733 (LUMO)
        68        0.1850           -0.4307359             -11.7209
        69                         -0.4109100             -11.1814
        70                         -0.4060733             -11.0498
        71                         -0.4037606             -10.9869
        72                         -0.3846606             -10.4671
        73                         -0.3735923             -10.1660
        74                         -0.3722437             -10.1293
        75                         -0.3663513              -9.9689
        76                         -0.3572067              -9.7201
        77                         -0.3328747              -9.0580
       ...                                ...                  ...
       125                          0.5595271              15.2255
      -------------------------------------------------------------
                  HL-Gap            0.0012784 Eh            0.0348 eV
             Fermi-level           -0.4329051 Eh          -11.7799 eV

     #   Z          covCN         q      C6AA      α(0)
     1   6 C        0.998    -0.066    38.097    10.376
     2   6 C        2.939     0.087    26.056     8.372
     3   6 C        1.906    -0.006    31.278     9.032
     4   7 N        2.721     0.070    20.018     6.645
     5   6 C        1.897    -0.027    31.845     9.114
     6   6 C        1.840     0.044    30.041     8.854
     7   8 O        1.695    -0.109    15.972     5.396
     8   6 C        1.841     0.061    29.609     8.790
     9   6 C        1.902    -0.047    32.378     9.190
    10   6 C        2.803     0.295    22.004     7.685
    11   8 O        0.860    -0.360    20.895     6.129
    12   7 N        1.833    -0.153    25.096     7.424
    13   6 C        2.940     0.131    25.136     8.223
    14   6 C        1.991    -0.032    31.900     9.121
    15   6 C        1.988    -0.004    31.153     9.014
    16   6 C        2.929     0.126    25.237     8.239
    17   7 N        1.830    -0.160    25.261     7.448
    18   6 C        1.914     0.177    26.877     8.372
    19   7 N        1.853    -0.140    24.811     7.383
    20   6 C        2.891     0.198    23.792     7.997
    21   7 N        1.858    -0.145    24.933     7.401
    22   6 C        2.915     0.128    25.201     8.232
    23   6 C        1.994     0.013    30.711     8.950
    24   6 C        1.986    -0.008    31.269     9.030
    25   6 C        2.062     0.020    30.456     8.914
    26   6 C        2.906     0.116    25.447     8.272
    27  35 Br       1.069    -0.047   186.307    22.008
    28   6 C        2.066    -0.082    33.179     9.304
    29   6 C        2.967    -0.002    28.078     8.692
    30   6 C        1.993    -0.075    33.096     9.291

 Mol. C6AA /au·bohr⁶  :      27275.994678
 Mol. C8AA /au·bohr⁸  :     808502.784479
 Mol. α(0) /au        :        262.895671


Wiberg/Mayer (AO) data.
largest (>0.10) Wiberg bond orders for each atom

 ---------------------------------------------------------------------------
     #   Z sym  total        # sym  WBO       # sym  WBO       # sym  WBO
 ---------------------------------------------------------------------------
     1   6 C    2.427 --     2 C    1.814     3 C    0.208    12 N    0.104
     2   6 C    3.925 --     1 C    1.814     3 C    1.157    10 C    0.822
     3   6 C    3.232 --     4 N    1.195     2 C    1.157     5 C    0.239
                             1 C    0.208
     4   7 N    3.572 --     3 C    1.195     5 C    1.105     9 C    1.045
     5   6 C    3.025 --     6 C    1.262     4 N    1.105     3 C    0.239
                             9 C    0.165
     6   6 C    2.800 --     5 C    1.262     7 O    1.207
     7   8 O    2.504 --     6 C    1.207     8 C    1.122
     8   6 C    3.080 --     9 C    1.668     7 O    1.122
     9   6 C    3.092 --     8 C    1.668     4 N    1.045     5 C    0.165
    10   6 C    3.938 --    12 N    1.554    11 O    1.417     2 C    0.822
    11   8 O    1.902 --    10 C    1.417    12 N    0.178
    12   7 N    3.186 --    10 C    1.554    13 C    1.138    11 O    0.178
                             1 C    0.104
    13   6 C    3.896 --    30 C    1.313    14 C    1.258    12 N    1.138
    14   6 C    3.691 --    15 C    1.741    13 C    1.258    30 C    0.186
                            18 C    0.116
    15   6 C    3.471 --    14 C    1.741    16 C    1.313    30 C    0.155
    16   6 C    3.885 --    15 C    1.313    29 C    1.173    17 N    1.138
    17   7 N    3.079 --    18 C    1.594    16 C    1.138
    18   6 C    3.840 --    19 N    1.768    17 N    1.594    14 C    0.116
    19   7 N    3.212 --    18 C    1.768    20 C    1.108
    20   6 C    3.950 --    21 N    1.609    19 N    1.108    29 C    1.020
    21   7 N    3.192 --    20 C    1.609    22 C    1.114
    22   6 C    3.946 --    28 C    1.337    23 C    1.310    21 N    1.114
    23   6 C    3.742 --    24 C    1.629    22 C    1.310    25 C    0.388
                            28 C    0.158
    24   6 C    3.722 --    25 C    1.630    23 C    1.629    28 C    0.359
    25   6 C    3.745 --    24 C    1.630    26 C    1.363    23 C    0.388
                            28 C    0.156
    26   6 C    3.928 --    28 C    1.416    25 C    1.363    27 Br   0.999
    27  35 Br   1.207 --    26 C    0.999
    28   6 C    3.554 --    26 C    1.416    22 C    1.337    24 C    0.359
                            23 C    0.158    25 C    0.156
    29   6 C    3.931 --    30 C    1.454    16 C    1.173    20 C    1.020
    30   6 C    3.471 --    29 C    1.454    13 C    1.313    14 C    0.186
                            15 C    0.155
 ---------------------------------------------------------------------------

Topologies differ in total number of bonds
Writing topology from bond orders to xtbtopo.mol

molecular dipole:
                 x           y           z       tot (Debye)
 q only:        0.677       0.315       1.882
normal termination of xtb
   full:        0.562      -0.138       2.508       6.543
molecular quadrupole (traceless):
                xx          xy          yy          xz          yz          zz
 q only:        4.945      -7.248       2.945      -0.016      -0.241      -7.890
  q+dip:       14.747      -9.770      -5.944       0.113      -7.921      -8.803
   full:       12.459      -8.602      -1.569       0.631      -7.312     -10.890


           -------------------------------------------------
          | TOTAL ENERGY              -72.464903469492 Eh   |
          | GRADIENT NORM               0.436656126363 Eh/α |
          | HOMO-LUMO GAP               0.034785689347 eV   |
           -------------------------------------------------

------------------------------------------------------------------------
 * finished run on 2026/07/23 at 16:39:33.716     
------------------------------------------------------------------------
 total:
 * wall-time:     0 d,  0 h,  0 min,  0.570 sec
 *  cpu-time:     0 d,  0 h,  0 min,  0.558 sec
 * ratio c/w:     0.980 speedup
 SCF:
 * wall-time:     0 d,  0 h,  0 min,  0.554 sec
 *  cpu-time:     0 d,  0 h,  0 min,  0.540 sec
 * ratio c/w:     0.974 speedup

