      -----------------------------------------------------------      
     |                   =====================                   |     
     |                           x T B                           |     
     |                   =====================                   |     
     |                         S. Grimme                         |     
     |          Mulliken Center for Theoretical Chemistry        |     
     |                    University of Bonn                     |     
      -----------------------------------------------------------      

   * xtb version 6.6.1 (unknown) compiled by 'builduser@buildhost' on 2023-08-07

   xtb is free software: you can redistribute it and/or modify it under
   the terms of the GNU Lesser General Public License as published by
   the Free Software Foundation, either version 3 of the License, or
   (at your option) any later version.
   
   xtb is distributed in the hope that it will be useful,
   but WITHOUT ANY WARRANTY; without even the implied warranty of
   MERCHANTABILITY or FITNESS FOR A PARTICULAR PURPOSE.  See the
   GNU Lesser General Public License for more details.
   
   Cite this work as:
   * C. Bannwarth, E. Caldeweyher, S. Ehlert, A. Hansen, P. Pracht,
     J. Seibert, S. Spicher, S. Grimme, WIREs Comput. Mol. Sci., 2020, 11,
     e01493. DOI: 10.1002/wcms.1493
   
   for GFN2-xTB:
   * C. Bannwarth, S. Ehlert and S. Grimme., J. Chem. Theory Comput., 2019,
     15, 1652-1671. DOI: 10.1021/acs.jctc.8b01176
   for GFN1-xTB:
   * S. Grimme, C. Bannwarth, P. Shushkov, J. Chem. Theory Comput., 2017,
     13, 1989-2009. DOI: 10.1021/acs.jctc.7b00118
   for GFN0-xTB:
   * P. Pracht, E. Caldeweyher, S. Ehlert, S. Grimme, ChemRxiv, 2019, preprint.
     DOI: 10.26434/chemrxiv.8326202.v1
   for GFN-FF:
   * S. Spicher and S. Grimme, Angew. Chem. Int. Ed., 2020, 59, 15665-15673.
     DOI: 10.1002/anie.202004239
   
   for ALPB and GBSA implicit solvation:
   * S. Ehlert, M. Stahn, S. Spicher, S. Grimme, J. Chem. Theory Comput.,
     2021, 17, 4250-4261. DOI: 10.1021/acs.jctc.1c00471
   
   for DFT-D4:
   * E. Caldeweyher, C. Bannwarth and S. Grimme, J. Chem. Phys., 2017,
     147, 034112. DOI: 10.1063/1.4993215
   * E. Caldeweyher, S. Ehlert, A. Hansen, H. Neugebauer, S. Spicher,
     C. Bannwarth and S. Grimme, J. Chem. Phys., 2019, 150, 154122.
     DOI: 10.1063/1.5090222
   * E. Caldeweyher, J.-M. Mewes, S. Ehlert and S. Grimme, Phys. Chem. Chem. Phys.
     2020, 22, 8499-8512. DOI: 10.1039/D0CP00502A
   
   for sTDA-xTB:
   * S. Grimme and C. Bannwarth, J. Chem. Phys., 2016, 145, 054103.
     DOI: 10.1063/1.4959605
   
   in the mass-spec context:
   * V. Asgeirsson, C. Bauer and S. Grimme, Chem. Sci., 2017, 8, 4879.
     DOI: 10.1039/c7sc00601b
   * J. Koopman and S. Grimme, ACS Omega 2019, 4, 12, 15120-15133.
     DOI: 10.1021/acsomega.9b02011
   
   for metadynamics refer to:
   * S. Grimme, J. Chem. Theory Comput., 2019, 155, 2847-2862
     DOI: 10.1021/acs.jctc.9b00143
   
   for SPH calculations refer to:
   * S. Spicher and S. Grimme, J. Chem. Theory Comput., 2021, 17, 1701-1714
     DOI: 10.1021/acs.jctc.0c01306
   
   with help from (in alphabetical order)
   P. Atkinson, C. Bannwarth, F. Bohle, G. Brandenburg, E. Caldeweyher
   M. Checinski, S. Dohm, S. Ehlert, S. Ehrlich, I. Gerasimov, C. Hölzer
   A. Katbashev, J. Koopman, C. Lavigne, S. Lehtola, F. März, M. Müller,
   F. Musil, H. Neugebauer, J. Pisarek, C. Plett, P. Pracht, F. Pultar,
   J. Seibert, P. Shushkov, S. Spicher, M. Stahn, M. Steiner, T. Strunk,
   J. Stückrath, T. Rose, and J. Unsleber
   
 * started run on 2026/07/23 at 16:39:05.269     

           -------------------------------------------------
          |                Calculation Setup                |
           -------------------------------------------------

          program call               : xtb /home/selva/covalent_quantum_benchmark/data/quantum/erbB_xyz/EGFR__CHEMBL66570__state00.xyz --gfn2 --chrg 0 --uhf 0 --iterations 300
          coordinate file            : /home/selva/covalent_quantum_benchmark/data/quantum/erbB_xyz/EGFR__CHEMBL66570__state00.xyz
          omp threads                :                    24

   ID    Z sym.   atoms
    1    6 C      1, 2, 4, 5, 7, 9-16, 19, 21, 23, 25-28, 30, 32, 33, 35, 36
    2    7 N      3, 6, 18, 20, 22, 24, 34
    3    8 O      8, 17
    4    9 F      29
    5   17 Cl     31

           -------------------------------------------------
          |                 G F N 2 - x T B                 |
           -------------------------------------------------

        Reference                      10.1021/acs.jctc.8b01176
      * Hamiltonian:
        H0-scaling (s, p, d)           1.850000    2.230000    2.230000
        zeta-weighting                 0.500000
      * Dispersion:
        s8                             2.700000
        a1                             0.520000
        a2                             5.000000
        s9                             5.000000
      * Repulsion:
        kExp                           1.500000    1.000000
        rExp                           1.000000
      * Coulomb:
        alpha                          2.000000
        third order                    shell-resolved
        anisotropic                    true
        a3                             3.000000
        a5                             4.000000
        cn-shift                       1.200000
        cn-exp                         4.000000
        max-rad                        5.000000


          ...................................................
          :                      SETUP                      :
          :.................................................:
          :  # basis functions                 150          :
          :  # atomic orbitals                 149          :
          :  # shells                           73          :
          :  # electrons                       161          :
          :  max. iterations                   300          :
          :  Hamiltonian                  GFN2-xTB          :
          :  restarted?                      false          :
          :  GBSA solvation                  false          :
          :  PC potential                    false          :
          :  electronic temp.          300.0000000     K    :
          :  accuracy                    1.0000000          :
          :  -> integral cutoff          0.2500000E+02      :
          :  -> integral neglect         0.1000000E-07      :
          :  -> SCF convergence          0.1000000E-05 Eh   :
          :  -> wf. convergence          0.1000000E-03 e    :
          :  Broyden damping             0.4000000          :
          ...................................................

 iter      E             dE          RMSdq      gap      omega  full diag
   1    -89.9129989 -0.899130E+02  0.813E+00    0.12       0.0  T
   2    -72.8369793  0.170760E+02  0.114E+01    0.16       1.0  T
   3    -56.1732147  0.166638E+02  0.132E+01    0.37       1.0  T
   4    -75.9526336 -0.197794E+02  0.101E+01    0.34       1.0  T
   5    -86.0387589 -0.100861E+02  0.703E+00    0.11       1.0  T
   6    -88.1459718 -0.210721E+01  0.551E+00    0.03       1.0  T
   7    -89.6377407 -0.149177E+01  0.451E+00    0.10       1.0  T
   8    -88.8928382  0.744902E+00  0.429E+00    0.23       1.0  T
   9    -87.5317709  0.136107E+01  0.512E+00    0.11       1.0  T
  10    -89.4469967 -0.191523E+01  0.325E+00    0.04       1.0  T
  11    -89.2207678  0.226229E+00  0.407E+00    0.15       1.0  T
  12    -90.5071226 -0.128635E+01  0.260E+00    0.03       1.0  T
  13    -90.5217844 -0.146618E-01  0.239E+00    0.01       1.0  T
  14    -90.6513499 -0.129565E+00  0.177E+00    0.03       1.0  T
  15    -90.6000437  0.513062E-01  0.187E+00    0.01       1.0  T
  16    -90.5859439  0.140998E-01  0.169E+00    0.03       1.0  T
  17    -90.2135250  0.372419E+00  0.243E+00    0.11       1.0  T
  18    -90.0279907  0.185534E+00  0.255E+00    0.08       1.0  T
  19    -90.3843897 -0.356399E+00  0.204E+00    0.05       1.0  T
  20    -90.5525868 -0.168197E+00  0.155E+00    0.01       1.0  T
  21    -90.5673187 -0.147319E-01  0.148E+00    0.01       1.0  T
  22    -90.6416894 -0.743707E-01  0.121E+00    0.01       1.0  T
  23    -90.4266098  0.215080E+00  0.170E+00    0.04       1.0  T
  24    -90.7459805 -0.319371E+00  0.613E-01    0.03       1.0  T
  25    -90.7233522  0.226283E-01  0.704E-01    0.01       1.0  T
  26    -90.7551659 -0.318137E-01  0.419E-01    0.03       1.0  T
  27    -90.7361845  0.189814E-01  0.535E-01    0.03       1.0  T
  28    -90.7328688  0.331578E-02  0.558E-01    0.03       1.0  T
  29    -90.7413407 -0.847197E-02  0.516E-01    0.03       1.0  T
  30    -90.7480217 -0.668097E-02  0.448E-01    0.03       1.0  T
  31    -90.7666059 -0.185842E-01  0.212E-01    0.02       1.0  T
  32    -90.7641787  0.242722E-02  0.246E-01    0.03       1.0  T
  33    -90.7679165 -0.373781E-02  0.153E-01    0.03       1.0  T
  34    -90.7690578 -0.114128E-02  0.115E-01    0.03       1.0  T
  35    -90.7682636  0.794245E-03  0.135E-01    0.03       1.0  T
  36    -90.7688770 -0.613486E-03  0.116E-01    0.03       1.0  T
  37    -90.7693414 -0.464335E-03  0.935E-02    0.03       1.0  T
  38    -90.7693310  0.103938E-04  0.931E-02    0.03       1.0  T
  39    -90.7699296 -0.598613E-03  0.550E-02    0.03       1.0  T
  40    -90.7700063 -0.767447E-04  0.430E-02    0.02       1.0  T
  41    -90.7701887 -0.182402E-03  0.207E-02    0.02       1.0  T
  42    -90.7702078 -0.190240E-04  0.129E-02    0.02       1.3  T
  43    -90.7702249 -0.170898E-04  0.409E-03    0.02       4.1  T
  44    -90.7702254 -0.586135E-06  0.380E-03    0.02       4.4  T
  45    -90.7702257 -0.226269E-06  0.337E-03    0.02       4.9  T
  46    -90.7702264 -0.688471E-06  0.200E-03    0.02       8.3  T
  47    -90.7702263  0.216672E-07  0.175E-03    0.02       9.5  T
  48    -90.7702263  0.482314E-08  0.168E-03    0.02       9.9  T
  49    -90.7702262  0.106408E-06  0.182E-03    0.02       9.1  T
  50    -90.7702266 -0.399893E-06  0.549E-04    0.02      30.3  T
  51    -90.7702266  0.136851E-07  0.607E-04    0.02      27.4  T

   *** convergence criteria satisfied after 51 iterations ***

         #    Occupation            Energy/Eh            Energy/eV
      -------------------------------------------------------------
         1        2.0000           -1.0902698             -29.6678
       ...           ...                  ...                  ...
        75        2.0000           -0.4391318             -11.9494
        76        2.0000           -0.4370010             -11.8914
        77        1.9979           -0.4276556             -11.6371
        78        1.6723           -0.4226567             -11.5011
        79        1.6126           -0.4224562             -11.4956
        80        1.4158           -0.4219186             -11.4810
        81        1.3200           -0.4216960             -11.4749 (HOMO)
        82        0.8999           -0.4208220             -11.4511 (LUMO)
        83        0.0701           -0.4177636             -11.3679
        84        0.0113           -0.4159966             -11.3198
        85        0.0001           -0.4116274             -11.2010
        86        0.0000           -0.4053847             -11.0311
       ...           ...                  ...                  ...
       149                          0.6712942              18.2668
      -------------------------------------------------------------
                  HL-Gap            0.0008740 Eh            0.0238 eV
             Fermi-level           -0.4210254 Eh          -11.4567 eV

 SCC (total)                   0 d,  0 h,  0 min,  0.883 sec
 SCC setup                      ...        0 min,  0.000 sec (  0.043%)
 Dispersion                     ...        0 min,  0.001 sec (  0.118%)
 classical contributions        ...        0 min,  0.001 sec (  0.078%)
 integral evaluation            ...        0 min,  0.004 sec (  0.462%)
 iterations                     ...        0 min,  0.839 sec ( 95.040%)
 molecular gradient             ...        0 min,  0.027 sec (  3.096%)
 printout                       ...        0 min,  0.010 sec (  1.160%)

         :::::::::::::::::::::::::::::::::::::::::::::::::::::
         ::                     SUMMARY                     ::
         :::::::::::::::::::::::::::::::::::::::::::::::::::::
         :: total energy             -89.867222162236 Eh    ::
         :: gradient norm              0.524653119333 Eh/a0 ::
         :: HOMO-LUMO gap              0.023782262748 eV    ::
         ::.................................................::
         :: SCC energy               -90.770226605587 Eh    ::
         :: -> isotropic ES            0.047314346705 Eh    ::
         :: -> anisotropic ES          0.009875443600 Eh    ::
         :: -> anisotropic XC          0.042252056672 Eh    ::
         :: -> dispersion             -0.052323358374 Eh    ::
         :: repulsion energy           0.903376775828 Eh    ::
         :: add. restraining           0.000000000000 Eh    ::
         :: total charge               0.000000000000 e     ::
         :::::::::::::::::::::::::::::::::::::::::::::::::::::

           -------------------------------------------------
          |                Property Printout                |
           -------------------------------------------------

    * Orbital Energies and Occupations

         #    Occupation            Energy/Eh            Energy/eV
      -------------------------------------------------------------
         1        2.0000           -1.0902698             -29.6678
       ...           ...                  ...                  ...
        69        2.0000           -0.4589180             -12.4878
        70        2.0000           -0.4537856             -12.3481
        71        2.0000           -0.4480475             -12.1920
        72        2.0000           -0.4471818             -12.1684
        73        2.0000           -0.4457669             -12.1299
        74        2.0000           -0.4426212             -12.0443
        75        2.0000           -0.4391318             -11.9494
        76        2.0000           -0.4370010             -11.8914
        77        1.9979           -0.4276556             -11.6371
        78        1.6723           -0.4226567             -11.5011
        79        1.6126           -0.4224562             -11.4956
        80        1.4158           -0.4219186             -11.4810
        81        1.3200           -0.4216960             -11.4749 (HOMO)
        82        0.8999           -0.4208220             -11.4511 (LUMO)
        83        0.0701           -0.4177636             -11.3679
        84        0.0113           -0.4159966             -11.3198
        85        0.0001           -0.4116274             -11.2010
        86        0.0000           -0.4053847             -11.0311
        87                         -0.4021974             -10.9443
        88                         -0.3783248             -10.2947
        89                         -0.3666862              -9.9780
        90                         -0.3583781              -9.7520
        91                         -0.3526155              -9.5952
        92                         -0.3493845              -9.5072
       ...                                ...                  ...
       149                          0.6712942              18.2668
      -------------------------------------------------------------
                  HL-Gap            0.0008740 Eh            0.0238 eV
             Fermi-level           -0.4210254 Eh          -11.4567 eV

     #   Z          covCN         q      C6AA      α(0)
     1   6 C        0.977    -0.088    38.677    10.444
     2   6 C        1.901     0.037    30.171     8.871
     3   7 N        2.720     0.110    19.347     6.533
     4   6 C        1.896    -0.024    31.743     9.099
     5   6 C        1.896    -0.017    31.571     9.075
     6   7 N        2.730     0.039    20.573     6.736
     7   6 C        2.758     0.297    21.961     7.674
     8   8 O        0.859    -0.315    20.046     6.003
     9   6 C        3.018     0.085    26.084     8.378
    10   6 C        2.115    -0.018    31.314     9.043
    11   6 C        3.073     0.080    26.153     8.385
    12   6 C        0.980    -0.069    38.067    10.362
    13   6 C        3.026     0.124    25.259     8.244
    14   6 C        1.969     0.016    30.660     8.942
    15   6 C        3.021     0.029    27.321     8.574
    16   6 C        2.830     0.311    21.727     7.638
    17   8 O        0.856    -0.275    19.332     5.895
    18   7 N        1.882    -0.216    26.558     7.640
    19   6 C        3.074     0.194    23.803     7.999
    20   7 N        1.830    -0.155    25.138     7.430
    21   6 C        1.981     0.163    27.130     8.412
    22   7 N        1.836    -0.167    25.411     7.470
    23   6 C        2.881     0.186    24.027     8.036
    24   7 N        1.831    -0.162    25.296     7.453
    25   6 C        2.891     0.140    24.948     8.189
    26   6 C        1.994    -0.032    31.909     9.123
    27   6 C        1.986    -0.034    31.948     9.128
    28   6 C        2.807     0.193    23.878     8.006
    29   9 F        0.787    -0.156    10.787     3.880
    30   6 C        2.877     0.089    26.017     8.362
    31  17 Cl       0.962    -0.069   101.311    15.399
    32   6 C        2.028    -0.074    33.028     9.282
    33   6 C        3.018    -0.020    28.480     8.754
    34   7 N        1.957    -0.148    24.961     7.409
    35   6 C        1.889    -0.017    31.566     9.074
    36   6 C        1.901    -0.038    32.122     9.153

 Mol. C6AA /au·bohr⁶  :      36011.699146
 Mol. C8AA /au·bohr⁸  :     993003.385338
 Mol. α(0) /au        :        300.091678


Wiberg/Mayer (AO) data.
largest (>0.10) Wiberg bond orders for each atom

 ---------------------------------------------------------------------------
     #   Z sym  total        # sym  WBO       # sym  WBO       # sym  WBO
 ---------------------------------------------------------------------------
     1   6 C    2.599 --     2 C    2.090     3 N    0.118    35 C    0.116
                             4 C    0.108     5 C    0.104
     2   6 C    3.636 --     1 C    2.090     3 N    1.189     4 C    0.109
     3   7 N    3.621 --     2 C    1.189     4 C    1.125    36 C    1.052
                             1 C    0.118
     4   6 C    3.125 --     5 C    1.422     3 N    1.125    36 C    0.156
                            35 C    0.136     2 C    0.109     1 C    0.108
     5   6 C    2.984 --     4 C    1.422     6 N    1.128     1 C    0.104
     6   7 N    3.614 --    35 C    1.155     5 C    1.128     7 C    1.066
     7   6 C    3.940 --     8 O    1.759     6 N    1.066     9 C    1.019
     8   8 O    2.067 --     7 C    1.759
     9   6 C    3.921 --    10 C    1.477    34 N    1.192     7 C    1.019
    10   6 C    3.217 --     9 C    1.477    11 C    1.136    12 C    0.151
                            34 N    0.133
    11   6 C    3.953 --    12 C    1.660    10 C    1.136    13 C    1.080
    12   6 C    2.250 --    11 C    1.660    34 N    0.166    10 C    0.151
                            13 C    0.109
    13   6 C    3.943 --    34 N    1.349    14 C    1.234    11 C    1.080
                            12 C    0.109
    14   6 C    3.771 --    15 C    1.788    13 C    1.234    18 N    0.221
                            17 O    0.167
    15   6 C    3.936 --    14 C    1.788    33 C    1.092    16 C    0.788
    16   6 C    3.931 --    17 O    1.733    18 N    1.273    15 C    0.788
    17   8 O    2.239 --    16 C    1.733    18 N    0.173    14 C    0.167
    18   7 N    3.131 --    16 C    1.273    19 C    1.231    14 C    0.221
                            17 O    0.173
    19   6 C    3.934 --    20 N    1.267    18 N    1.231    33 C    1.219
    20   7 N    3.144 --    21 C    1.557    19 C    1.267
    21   6 C    3.662 --    22 N    1.660    20 N    1.557    24 N    0.194
    22   7 N    3.168 --    21 C    1.660    23 C    1.167
    23   6 C    3.939 --    24 N    1.292    33 C    1.283    22 N    1.167
    24   7 N    3.091 --    23 C    1.292    25 C    1.242    21 C    0.194
    25   6 C    3.903 --    32 C    1.271    24 N    1.242    26 C    1.224
    26   6 C    3.597 --    27 C    1.774    25 C    1.224    32 C    0.321
    27   6 C    3.421 --    26 C    1.774    28 C    1.359    32 C    0.148
Note: The following floating-point exceptions are signalling: IEEE_UNDERFLOW_FLAG IEEE_DENORMAL
normal termination of xtb
    28   6 C    3.781 --    27 C    1.359    30 C    1.249    29 F    1.004
    29   9 F    1.150 --    28 C    1.004
    30   6 C    3.890 --    32 C    1.458    28 C    1.249    31 Cl   1.005
    31  17 Cl   1.186 --    30 C    1.005
    32   6 C    3.395 --    30 C    1.458    25 C    1.271    26 C    0.321
                            27 C    0.148
    33   6 C    3.883 --    23 C    1.283    19 C    1.219    15 C    1.092
    34   7 N    3.091 --    13 C    1.349     9 C    1.192    12 C    0.166
                            10 C    0.133
    35   6 C    3.276 --    36 C    1.570     6 N    1.155     4 C    0.136
                             1 C    0.116
    36   6 C    3.013 --    35 C    1.570     3 N    1.052     4 C    0.156
 ---------------------------------------------------------------------------

Topologies differ in total number of bonds
Writing topology from bond orders to xtbtopo.mol

molecular dipole:
                 x           y           z       tot (Debye)
 q only:       -0.225      -0.889       0.360
   full:       -0.459      -1.839      -0.076       4.821
molecular quadrupole (traceless):
                xx          xy          yy          xz          yz          zz
 q only:        0.612     -11.544     -16.702      -1.955      -1.703      16.089
  q+dip:      -10.514     -16.163      -8.883      -1.973      11.235      19.398
   full:      -15.402     -21.128     -11.067      -0.825      10.118      26.469


           -------------------------------------------------
          | TOTAL ENERGY              -89.867222162236 Eh   |
          | GRADIENT NORM               0.524653119333 Eh/α |
          | HOMO-LUMO GAP               0.023782262748 eV   |
           -------------------------------------------------

------------------------------------------------------------------------
 * finished run on 2026/07/23 at 16:39:06.171     
------------------------------------------------------------------------
 total:
 * wall-time:     0 d,  0 h,  0 min,  0.902 sec
 *  cpu-time:     0 d,  0 h,  0 min,  0.883 sec
 * ratio c/w:     0.979 speedup
 SCF:
 * wall-time:     0 d,  0 h,  0 min,  0.883 sec
 *  cpu-time:     0 d,  0 h,  0 min,  0.863 sec
 * ratio c/w:     0.977 speedup

