      -----------------------------------------------------------      
     |                   =====================                   |     
     |                           x T B                           |     
     |                   =====================                   |     
     |                         S. Grimme                         |     
     |          Mulliken Center for Theoretical Chemistry        |     
     |                    University of Bonn                     |     
      -----------------------------------------------------------      

   * xtb version 6.6.1 (unknown) compiled by 'builduser@buildhost' on 2023-08-07

   xtb is free software: you can redistribute it and/or modify it under
   the terms of the GNU Lesser General Public License as published by
   the Free Software Foundation, either version 3 of the License, or
   (at your option) any later version.
   
   xtb is distributed in the hope that it will be useful,
   but WITHOUT ANY WARRANTY; without even the implied warranty of
   MERCHANTABILITY or FITNESS FOR A PARTICULAR PURPOSE.  See the
   GNU Lesser General Public License for more details.
   
   Cite this work as:
   * C. Bannwarth, E. Caldeweyher, S. Ehlert, A. Hansen, P. Pracht,
     J. Seibert, S. Spicher, S. Grimme, WIREs Comput. Mol. Sci., 2020, 11,
     e01493. DOI: 10.1002/wcms.1493
   
   for GFN2-xTB:
   * C. Bannwarth, S. Ehlert and S. Grimme., J. Chem. Theory Comput., 2019,
     15, 1652-1671. DOI: 10.1021/acs.jctc.8b01176
   for GFN1-xTB:
   * S. Grimme, C. Bannwarth, P. Shushkov, J. Chem. Theory Comput., 2017,
     13, 1989-2009. DOI: 10.1021/acs.jctc.7b00118
   for GFN0-xTB:
   * P. Pracht, E. Caldeweyher, S. Ehlert, S. Grimme, ChemRxiv, 2019, preprint.
     DOI: 10.26434/chemrxiv.8326202.v1
   for GFN-FF:
   * S. Spicher and S. Grimme, Angew. Chem. Int. Ed., 2020, 59, 15665-15673.
     DOI: 10.1002/anie.202004239
   
   for ALPB and GBSA implicit solvation:
   * S. Ehlert, M. Stahn, S. Spicher, S. Grimme, J. Chem. Theory Comput.,
     2021, 17, 4250-4261. DOI: 10.1021/acs.jctc.1c00471
   
   for DFT-D4:
   * E. Caldeweyher, C. Bannwarth and S. Grimme, J. Chem. Phys., 2017,
     147, 034112. DOI: 10.1063/1.4993215
   * E. Caldeweyher, S. Ehlert, A. Hansen, H. Neugebauer, S. Spicher,
     C. Bannwarth and S. Grimme, J. Chem. Phys., 2019, 150, 154122.
     DOI: 10.1063/1.5090222
   * E. Caldeweyher, J.-M. Mewes, S. Ehlert and S. Grimme, Phys. Chem. Chem. Phys.
     2020, 22, 8499-8512. DOI: 10.1039/D0CP00502A
   
   for sTDA-xTB:
   * S. Grimme and C. Bannwarth, J. Chem. Phys., 2016, 145, 054103.
     DOI: 10.1063/1.4959605
   
   in the mass-spec context:
   * V. Asgeirsson, C. Bauer and S. Grimme, Chem. Sci., 2017, 8, 4879.
     DOI: 10.1039/c7sc00601b
   * J. Koopman and S. Grimme, ACS Omega 2019, 4, 12, 15120-15133.
     DOI: 10.1021/acsomega.9b02011
   
   for metadynamics refer to:
   * S. Grimme, J. Chem. Theory Comput., 2019, 155, 2847-2862
     DOI: 10.1021/acs.jctc.9b00143
   
   for SPH calculations refer to:
   * S. Spicher and S. Grimme, J. Chem. Theory Comput., 2021, 17, 1701-1714
     DOI: 10.1021/acs.jctc.0c01306
   
   with help from (in alphabetical order)
   P. Atkinson, C. Bannwarth, F. Bohle, G. Brandenburg, E. Caldeweyher
   M. Checinski, S. Dohm, S. Ehlert, S. Ehrlich, I. Gerasimov, C. Hölzer
   A. Katbashev, J. Koopman, C. Lavigne, S. Lehtola, F. März, M. Müller,
   F. Musil, H. Neugebauer, J. Pisarek, C. Plett, P. Pracht, F. Pultar,
   J. Seibert, P. Shushkov, S. Spicher, M. Stahn, M. Steiner, T. Strunk,
   J. Stückrath, T. Rose, and J. Unsleber
   
 * started run on 2026/07/23 at 16:41:44.812     

           -------------------------------------------------
          |                Calculation Setup                |
           -------------------------------------------------

          program call               : xtb /home/selva/covalent_quantum_benchmark/data/quantum/erbB_xyz/ERBB2__CHEMBL293749__state03.xyz --gfn2 --chrg 0 --uhf 0 --iterations 300
          coordinate file            : /home/selva/covalent_quantum_benchmark/data/quantum/erbB_xyz/ERBB2__CHEMBL293749__state03.xyz
          omp threads                :                    24

   ID    Z sym.   atoms
    1    7 N      1, 15
    2    6 C      2-7, 9, 11-13, 16-23
    3    8 O      8, 10, 14

           -------------------------------------------------
          |                 G F N 2 - x T B                 |
           -------------------------------------------------

        Reference                      10.1021/acs.jctc.8b01176
      * Hamiltonian:
        H0-scaling (s, p, d)           1.850000    2.230000    2.230000
        zeta-weighting                 0.500000
      * Dispersion:
        s8                             2.700000
        a1                             0.520000
        a2                             5.000000
        s9                             5.000000
      * Repulsion:
        kExp                           1.500000    1.000000
        rExp                           1.000000
      * Coulomb:
        alpha                          2.000000
        third order                    shell-resolved
        anisotropic                    true
        a3                             3.000000
        a5                             4.000000
        cn-shift                       1.200000
        cn-exp                         4.000000
        max-rad                        5.000000


          ...................................................
          :                      SETUP                      :
          :.................................................:
          :  # basis functions                  92          :
          :  # atomic orbitals                  92          :
          :  # shells                           46          :
          :  # electrons                       100          :
          :  max. iterations                   300          :
          :  Hamiltonian                  GFN2-xTB          :
          :  restarted?                      false          :
          :  GBSA solvation                  false          :
          :  PC potential                    false          :
          :  electronic temp.          300.0000000     K    :
          :  accuracy                    1.0000000          :
          :  -> integral cutoff          0.2500000E+02      :
          :  -> integral neglect         0.1000000E-07      :
          :  -> SCF convergence          0.1000000E-05 Eh   :
          :  -> wf. convergence          0.1000000E-03 e    :
          :  Broyden damping             0.4000000          :
          ...................................................

 iter      E             dE          RMSdq      gap      omega  full diag
   1    -55.6926535 -0.556927E+02  0.855E+00    0.31       0.0  T
   2    -50.4546070  0.523805E+01  0.102E+01    0.13       1.0  T
   3    -49.4507085  0.100390E+01  0.979E+00    0.34       1.0  T
   4    -49.0394626  0.411246E+00  0.906E+00    0.25       1.0  T
   5    -48.1496411  0.889821E+00  0.891E+00    0.20       1.0  T
   6    -55.4226656 -0.727302E+01  0.427E+00    0.24       1.0  T
   7    -54.9969205  0.425745E+00  0.429E+00    0.08       1.0  T
   8    -55.8276814 -0.830761E+00  0.302E+00    0.32       1.0  T
   9    -55.8551185 -0.274371E-01  0.262E+00    0.36       1.0  T
  10    -55.9136212 -0.585028E-01  0.238E+00    0.36       1.0  T
  11    -55.9695686 -0.559474E-01  0.205E+00    0.20       1.0  T
  12    -56.0523012 -0.827326E-01  0.127E+00    0.11       1.0  T
  13    -56.0605292 -0.822804E-02  0.128E+00    0.10       1.0  T
  14    -56.0686559 -0.812665E-02  0.115E+00    0.10       1.0  T
  15    -56.0778516 -0.919578E-02  0.105E+00    0.05       1.0  T
  16    -56.0564778  0.213739E-01  0.110E+00    0.12       1.0  T
  17    -56.0344758  0.220020E-01  0.141E+00    0.02       1.0  T
  18    -56.0696931 -0.352173E-01  0.104E+00    0.05       1.0  T
  19    -56.0945807 -0.248876E-01  0.705E-01    0.03       1.0  T
  20    -56.0951873 -0.606588E-03  0.524E-01    0.07       1.0  T
  21    -56.0966116 -0.142433E-02  0.552E-01    0.03       1.0  T
  22    -56.1031222 -0.651058E-02  0.297E-01    0.05       1.0  T
  23    -56.1045205 -0.139829E-02  0.216E-01    0.05       1.0  T
  24    -56.1050266 -0.506059E-03  0.157E-01    0.05       1.0  T
  25    -56.1053207 -0.294115E-03  0.110E-01    0.06       1.0  T
  26    -56.1037435  0.157718E-02  0.224E-01    0.04       1.0  T
  27    -56.1045947 -0.851231E-03  0.172E-01    0.05       1.0  T
  28    -56.1049177 -0.322979E-03  0.142E-01    0.05       1.0  T
  29    -56.1054058 -0.488105E-03  0.871E-02    0.05       1.0  T
  30    -56.1056665 -0.260740E-03  0.331E-02    0.05       1.0  T
  31    -56.1056914 -0.249001E-04  0.164E-02    0.05       1.3  T
  32    -56.1056946 -0.319311E-05  0.111E-02    0.05       1.9  T
  33    -56.1056969 -0.230352E-05  0.493E-03    0.05       4.2  T
  34    -56.1056973 -0.329912E-06  0.226E-03    0.05       9.2  T
  35    -56.1056974 -0.891938E-07  0.139E-03    0.05      15.1  T
  36    -56.1056974 -0.799437E-08  0.114E-03    0.05      18.3  T
  37    -56.1056974 -0.534653E-07  0.311E-04    0.05      67.1  T
  38    -56.1056974 -0.185673E-08  0.732E-05    0.05     284.8  T

   *** convergence criteria satisfied after 38 iterations ***

         #    Occupation            Energy/Eh            Energy/eV
      -------------------------------------------------------------
         1        2.0000           -0.7688200             -20.9207
       ...           ...                  ...                  ...
        44        2.0000           -0.4653842             -12.6637
        45        2.0000           -0.4593870             -12.5006
        46        2.0000           -0.4569632             -12.4346
        47        1.9991           -0.4389203             -11.9436
        48        1.9822           -0.4360848             -11.8665
        49        1.8623           -0.4340843             -11.8120
        50        1.5564           -0.4328021             -11.7771 (HOMO)
        51        0.5981           -0.4308003             -11.7227 (LUMO)
        52        0.0020           -0.4250463             -11.5661
        53                         -0.4067954             -11.0695
        54                         -0.4058186             -11.0429
        55                         -0.3811283             -10.3710
       ...                                ...                  ...
        92                          1.0306509              28.0454
      -------------------------------------------------------------
                  HL-Gap            0.0020018 Eh            0.0545 eV
             Fermi-level           -0.4316097 Eh          -11.7447 eV

 SCC (total)                   0 d,  0 h,  0 min,  0.219 sec
 SCC setup                      ...        0 min,  0.000 sec (  0.147%)
 Dispersion                     ...        0 min,  0.002 sec (  1.058%)
 classical contributions        ...        0 min,  0.001 sec (  0.331%)
 integral evaluation            ...        0 min,  0.004 sec (  1.883%)
 iterations                     ...        0 min,  0.191 sec ( 87.206%)
 molecular gradient             ...        0 min,  0.020 sec (  9.069%)
 printout                       ...        0 min,  0.001 sec (  0.286%)

         :::::::::::::::::::::::::::::::::::::::::::::::::::::
         ::                     SUMMARY                     ::
         :::::::::::::::::::::::::::::::::::::::::::::::::::::
         :: total energy             -55.422264488011 Eh    ::
         :: gradient norm              0.428234011756 Eh/a0 ::
         :: HOMO-LUMO gap              0.054471795193 eV    ::
         ::.................................................::
         :: SCC energy               -56.105697421592 Eh    ::
         :: -> isotropic ES            0.072476487232 Eh    ::
         :: -> anisotropic ES          0.000198659264 Eh    ::
         :: -> anisotropic XC          0.039750557354 Eh    ::
         :: -> dispersion             -0.028440555489 Eh    ::
         :: repulsion energy           0.683265901631 Eh    ::
         :: add. restraining           0.000000000000 Eh    ::
         :: total charge               0.000000000000 e     ::
         :::::::::::::::::::::::::::::::::::::::::::::::::::::

           -------------------------------------------------
          |                Property Printout                |
           -------------------------------------------------

    * Orbital Energies and Occupations

         #    Occupation            Energy/Eh            Energy/eV
      -------------------------------------------------------------
         1        2.0000           -0.7688200             -20.9207
       ...           ...                  ...                  ...
        38        2.0000           -0.4943525             -13.4520
        39        2.0000           -0.4920395             -13.3891
        40        2.0000           -0.4900709             -13.3355
        41        2.0000           -0.4871006             -13.2547
        42        2.0000           -0.4766328             -12.9698
        43        2.0000           -0.4665930             -12.6966
        44        2.0000           -0.4653842             -12.6637
        45        2.0000           -0.4593870             -12.5006
        46        2.0000           -0.4569632             -12.4346
        47        1.9991           -0.4389203             -11.9436
        48        1.9822           -0.4360848             -11.8665
        49        1.8623           -0.4340843             -11.8120
        50        1.5564           -0.4328021             -11.7771 (HOMO)
        51        0.5981           -0.4308003             -11.7227 (LUMO)
        52        0.0020           -0.4250463             -11.5661
        53                         -0.4067954             -11.0695
        54                         -0.4058186             -11.0429
        55                         -0.3811283             -10.3710
        56                         -0.3634914              -9.8911
        57                         -0.3620359              -9.8515
        58                         -0.3442406              -9.3673
        59                         -0.3431703              -9.3381
        60                         -0.3204068              -8.7187
        61                         -0.2968310              -8.0772
       ...                                ...                  ...
        92                          1.0306509              28.0454
      -------------------------------------------------------------
                  HL-Gap            0.0020018 Eh            0.0545 eV
             Fermi-level           -0.4316097 Eh          -11.7447 eV

     #   Z          covCN         q      C6AA      α(0)
     1   7 N        0.911    -0.135    23.928     7.075
     2   6 C        1.904     0.143    27.627     8.489
     3   6 C        2.947     0.035    27.215     8.556
     4   6 C        1.994     0.040    30.011     8.847
     5   6 C        2.950     0.082    26.166     8.390
     6   6 C        1.992    -0.048    32.334     9.183
     7   6 C        2.805     0.181    24.106     8.044
     8   8 O        0.850    -0.280    19.433     5.910
     9   6 C        2.821     0.254    22.739     7.813
    10   8 O        0.857    -0.231    18.587     5.780
    11   6 C        1.967    -0.041    32.162     9.158
    12   6 C        1.986    -0.019    31.548     9.071
    13   6 C        2.764     0.316    21.626     7.616
    14   8 O        0.858    -0.344    20.599     6.085
    15   7 N        1.824    -0.147    24.968     7.404
    16   6 C        1.890     0.087    28.945     8.689
    17   6 C        1.957     0.015    30.686     8.946
    18   6 C        2.962     0.091    25.978     8.360
    19   6 C        1.990    -0.026    31.737     9.098
    20   6 C        1.986     0.002    30.996     8.991
    21   6 C        1.987     0.043    29.957     8.839
    22   6 C        1.986     0.004    30.950     8.984
    23   6 C        1.989    -0.023    31.655     9.086

 Mol. C6AA /au·bohr⁶  :      14202.666477
 Mol. C8AA /au·bohr⁸  :     387620.877138
 Mol. α(0) /au        :        188.414050


Wiberg/Mayer (AO) data.
largest (>0.10) Wiberg bond orders for each atom

 ---------------------------------------------------------------------------
     #   Z sym  total        # sym  WBO       # sym  WBO       # sym  WBO
Note: The following floating-point exceptions are signalling: IEEE_UNDERFLOW_FLAG IEEE_DENORMAL
normal termination of xtb
 ---------------------------------------------------------------------------
     1   7 N    3.080 --     2 C    2.794     4 C    0.151
     2   6 C    3.939 --     1 N    2.794     3 C    1.049
     3   6 C    3.960 --     4 C    1.767     2 C    1.049    13 C    0.930
     4   6 C    3.790 --     3 C    1.767     5 C    1.237    11 C    0.295
                             1 N    0.151    12 C    0.108
     5   6 C    3.953 --     6 C    1.531     4 C    1.237    12 C    0.999
     6   6 C    3.544 --     5 C    1.531     7 C    1.159    12 C    0.347
                            11 C    0.204
     7   6 C    3.860 --     8 O    1.658     6 C    1.159     9 C    0.871
     8   8 O    2.022 --     7 C    1.658
     9   6 C    3.908 --    10 O    1.846    11 C    1.033     7 C    0.871
    10   8 O    2.207 --     9 C    1.846    12 C    0.148
    11   6 C    3.759 --    12 C    1.953     9 C    1.033     4 C    0.295
                             6 C    0.204
    12   6 C    3.768 --    11 C    1.953     5 C    0.999     6 C    0.347
                            10 O    0.148     4 C    0.108
    13   6 C    3.920 --    14 O    1.709    15 N    1.168     3 C    0.930
    14   8 O    2.026 --    13 C    1.709    15 N    0.102
    15   7 N    3.188 --    16 C    1.586    13 C    1.168    17 C    0.159
                            14 O    0.102
    16   6 C    3.459 --    17 C    1.623    15 N    1.586
    17   6 C    3.208 --    16 C    1.623    18 C    1.110    15 N    0.159
    18   6 C    3.913 --    19 C    1.281    23 C    1.279    17 C    1.110
    19   6 C    3.490 --    20 C    1.633    18 C    1.281    22 C    0.238
                            21 C    0.159
    20   6 C    3.676 --    19 C    1.633    21 C    1.606    23 C    0.241
    21   6 C    3.760 --    22 C    1.628    20 C    1.606    23 C    0.199
                            19 C    0.159
    22   6 C    3.608 --    21 C    1.628    23 C    1.621    19 C    0.238
    23   6 C    3.539 --    22 C    1.621    18 C    1.279    20 C    0.241
                            21 C    0.199
 ---------------------------------------------------------------------------

Topologies differ in total number of bonds
Writing topology from bond orders to xtbtopo.mol

molecular dipole:
                 x           y           z       tot (Debye)
 q only:        0.433       2.076       1.842
   full:        0.799       2.348       1.827       7.831
molecular quadrupole (traceless):
                xx          xy          yy          xz          yz          zz
 q only:        9.093       6.964     -21.215       4.645     -17.859      12.122
  q+dip:        8.872       1.537     -24.506       7.257     -17.500      15.634
   full:       10.646       2.410     -26.659       7.769     -15.607      16.012


           -------------------------------------------------
          | TOTAL ENERGY              -55.422264488011 Eh   |
          | GRADIENT NORM               0.428234011756 Eh/α |
          | HOMO-LUMO GAP               0.054471795193 eV   |
           -------------------------------------------------

------------------------------------------------------------------------
 * finished run on 2026/07/23 at 16:41:45.055     
------------------------------------------------------------------------
 total:
 * wall-time:     0 d,  0 h,  0 min,  0.243 sec
 *  cpu-time:     0 d,  0 h,  0 min,  0.237 sec
 * ratio c/w:     0.975 speedup
 SCF:
 * wall-time:     0 d,  0 h,  0 min,  0.219 sec
 *  cpu-time:     0 d,  0 h,  0 min,  0.218 sec
 * ratio c/w:     0.996 speedup

