      -----------------------------------------------------------      
     |                   =====================                   |     
     |                           x T B                           |     
     |                   =====================                   |     
     |                         S. Grimme                         |     
     |          Mulliken Center for Theoretical Chemistry        |     
     |                    University of Bonn                     |     
      -----------------------------------------------------------      

   * xtb version 6.6.1 (unknown) compiled by 'builduser@buildhost' on 2023-08-07

   xtb is free software: you can redistribute it and/or modify it under
   the terms of the GNU Lesser General Public License as published by
   the Free Software Foundation, either version 3 of the License, or
   (at your option) any later version.
   
   xtb is distributed in the hope that it will be useful,
   but WITHOUT ANY WARRANTY; without even the implied warranty of
   MERCHANTABILITY or FITNESS FOR A PARTICULAR PURPOSE.  See the
   GNU Lesser General Public License for more details.
   
   Cite this work as:
   * C. Bannwarth, E. Caldeweyher, S. Ehlert, A. Hansen, P. Pracht,
     J. Seibert, S. Spicher, S. Grimme, WIREs Comput. Mol. Sci., 2020, 11,
     e01493. DOI: 10.1002/wcms.1493
   
   for GFN2-xTB:
   * C. Bannwarth, S. Ehlert and S. Grimme., J. Chem. Theory Comput., 2019,
     15, 1652-1671. DOI: 10.1021/acs.jctc.8b01176
   for GFN1-xTB:
   * S. Grimme, C. Bannwarth, P. Shushkov, J. Chem. Theory Comput., 2017,
     13, 1989-2009. DOI: 10.1021/acs.jctc.7b00118
   for GFN0-xTB:
   * P. Pracht, E. Caldeweyher, S. Ehlert, S. Grimme, ChemRxiv, 2019, preprint.
     DOI: 10.26434/chemrxiv.8326202.v1
   for GFN-FF:
   * S. Spicher and S. Grimme, Angew. Chem. Int. Ed., 2020, 59, 15665-15673.
     DOI: 10.1002/anie.202004239
   
   for ALPB and GBSA implicit solvation:
   * S. Ehlert, M. Stahn, S. Spicher, S. Grimme, J. Chem. Theory Comput.,
     2021, 17, 4250-4261. DOI: 10.1021/acs.jctc.1c00471
   
   for DFT-D4:
   * E. Caldeweyher, C. Bannwarth and S. Grimme, J. Chem. Phys., 2017,
     147, 034112. DOI: 10.1063/1.4993215
   * E. Caldeweyher, S. Ehlert, A. Hansen, H. Neugebauer, S. Spicher,
     C. Bannwarth and S. Grimme, J. Chem. Phys., 2019, 150, 154122.
     DOI: 10.1063/1.5090222
   * E. Caldeweyher, J.-M. Mewes, S. Ehlert and S. Grimme, Phys. Chem. Chem. Phys.
     2020, 22, 8499-8512. DOI: 10.1039/D0CP00502A
   
   for sTDA-xTB:
   * S. Grimme and C. Bannwarth, J. Chem. Phys., 2016, 145, 054103.
     DOI: 10.1063/1.4959605
   
   in the mass-spec context:
   * V. Asgeirsson, C. Bauer and S. Grimme, Chem. Sci., 2017, 8, 4879.
     DOI: 10.1039/c7sc00601b
   * J. Koopman and S. Grimme, ACS Omega 2019, 4, 12, 15120-15133.
     DOI: 10.1021/acsomega.9b02011
   
   for metadynamics refer to:
   * S. Grimme, J. Chem. Theory Comput., 2019, 155, 2847-2862
     DOI: 10.1021/acs.jctc.9b00143
   
   for SPH calculations refer to:
   * S. Spicher and S. Grimme, J. Chem. Theory Comput., 2021, 17, 1701-1714
     DOI: 10.1021/acs.jctc.0c01306
   
   with help from (in alphabetical order)
   P. Atkinson, C. Bannwarth, F. Bohle, G. Brandenburg, E. Caldeweyher
   M. Checinski, S. Dohm, S. Ehlert, S. Ehrlich, I. Gerasimov, C. Hölzer
   A. Katbashev, J. Koopman, C. Lavigne, S. Lehtola, F. März, M. Müller,
   F. Musil, H. Neugebauer, J. Pisarek, C. Plett, P. Pracht, F. Pultar,
   J. Seibert, P. Shushkov, S. Spicher, M. Stahn, M. Steiner, T. Strunk,
   J. Stückrath, T. Rose, and J. Unsleber
   
 * started run on 2026/07/23 at 16:40:20.491     

           -------------------------------------------------
          |                Calculation Setup                |
           -------------------------------------------------

          program call               : xtb /home/selva/covalent_quantum_benchmark/data/quantum/erbB_xyz/ERBB2__CHEMBL175556__state03.xyz --gfn2 --chrg 0 --uhf 0 --iterations 300
          coordinate file            : /home/selva/covalent_quantum_benchmark/data/quantum/erbB_xyz/ERBB2__CHEMBL175556__state03.xyz
          omp threads                :                    24

   ID    Z sym.   atoms
    1    6 C      1, 2, 4-6, 8-10, 12, 14-17, 19-26, 28-31, 33, 35-37, 39,
                  40, 42, 43
    2    8 O      3, 18, 34, 41
    3    7 N      7, 11, 13, 32, 38
    4   17 Cl     27

           -------------------------------------------------
          |                 G F N 2 - x T B                 |
           -------------------------------------------------

        Reference                      10.1021/acs.jctc.8b01176
      * Hamiltonian:
        H0-scaling (s, p, d)           1.850000    2.230000    2.230000
        zeta-weighting                 0.500000
      * Dispersion:
        s8                             2.700000
        a1                             0.520000
        a2                             5.000000
        s9                             5.000000
      * Repulsion:
        kExp                           1.500000    1.000000
        rExp                           1.000000
      * Coulomb:
        alpha                          2.000000
        third order                    shell-resolved
        anisotropic                    true
        a3                             3.000000
        a5                             4.000000
        cn-shift                       1.200000
        cn-exp                         4.000000
        max-rad                        5.000000


          ...................................................
          :                      SETUP                      :
          :.................................................:
          :  # basis functions                 178          :
          :  # atomic orbitals                 177          :
          :  # shells                           87          :
          :  # electrons                       188          :
          :  max. iterations                   300          :
          :  Hamiltonian                  GFN2-xTB          :
          :  restarted?                      false          :
          :  GBSA solvation                  false          :
          :  PC potential                    false          :
          :  electronic temp.          300.0000000     K    :
          :  accuracy                    1.0000000          :
          :  -> integral cutoff          0.2500000E+02      :
          :  -> integral neglect         0.1000000E-07      :
          :  -> SCF convergence          0.1000000E-05 Eh   :
          :  -> wf. convergence          0.1000000E-03 e    :
          :  Broyden damping             0.4000000          :
          ...................................................

 iter      E             dE          RMSdq      gap      omega  full diag
   1   -104.2219983 -0.104222E+03  0.823E+00    0.18       0.0  T
   2    -83.3145495  0.209074E+02  0.119E+01    0.27       1.0  T
   3    -51.4025893  0.319120E+02  0.144E+01    0.09       1.0  T
   4    -83.1088395 -0.317063E+02  0.102E+01    0.11       1.0  T
   5    -86.4618832 -0.335304E+01  0.958E+00    0.13       1.0  T
   6    -97.8087499 -0.113469E+02  0.702E+00    0.20       1.0  T
   7   -101.5730883 -0.376434E+01  0.579E+00    0.08       1.0  T
   8   -102.6270007 -0.105391E+01  0.523E+00    0.09       1.0  T
   9   -101.9043628  0.722638E+00  0.551E+00    0.10       1.0  T
  10   -103.5938911 -0.168953E+01  0.369E+00    0.03       1.0  T
  11   -103.0503852  0.543506E+00  0.437E+00    0.14       1.0  T
  12   -104.5196124 -0.146923E+01  0.317E+00    0.15       1.0  T
  13   -104.4791026  0.405098E-01  0.313E+00    0.07       1.0  T
  14   -104.6700825 -0.190980E+00  0.278E+00    0.07       1.0  T
  15   -104.6085932  0.614893E-01  0.283E+00    0.05       1.0  T
  16   -104.5851408  0.234524E-01  0.286E+00    0.04       1.0  T
  17   -104.0640114  0.521129E+00  0.341E+00    0.05       1.0  T
  18   -104.5548270 -0.490816E+00  0.253E+00    0.05       1.0  T
  19   -104.1837933  0.371034E+00  0.301E+00    0.05       1.0  T
  20   -104.8744618 -0.690668E+00  0.205E+00    0.01       1.0  T
  21   -104.9143224 -0.398606E-01  0.178E+00    0.01       1.0  T
  22   -104.8892508  0.250716E-01  0.190E+00    0.05       1.0  T
  23   -104.3777662  0.511485E+00  0.331E+00    0.03       1.0  T
  24   -104.3519304  0.258358E-01  0.304E+00    0.05       1.0  T
  25   -103.6891389  0.662792E+00  0.396E+00    0.05       1.0  T
  26   -104.2088405 -0.519702E+00  0.337E+00    0.02       1.0  T
  27   -104.6015858 -0.392745E+00  0.259E+00    0.01       1.0  T
  28   -104.5621248  0.394609E-01  0.261E+00    0.03       1.0  T
  29   -104.5591614  0.296342E-02  0.232E+00    0.01       1.0  T
  30   -104.6594563 -0.100295E+00  0.206E+00    0.01       1.0  T
  31   -104.6851996 -0.257433E-01  0.202E+00    0.01       1.0  T
  32   -104.6933147 -0.811509E-02  0.189E+00    0.01       1.0  T
  33   -104.7383325 -0.450178E-01  0.179E+00    0.01       1.0  T
  34   -104.9297997 -0.191467E+00  0.989E-01    0.01       1.0  T
  35   -105.0162499 -0.864502E-01  0.690E-01    0.02       1.0  T
  36   -105.0069903  0.925958E-02  0.777E-01    0.02       1.0  T
  37   -104.9966463  0.103440E-01  0.819E-01    0.02       1.0  T
  38   -105.0466019 -0.499555E-01  0.549E-01    0.01       1.0  T
  39   -104.9740560  0.725459E-01  0.100E+00    0.01       1.0  T
  40   -104.9793206 -0.526463E-02  0.959E-01    0.01       1.0  T
  41   -104.9888093 -0.948871E-02  0.920E-01    0.01       1.0  T
  42   -105.0544793 -0.656700E-01  0.456E-01    0.01       1.0  T
  43   -105.0396759  0.148034E-01  0.544E-01    0.02       1.0  T
  44   -105.0628844 -0.232085E-01  0.375E-01    0.01       1.0  T
  45   -105.0587234  0.416099E-02  0.390E-01    0.01       1.0  T
  46   -105.0630106 -0.428721E-02  0.351E-01    0.01       1.0  T
  47   -105.0722299 -0.921928E-02  0.251E-01    0.00       1.0  T
  48   -105.0711380  0.109189E-02  0.260E-01    0.01       1.0  T
  49   -105.0731419 -0.200386E-02  0.217E-01    0.01       1.0  T
  50   -105.0766019 -0.346001E-02  0.110E-01    0.01       1.0  T
  51   -105.0762039  0.397981E-03  0.114E-01    0.01       1.0  T
  52   -105.0760749  0.128972E-03  0.110E-01    0.01       1.0  T
  53   -105.0766416 -0.566629E-03  0.991E-02    0.01       1.0  T
  54   -105.0773479 -0.706308E-03  0.580E-02    0.01       1.0  T
  55   -105.0774339 -0.860553E-04  0.512E-02    0.01       1.0  T
  56   -105.0773457  0.882476E-04  0.475E-02    0.01       1.0  T
  57   -105.0769826  0.363033E-03  0.787E-02    0.00       1.0  T
  58   -105.0775301 -0.547477E-03  0.310E-02    0.01       1.0  T
  59   -105.0775825 -0.523416E-04  0.229E-02    0.01       1.0  T
  60   -105.0775778  0.461832E-05  0.223E-02    0.01       1.0  T
  61   -105.0775957 -0.178351E-04  0.194E-02    0.01       1.0  T
  62   -105.0776265 -0.307976E-04  0.121E-02    0.01       1.3  T
  63   -105.0776444 -0.179659E-04  0.473E-03    0.01       3.2  T
  64   -105.0776449 -0.453799E-06  0.407E-03    0.01       3.7  T
  65   -105.0776456 -0.701145E-06  0.331E-03    0.01       4.6  T
  66   -105.0776458 -0.195777E-06  0.291E-03    0.01       5.2  T
  67   -105.0776467 -0.944046E-06  0.459E-04    0.01      33.2  T
  68   -105.0776467  0.692466E-07  0.897E-04    0.01      17.0  T

   *** convergence criteria satisfied after 68 iterations ***

         #    Occupation            Energy/Eh            Energy/eV
      -------------------------------------------------------------
         1        2.0000           -1.0938729             -29.7658
       ...           ...                  ...                  ...
        88        1.9772           -0.4271837             -11.6243
        89        1.9662           -0.4268041             -11.6139
        90        1.8617           -0.4254138             -11.5761
        91        1.8072           -0.4250705             -11.5668
        92        1.6945           -0.4245718             -11.5532
        93        1.6921           -0.4245630             -11.5529
        94        1.2178           -0.4233647             -11.5203 (HOMO)
        95        1.1054           -0.4231452             -11.5144 (LUMO)
        96        0.5337           -0.4219841             -11.4828
        97        0.1442           -0.4205172             -11.4429
        98        0.0000           -0.4112593             -11.1909
        99        0.0000           -0.4079146             -11.0999
       ...           ...                  ...                  ...
       177                          1.0374797              28.2313
      -------------------------------------------------------------
                  HL-Gap            0.0002195 Eh            0.0060 eV
             Fermi-level           -0.4229442 Eh          -11.5089 eV

 SCC (total)                   0 d,  0 h,  0 min,  1.711 sec
 SCC setup                      ...        0 min,  0.000 sec (  0.013%)
 Dispersion                     ...        0 min,  0.003 sec (  0.147%)
 classical contributions        ...        0 min,  0.002 sec (  0.130%)
 integral evaluation            ...        0 min,  0.007 sec (  0.400%)
 iterations                     ...        0 min,  1.658 sec ( 96.934%)
 molecular gradient             ...        0 min,  0.036 sec (  2.124%)
 printout                       ...        0 min,  0.004 sec (  0.248%)

         :::::::::::::::::::::::::::::::::::::::::::::::::::::
         ::                     SUMMARY                     ::
         :::::::::::::::::::::::::::::::::::::::::::::::::::::
         :: total energy            -103.938430763389 Eh    ::
         :: gradient norm              0.590969115239 Eh/a0 ::
         :: HOMO-LUMO gap              0.005972621711 eV    ::
         ::.................................................::
         :: SCC energy              -105.077646661361 Eh    ::
         :: -> isotropic ES            0.047915591415 Eh    ::
         :: -> anisotropic ES          0.009573373646 Eh    ::
         :: -> anisotropic XC          0.062059486493 Eh    ::
         :: -> dispersion             -0.064999496580 Eh    ::
         :: repulsion energy           1.138008252333 Eh    ::
         :: add. restraining           0.000000000000 Eh    ::
         :: total charge               0.000000000040 e     ::
         :::::::::::::::::::::::::::::::::::::::::::::::::::::

           -------------------------------------------------
          |                Property Printout                |
           -------------------------------------------------

    * Orbital Energies and Occupations

         #    Occupation            Energy/Eh            Energy/eV
      -------------------------------------------------------------
         1        2.0000           -1.0938729             -29.7658
       ...           ...                  ...                  ...
        82        2.0000           -0.4458488             -12.1322
        83        2.0000           -0.4422766             -12.0350
        84        2.0000           -0.4405727             -11.9886
        85        2.0000           -0.4383945             -11.9293
        86        2.0000           -0.4356008             -11.8533
        87        2.0000           -0.4337582             -11.8032
        88        1.9772           -0.4271837             -11.6243
        89        1.9662           -0.4268041             -11.6139
        90        1.8617           -0.4254138             -11.5761
        91        1.8072           -0.4250705             -11.5668
        92        1.6945           -0.4245718             -11.5532
        93        1.6921           -0.4245630             -11.5529
        94        1.2178           -0.4233647             -11.5203 (HOMO)
        95        1.1054           -0.4231452             -11.5144 (LUMO)
        96        0.5337           -0.4219841             -11.4828
        97        0.1442           -0.4205172             -11.4429
        98        0.0000           -0.4112593             -11.1909
        99        0.0000           -0.4079146             -11.0999
       100                         -0.3905689             -10.6279
       101                         -0.3867202             -10.5232
       102                         -0.3755584             -10.2195
       103                         -0.3704695             -10.0810
       104                         -0.3664115              -9.9706
       105                         -0.3642461              -9.9116
       ...                                ...                  ...
       177                          1.0374797              28.2313
      -------------------------------------------------------------
                  HL-Gap            0.0002195 Eh            0.0060 eV
             Fermi-level           -0.4229442 Eh          -11.5089 eV

     #   Z          covCN         q      C6AA      α(0)
     1   6 C        0.976    -0.093    38.832    10.464
     2   6 C        1.866     0.107    28.484     8.621
     3   8 O        1.702    -0.115    16.056     5.410
     4   6 C        2.888     0.163    24.486     8.113
     5   6 C        2.002    -0.078    33.155     9.299
     6   6 C        2.952     0.120    25.357     8.259
     7   7 N        1.845    -0.101    23.969     7.256
     8   6 C        1.970     0.067    29.369     8.752
     9   6 C        2.959     0.039    27.131     8.544
    10   6 C        1.907     0.125    28.045     8.553
    11   7 N        0.911    -0.172    24.719     7.191
    12   6 C        2.911     0.130    25.155     8.224
    13   7 N        1.828    -0.145    24.924     7.398
    14   6 C        2.892     0.140    24.943     8.188
    15   6 C        1.990    -0.060    32.655     9.229
    16   6 C        1.986    -0.062    32.725     9.238
    17   6 C        2.877     0.169    24.355     8.090
    18   8 O        1.702    -0.129    16.249     5.442
    19   6 C        1.844     0.053    29.807     8.820
    20   6 C        2.958     0.069    26.454     8.436
    21   6 C        1.988    -0.021    31.608     9.079
    22   6 C        1.985     0.001    31.037     8.997
    23   6 C        1.987     0.029    30.305     8.890
    24   6 C        1.985    -0.010    31.329     9.039
    25   6 C        1.989    -0.031    31.872     9.117
    26   6 C        2.878     0.090    25.996     8.358
    27  17 Cl       0.959    -0.063   101.136    15.385
    28   6 C        2.033    -0.064    32.727     9.240
    29   6 C        2.976     0.019    27.570     8.613
    30   6 C        2.000    -0.061    32.700     9.235
    31   6 C        2.914     0.120    25.366     8.259
    32   7 N        1.831    -0.190    25.927     7.545
    33   6 C        2.776     0.298    21.948     7.673
    34   8 O        0.858    -0.400    21.675     6.242
    35   6 C        1.968     0.035    30.178     8.871
    36   6 C        1.969     0.027    30.368     8.899
    37   6 C        1.907     0.013    30.762     8.957
    38   7 N        2.722     0.087    19.737     6.598
    39   6 C        1.897    -0.046    32.356     9.187
    40   6 C        1.840     0.034    30.289     8.891
    41   8 O        1.695    -0.116    16.068     5.412
    42   6 C        1.841     0.063    29.560     8.783
    43   6 C        1.903    -0.042    32.228     9.168

 Mol. C6AA /au·bohr⁶  :      52600.306123
 Mol. C8AA /au·bohr⁸  :    1471607.894814
 Mol. α(0) /au        :        363.966490


Wiberg/Mayer (AO) data.
largest (>0.10) Wiberg bond orders for each atom

 ---------------------------------------------------------------------------
     #   Z sym  total        # sym  WBO       # sym  WBO       # sym  WBO
 ---------------------------------------------------------------------------
     1   6 C    2.412 --     2 C    2.165     3 O    0.112
     2   6 C    3.372 --     1 C    2.165     3 O    1.107
     3   8 O    2.345 --     2 C    1.107     4 C    1.023     1 C    0.112
     4   6 C    3.896 --     5 C    1.510    31 C    1.112     3 O    1.023
     5   6 C    3.643 --     4 C    1.510     6 C    1.345    30 C    0.437
     6   6 C    3.900 --     5 C    1.345     7 N    1.255    29 C    1.079
     7   7 N    3.270 --     8 C    1.669     6 C    1.255
     8   6 C    3.621 --     7 N    1.669     9 C    1.394    13 N    0.196
     9   6 C    3.927 --     8 C    1.394    12 C    1.220    10 C    1.081
    10   6 C    3.945 --    11 N    2.816     9 C    1.081
    11   7 N    2.992 --    10 C    2.816
    12   6 C    3.948 --    13 N    1.264     9 C    1.220    29 C    1.190
Note: The following floating-point exceptions are signalling: IEEE_UNDERFLOW_FLAG IEEE_DENORMAL
normal termination of xtb
    13   7 N    3.127 --    12 C    1.264    14 C    1.261     8 C    0.196
    14   6 C    3.906 --    28 C    1.269    13 N    1.261    15 C    1.201
    15   6 C    3.591 --    16 C    1.736    14 C    1.201    28 C    0.325
    16   6 C    3.452 --    15 C    1.736    17 C    1.323    28 C    0.163
    17   6 C    3.823 --    16 C    1.323    26 C    1.199    18 O    1.059
    18   8 O    2.435 --    19 C    1.184    17 C    1.059
    19   6 C    2.834 --    18 O    1.184    20 C    1.139
    20   6 C    3.893 --    21 C    1.283    25 C    1.275    19 C    1.139
    21   6 C    3.488 --    22 C    1.621    20 C    1.283    24 C    0.225
                            23 C    0.190
    22   6 C    3.596 --    21 C    1.621    23 C    1.594    25 C    0.231
    23   6 C    3.744 --    22 C    1.594    24 C    1.580    25 C    0.191
                            21 C    0.190
    24   6 C    3.590 --    25 C    1.608    23 C    1.580    21 C    0.225
    25   6 C    3.487 --    24 C    1.608    20 C    1.275    22 C    0.231
                            23 C    0.191
    26   6 C    3.884 --    28 C    1.493    17 C    1.199    27 Cl   1.009
    27  17 Cl   1.190 --    26 C    1.009
    28   6 C    3.462 --    26 C    1.493    14 C    1.269    15 C    0.325
                            16 C    0.163
    29   6 C    3.946 --    30 C    1.418    12 C    1.190     6 C    1.079
    30   6 C    3.706 --    31 C    1.426    29 C    1.418     5 C    0.437
    31   6 C    3.923 --    30 C    1.426    32 N    1.177     4 C    1.112
    32   7 N    3.071 --    33 C    1.432    31 C    1.177    34 O    0.159
    33   6 C    3.938 --    32 N    1.432    34 O    1.395    35 C    1.019
    34   8 O    1.776 --    33 C    1.395    32 N    0.159
    35   6 C    3.751 --    36 C    2.304    33 C    1.019    37 C    0.155
    36   6 C    3.825 --    35 C    2.304    37 C    1.319
    37   6 C    3.239 --    36 C    1.319    38 N    1.180    39 C    0.255
                            35 C    0.155    40 C    0.122
    38   7 N    3.570 --    37 C    1.180    39 C    1.112    43 C    1.034
                            40 C    0.101
    39   6 C    3.076 --    40 C    1.273    38 N    1.112    37 C    0.255
                            43 C    0.181
    40   6 C    2.892 --    39 C    1.273    41 O    1.204    37 C    0.122
                            38 N    0.101
    41   8 O    2.510 --    40 C    1.204    42 C    1.135
    42   6 C    3.128 --    43 C    1.683    41 O    1.135
    43   6 C    3.073 --    42 C    1.683    38 N    1.034    39 C    0.181
 ---------------------------------------------------------------------------

Topologies differ in total number of bonds
Writing topology from bond orders to xtbtopo.mol

molecular dipole:
                 x           y           z       tot (Debye)
 q only:        0.920      -0.151       1.620
   full:        0.904       0.226       1.011       3.496
molecular quadrupole (traceless):
                xx          xy          yy          xz          yz          zz
 q only:      -14.900       3.168       9.534      -3.687      -4.517       5.366
  q+dip:       -7.999      12.825       3.405     -11.330     -11.213       4.594
   full:       -9.596      13.973       1.428     -10.296      -8.260       8.169


           -------------------------------------------------
          | TOTAL ENERGY             -103.938430763389 Eh   |
          | GRADIENT NORM               0.590969115239 Eh/α |
          | HOMO-LUMO GAP               0.005972621711 eV   |
           -------------------------------------------------

------------------------------------------------------------------------
 * finished run on 2026/07/23 at 16:40:22.219     
------------------------------------------------------------------------
 total:
 * wall-time:     0 d,  0 h,  0 min,  1.728 sec
 *  cpu-time:     0 d,  0 h,  0 min,  1.736 sec
 * ratio c/w:     1.005 speedup
 SCF:
 * wall-time:     0 d,  0 h,  0 min,  1.711 sec
 *  cpu-time:     0 d,  0 h,  0 min,  1.705 sec
 * ratio c/w:     0.996 speedup

