      -----------------------------------------------------------      
     |                   =====================                   |     
     |                           x T B                           |     
     |                   =====================                   |     
     |                         S. Grimme                         |     
     |          Mulliken Center for Theoretical Chemistry        |     
     |                    University of Bonn                     |     
      -----------------------------------------------------------      

   * xtb version 6.6.1 (unknown) compiled by 'builduser@buildhost' on 2023-08-07

   xtb is free software: you can redistribute it and/or modify it under
   the terms of the GNU Lesser General Public License as published by
   the Free Software Foundation, either version 3 of the License, or
   (at your option) any later version.
   
   xtb is distributed in the hope that it will be useful,
   but WITHOUT ANY WARRANTY; without even the implied warranty of
   MERCHANTABILITY or FITNESS FOR A PARTICULAR PURPOSE.  See the
   GNU Lesser General Public License for more details.
   
   Cite this work as:
   * C. Bannwarth, E. Caldeweyher, S. Ehlert, A. Hansen, P. Pracht,
     J. Seibert, S. Spicher, S. Grimme, WIREs Comput. Mol. Sci., 2020, 11,
     e01493. DOI: 10.1002/wcms.1493
   
   for GFN2-xTB:
   * C. Bannwarth, S. Ehlert and S. Grimme., J. Chem. Theory Comput., 2019,
     15, 1652-1671. DOI: 10.1021/acs.jctc.8b01176
   for GFN1-xTB:
   * S. Grimme, C. Bannwarth, P. Shushkov, J. Chem. Theory Comput., 2017,
     13, 1989-2009. DOI: 10.1021/acs.jctc.7b00118
   for GFN0-xTB:
   * P. Pracht, E. Caldeweyher, S. Ehlert, S. Grimme, ChemRxiv, 2019, preprint.
     DOI: 10.26434/chemrxiv.8326202.v1
   for GFN-FF:
   * S. Spicher and S. Grimme, Angew. Chem. Int. Ed., 2020, 59, 15665-15673.
     DOI: 10.1002/anie.202004239
   
   for ALPB and GBSA implicit solvation:
   * S. Ehlert, M. Stahn, S. Spicher, S. Grimme, J. Chem. Theory Comput.,
     2021, 17, 4250-4261. DOI: 10.1021/acs.jctc.1c00471
   
   for DFT-D4:
   * E. Caldeweyher, C. Bannwarth and S. Grimme, J. Chem. Phys., 2017,
     147, 034112. DOI: 10.1063/1.4993215
   * E. Caldeweyher, S. Ehlert, A. Hansen, H. Neugebauer, S. Spicher,
     C. Bannwarth and S. Grimme, J. Chem. Phys., 2019, 150, 154122.
     DOI: 10.1063/1.5090222
   * E. Caldeweyher, J.-M. Mewes, S. Ehlert and S. Grimme, Phys. Chem. Chem. Phys.
     2020, 22, 8499-8512. DOI: 10.1039/D0CP00502A
   
   for sTDA-xTB:
   * S. Grimme and C. Bannwarth, J. Chem. Phys., 2016, 145, 054103.
     DOI: 10.1063/1.4959605
   
   in the mass-spec context:
   * V. Asgeirsson, C. Bauer and S. Grimme, Chem. Sci., 2017, 8, 4879.
     DOI: 10.1039/c7sc00601b
   * J. Koopman and S. Grimme, ACS Omega 2019, 4, 12, 15120-15133.
     DOI: 10.1021/acsomega.9b02011
   
   for metadynamics refer to:
   * S. Grimme, J. Chem. Theory Comput., 2019, 155, 2847-2862
     DOI: 10.1021/acs.jctc.9b00143
   
   for SPH calculations refer to:
   * S. Spicher and S. Grimme, J. Chem. Theory Comput., 2021, 17, 1701-1714
     DOI: 10.1021/acs.jctc.0c01306
   
   with help from (in alphabetical order)
   P. Atkinson, C. Bannwarth, F. Bohle, G. Brandenburg, E. Caldeweyher
   M. Checinski, S. Dohm, S. Ehlert, S. Ehrlich, I. Gerasimov, C. Hölzer
   A. Katbashev, J. Koopman, C. Lavigne, S. Lehtola, F. März, M. Müller,
   F. Musil, H. Neugebauer, J. Pisarek, C. Plett, P. Pracht, F. Pultar,
   J. Seibert, P. Shushkov, S. Spicher, M. Stahn, M. Steiner, T. Strunk,
   J. Stückrath, T. Rose, and J. Unsleber
   
 * started run on 2026/07/23 at 16:42:58.814     

           -------------------------------------------------
          |                Calculation Setup                |
           -------------------------------------------------

          program call               : xtb /home/selva/covalent_quantum_benchmark/data/quantum/erbB_xyz/ERBB2__CHEMBL442754__state00.xyz --gfn2 --chrg 0 --uhf 0 --iterations 300
          coordinate file            : /home/selva/covalent_quantum_benchmark/data/quantum/erbB_xyz/ERBB2__CHEMBL442754__state00.xyz
          omp threads                :                    24

   ID    Z sym.   atoms
    1    6 C      1, 3, 4, 6-10, 13-16, 18, 20, 22-26, 28-30
    2    8 O      2, 11
    3    7 N      5, 12, 17, 19, 21
    4   35 Br     27

           -------------------------------------------------
          |                 G F N 2 - x T B                 |
           -------------------------------------------------

        Reference                      10.1021/acs.jctc.8b01176
      * Hamiltonian:
        H0-scaling (s, p, d)           1.850000    2.230000    2.230000
        zeta-weighting                 0.500000
      * Dispersion:
        s8                             2.700000
        a1                             0.520000
        a2                             5.000000
        s9                             5.000000
      * Repulsion:
        kExp                           1.500000    1.000000
        rExp                           1.000000
      * Coulomb:
        alpha                          2.000000
        third order                    shell-resolved
        anisotropic                    true
        a3                             3.000000
        a5                             4.000000
        cn-shift                       1.200000
        cn-exp                         4.000000
        max-rad                        5.000000


          ...................................................
          :                      SETUP                      :
          :.................................................:
          :  # basis functions                 126          :
          :  # atomic orbitals                 125          :
          :  # shells                           61          :
          :  # electrons                       132          :
          :  max. iterations                   300          :
          :  Hamiltonian                  GFN2-xTB          :
          :  restarted?                      false          :
          :  GBSA solvation                  false          :
          :  PC potential                    false          :
          :  electronic temp.          300.0000000     K    :
          :  accuracy                    1.0000000          :
          :  -> integral cutoff          0.2500000E+02      :
          :  -> integral neglect         0.1000000E-07      :
          :  -> SCF convergence          0.1000000E-05 Eh   :
          :  -> wf. convergence          0.1000000E-03 e    :
          :  Broyden damping             0.4000000          :
          ...................................................

 iter      E             dE          RMSdq      gap      omega  full diag
   1    -72.2162984 -0.722163E+02  0.875E+00    0.29       0.0  T
   2    -47.7558535  0.244604E+02  0.144E+01    0.16       1.0  T
   3    -38.0109333  0.974492E+01  0.132E+01    0.27       1.0  T
   4    -26.9657606  0.110452E+02  0.156E+01    0.29       1.0  T
   5    -67.7017215 -0.407360E+02  0.859E+00    0.19       1.0  T
   6    -71.5565422 -0.385482E+01  0.643E+00    0.11       1.0  T
   7    -72.5826609 -0.102612E+01  0.493E+00    0.03       1.0  T
   8    -72.2938328  0.288828E+00  0.460E+00    0.13       1.0  T
   9    -72.9097649 -0.615932E+00  0.336E+00    0.06       1.0  T
  10    -72.5952331  0.314532E+00  0.384E+00    0.15       1.0  T
  11    -72.6134972 -0.182641E-01  0.358E+00    0.04       1.0  T
  12    -72.7636585 -0.150161E+00  0.336E+00    0.09       1.0  T
  13    -72.4395851  0.324073E+00  0.401E+00    0.09       1.0  T
  14    -72.6458115 -0.206226E+00  0.311E+00    0.05       1.0  T
  15    -72.8422806 -0.196469E+00  0.261E+00    0.08       1.0  T
  16    -71.8556507  0.986630E+00  0.446E+00    0.15       1.0  T
  17    -72.3303064 -0.474656E+00  0.352E+00    0.08       1.0  T
  18    -72.6637258 -0.333419E+00  0.277E+00    0.03       1.0  T
  19    -72.8301710 -0.166445E+00  0.231E+00    0.01       1.0  T
  20    -72.7545125  0.756585E-01  0.249E+00    0.02       1.0  T
  21    -72.6771524  0.773601E-01  0.274E+00    0.04       1.0  T
  22    -72.7427487 -0.655963E-01  0.277E+00    0.04       1.0  T
  23    -73.0900048 -0.347256E+00  0.132E+00    0.03       1.0  T
  24    -73.1155724 -0.255676E-01  0.959E-01    0.02       1.0  T
  25    -73.1337555 -0.181831E-01  0.811E-01    0.01       1.0  T
  26    -73.1680482 -0.342928E-01  0.333E-01    0.02       1.0  T
  27    -73.1694418 -0.139358E-02  0.313E-01    0.03       1.0  T
  28    -73.1702595 -0.817667E-03  0.284E-01    0.03       1.0  T
  29    -73.1681949  0.206457E-02  0.334E-01    0.03       1.0  T
  30    -73.1678953  0.299609E-03  0.328E-01    0.03       1.0  T
  31    -73.1635194  0.437593E-02  0.407E-01    0.03       1.0  T
  32    -73.1712433 -0.772394E-02  0.192E-01    0.03       1.0  T
  33    -73.1710702  0.173068E-03  0.176E-01    0.03       1.0  T
  34    -73.1709656  0.104655E-03  0.179E-01    0.03       1.0  T
  35    -73.1725889 -0.162330E-02  0.952E-02    0.02       1.0  T
  36    -73.1729573 -0.368391E-03  0.586E-02    0.02       1.0  T
  37    -73.1726556  0.301678E-03  0.848E-02    0.02       1.0  T
  38    -73.1730999 -0.444337E-03  0.301E-02    0.02       1.0  T
  39    -73.1731251 -0.251712E-04  0.228E-02    0.02       1.0  T
  40    -73.1730839  0.412429E-04  0.307E-02    0.02       1.0  T
  41    -73.1730868 -0.292055E-05  0.281E-02    0.02       1.0  T
  42    -73.1730912 -0.439528E-05  0.255E-02    0.02       1.0  T
  43    -73.1731326 -0.414046E-04  0.734E-03    0.02       2.5  T
  44    -73.1731256  0.696098E-05  0.117E-02    0.02       1.6  T
  45    -73.1731303 -0.465119E-05  0.828E-03    0.02       2.2  T
  46    -73.1731331 -0.286391E-05  0.485E-03    0.02       3.8  T
  47    -73.1731344 -0.123459E-05  0.214E-03    0.02       8.5  T
  48    -73.1731346 -0.218741E-06  0.870E-04    0.02      21.0  T
  49    -73.1731346  0.190127E-07  0.857E-04    0.02      21.3  T

   *** convergence criteria satisfied after 49 iterations ***

         #    Occupation            Energy/Eh            Energy/eV
      -------------------------------------------------------------
         1        2.0000           -0.8646079             -23.5272
       ...           ...                  ...                  ...
        60        2.0000           -0.4330201             -11.7831
        61        2.0000           -0.4298639             -11.6972
        62        2.0000           -0.4277893             -11.6407
        63        2.0000           -0.4241290             -11.5411
        64        1.9673           -0.4171681             -11.3517
        65        1.5765           -0.4145245             -11.2798
        66        1.3785           -0.4140325             -11.2664 (HOMO)
        67        0.9636           -0.4132066             -11.2439 (LUMO)
        68        0.1139           -0.4106094             -11.1733
        69        0.0002           -0.4046097             -11.0100
        70        0.0000           -0.3976955             -10.8218
        71                         -0.3917775             -10.6608
       ...                                ...                  ...
       125                          0.6182728              16.8241
      -------------------------------------------------------------
                  HL-Gap            0.0008260 Eh            0.0225 eV
             Fermi-level           -0.4132758 Eh          -11.2458 eV

 SCC (total)                   0 d,  0 h,  0 min,  0.585 sec
 SCC setup                      ...        0 min,  0.000 sec (  0.054%)
 Dispersion                     ...        0 min,  0.002 sec (  0.406%)
 classical contributions        ...        0 min,  0.002 sec (  0.340%)
 integral evaluation            ...        0 min,  0.003 sec (  0.511%)
 iterations                     ...        0 min,  0.559 sec ( 95.571%)
 molecular gradient             ...        0 min,  0.017 sec (  2.894%)
 printout                       ...        0 min,  0.001 sec (  0.219%)

         :::::::::::::::::::::::::::::::::::::::::::::::::::::
         ::                     SUMMARY                     ::
         :::::::::::::::::::::::::::::::::::::::::::::::::::::
         :: total energy             -72.420260301996 Eh    ::
         :: gradient norm              0.526928619261 Eh/a0 ::
         :: HOMO-LUMO gap              0.022475546125 eV    ::
         ::.................................................::
         :: SCC energy               -73.173134575736 Eh    ::
         :: -> isotropic ES            0.013608853199 Eh    ::
         :: -> anisotropic ES          0.008661732655 Eh    ::
         :: -> anisotropic XC          0.038833832655 Eh    ::
         :: -> dispersion             -0.039249874254 Eh    ::
         :: repulsion energy           0.753374975132 Eh    ::
         :: add. restraining           0.000000000000 Eh    ::
         :: total charge               0.000000000007 e     ::
         :::::::::::::::::::::::::::::::::::::::::::::::::::::

           -------------------------------------------------
          |                Property Printout                |
           -------------------------------------------------

    * Orbital Energies and Occupations

         #    Occupation            Energy/Eh            Energy/eV
      -------------------------------------------------------------
         1        2.0000           -0.8646079             -23.5272
       ...           ...                  ...                  ...
        54        2.0000           -0.4542243             -12.3601
        55        2.0000           -0.4535519             -12.3418
        56        2.0000           -0.4490634             -12.2196
        57        2.0000           -0.4458544             -12.1323
        58        2.0000           -0.4412085             -12.0059
        59        2.0000           -0.4356231             -11.8539
        60        2.0000           -0.4330201             -11.7831
        61        2.0000           -0.4298639             -11.6972
        62        2.0000           -0.4277893             -11.6407
        63        2.0000           -0.4241290             -11.5411
        64        1.9673           -0.4171681             -11.3517
        65        1.5765           -0.4145245             -11.2798
        66        1.3785           -0.4140325             -11.2664 (HOMO)
        67        0.9636           -0.4132066             -11.2439 (LUMO)
        68        0.1139           -0.4106094             -11.1733
        69        0.0002           -0.4046097             -11.0100
        70        0.0000           -0.3976955             -10.8218
        71                         -0.3917775             -10.6608
        72                         -0.3899580             -10.6113
        73                         -0.3877340             -10.5508
        74                         -0.3669556              -9.9854
        75                         -0.3548267              -9.6553
        76                         -0.3488975              -9.4940
        77                         -0.3337956              -9.0830
       ...                                ...                  ...
       125                          0.6182728              16.8241
      -------------------------------------------------------------
                  HL-Gap            0.0008260 Eh            0.0225 eV
             Fermi-level           -0.4132758 Eh          -11.2458 eV

     #   Z          covCN         q      C6AA      α(0)
     1   6 C        0.876    -0.005    35.337     9.930
     2   8 O        1.697    -0.004    14.539     5.148
     3   6 C        1.849     0.015    30.770     8.961
     4   6 C        1.897    -0.012    31.426     9.054
     5   7 N        2.722     0.138    18.905     6.458
     6   6 C        0.932    -0.074    37.868    10.310
     7   6 C        1.908    -0.020    31.651     9.086
     8   6 C        1.967     0.025    30.422     8.907
     9   6 C        1.970    -0.010    31.320     9.038
    10   6 C        2.753     0.322    21.534     7.599
    11   8 O        0.857    -0.339    20.497     6.070
    12   7 N        1.835    -0.203    26.233     7.590
    13   6 C        2.893     0.148    24.780     8.162
    14   6 C        1.990    -0.012    31.371     9.045
    15   6 C        2.005    -0.026    31.738     9.098
    16   6 C        2.984     0.139    24.972     8.197
    17   7 N        1.843    -0.142    24.851     7.388
    18   6 C        1.957     0.150    27.446     8.460
    19   7 N        1.831    -0.179    25.682     7.510
    20   6 C        2.892     0.195    23.857     8.008
    21   7 N        1.830    -0.175    25.584     7.495
    22   6 C        2.891     0.134    25.072     8.209
    23   6 C        1.991     0.008    30.847     8.969
    24   6 C        1.986    -0.027    31.764     9.102
    25   6 C        2.062     0.012    30.639     8.941
    26   6 C        2.905     0.112    25.529     8.285
    27  35 Br       1.068    -0.067   186.847    22.040
    28   6 C        2.066    -0.072    32.893     9.264
    29   6 C        2.980     0.008    27.833     8.654
    30   6 C        1.998    -0.040    32.113     9.152

 Mol. C6AA /au·bohr⁶  :      27487.682906
 Mol. C8AA /au·bohr⁸  :     815040.947752
 Mol. α(0) /au        :        264.129189


Wiberg/Mayer (AO) data.
largest (>0.10) Wiberg bond orders for each atom

 ---------------------------------------------------------------------------
     #   Z sym  total        # sym  WBO       # sym  WBO       # sym  WBO
 ---------------------------------------------------------------------------
     1   6 C    2.038 --     2 O    1.607     4 C    0.237     3 C    0.181
     2   8 O    2.714 --     1 C    1.607     3 C    1.048
     3   6 C    3.312 --     4 C    1.808     2 O    1.048     1 C    0.181
                             6 C    0.113
     4   6 C    3.493 --     3 C    1.808     5 N    1.011     1 C    0.237
                             6 C    0.222     7 C    0.138
     5   7 N    3.670 --     6 C    1.472     7 C    1.067     4 C    1.011
     6   6 C    2.024 --     5 N    1.472     4 C    0.222     3 C    0.113
                             7 C    0.113
     7   6 C    3.068 --     8 C    1.360     5 N    1.067     9 C    0.199
                             4 C    0.138     6 C    0.113
     8   6 C    3.815 --     9 C    2.266     7 C    1.360
     9   6 C    3.715 --     8 C    2.266    10 C    0.971     7 C    0.199
    10   6 C    3.919 --    11 O    1.652    12 N    1.211     9 C    0.971
    11   8 O    2.045 --    10 C    1.652    12 N    0.109
    12   7 N    2.859 --    13 C    1.245    10 C    1.211    15 C    0.120
                            11 O    0.109
    13   6 C    3.898 --    30 C    1.292    12 N    1.245    14 C    1.211
    14   6 C    3.702 --    15 C    1.758    13 C    1.211    30 C    0.213
                            18 C    0.152
    15   6 C    3.503 --    14 C    1.758    16 C    1.269    30 C    0.151
                            12 N    0.120
    16   6 C    3.884 --    15 C    1.269    17 N    1.231    29 C    1.133
    17   7 N    3.152 --    18 C    1.594    16 C    1.231
    18   6 C    3.786 --    17 N    1.594    19 N    1.585    14 C    0.152
                            21 N    0.149
    19   7 N    3.151 --    18 C    1.585    20 C    1.220
    20   6 C    3.953 --    21 N    1.337    19 N    1.220    29 C    1.167
    21   7 N    3.108 --    20 C    1.337    22 C    1.190    18 C    0.149
    22   6 C    3.942 --    28 C    1.311    23 C    1.275    21 N    1.190
    23   6 C    3.714 --    24 C    1.630    22 C    1.275    25 C    0.398
                            28 C    0.158
    24   6 C    3.760 --    23 C    1.630    25 C    1.619    28 C    0.396
    25   6 C    3.705 --    24 C    1.619    26 C    1.359    23 C    0.398
                            28 C    0.146
    26   6 C    3.929 --    28 C    1.428    25 C    1.359    27 Br   0.994
    27  35 Br   1.195 --    26 C    0.994
    28   6 C    3.556 --    26 C    1.428    22 C    1.311    24 C    0.396
                            23 C    0.158    25 C    0.146
    29   6 C    3.946 --    30 C    1.391    20 C    1.167    16 C    1.133
    30   6 C    3.392 --    29 C    1.391    13 C    1.292    14 C    0.213
                            15 C    0.151
 ---------------------------------------------------------------------------

Topologies differ in total number of bonds
Writing topology from bond orders to xtbtopo.mol
Note: The following floating-point exceptions are signalling: IEEE_UNDERFLOW_FLAG IEEE_DENORMAL
normal termination of xtb

molecular dipole:
                 x           y           z       tot (Debye)
 q only:       -0.382      -0.545       0.111
   full:        0.452      -1.026      -0.944       3.725
molecular quadrupole (traceless):
                xx          xy          yy          xz          yz          zz
 q only:       -1.955      -1.277       6.826       8.014      11.857      -4.870
  q+dip:        1.171       2.814       8.456      14.199      23.879      -9.626
   full:        2.640      -0.535       5.185      19.134      21.937      -7.825


           -------------------------------------------------
          | TOTAL ENERGY              -72.420260301996 Eh   |
          | GRADIENT NORM               0.526928619261 Eh/α |
          | HOMO-LUMO GAP               0.022475546125 eV   |
           -------------------------------------------------

------------------------------------------------------------------------
 * finished run on 2026/07/23 at 16:42:59.413     
------------------------------------------------------------------------
 total:
 * wall-time:     0 d,  0 h,  0 min,  0.599 sec
 *  cpu-time:     0 d,  0 h,  0 min,  0.544 sec
 * ratio c/w:     0.909 speedup
 SCF:
 * wall-time:     0 d,  0 h,  0 min,  0.585 sec
 *  cpu-time:     0 d,  0 h,  0 min,  0.522 sec
 * ratio c/w:     0.892 speedup

