      -----------------------------------------------------------      
     |                   =====================                   |     
     |                           x T B                           |     
     |                   =====================                   |     
     |                         S. Grimme                         |     
     |          Mulliken Center for Theoretical Chemistry        |     
     |                    University of Bonn                     |     
      -----------------------------------------------------------      

   * xtb version 6.6.1 (unknown) compiled by 'builduser@buildhost' on 2023-08-07

   xtb is free software: you can redistribute it and/or modify it under
   the terms of the GNU Lesser General Public License as published by
   the Free Software Foundation, either version 3 of the License, or
   (at your option) any later version.
   
   xtb is distributed in the hope that it will be useful,
   but WITHOUT ANY WARRANTY; without even the implied warranty of
   MERCHANTABILITY or FITNESS FOR A PARTICULAR PURPOSE.  See the
   GNU Lesser General Public License for more details.
   
   Cite this work as:
   * C. Bannwarth, E. Caldeweyher, S. Ehlert, A. Hansen, P. Pracht,
     J. Seibert, S. Spicher, S. Grimme, WIREs Comput. Mol. Sci., 2020, 11,
     e01493. DOI: 10.1002/wcms.1493
   
   for GFN2-xTB:
   * C. Bannwarth, S. Ehlert and S. Grimme., J. Chem. Theory Comput., 2019,
     15, 1652-1671. DOI: 10.1021/acs.jctc.8b01176
   for GFN1-xTB:
   * S. Grimme, C. Bannwarth, P. Shushkov, J. Chem. Theory Comput., 2017,
     13, 1989-2009. DOI: 10.1021/acs.jctc.7b00118
   for GFN0-xTB:
   * P. Pracht, E. Caldeweyher, S. Ehlert, S. Grimme, ChemRxiv, 2019, preprint.
     DOI: 10.26434/chemrxiv.8326202.v1
   for GFN-FF:
   * S. Spicher and S. Grimme, Angew. Chem. Int. Ed., 2020, 59, 15665-15673.
     DOI: 10.1002/anie.202004239
   
   for ALPB and GBSA implicit solvation:
   * S. Ehlert, M. Stahn, S. Spicher, S. Grimme, J. Chem. Theory Comput.,
     2021, 17, 4250-4261. DOI: 10.1021/acs.jctc.1c00471
   
   for DFT-D4:
   * E. Caldeweyher, C. Bannwarth and S. Grimme, J. Chem. Phys., 2017,
     147, 034112. DOI: 10.1063/1.4993215
   * E. Caldeweyher, S. Ehlert, A. Hansen, H. Neugebauer, S. Spicher,
     C. Bannwarth and S. Grimme, J. Chem. Phys., 2019, 150, 154122.
     DOI: 10.1063/1.5090222
   * E. Caldeweyher, J.-M. Mewes, S. Ehlert and S. Grimme, Phys. Chem. Chem. Phys.
     2020, 22, 8499-8512. DOI: 10.1039/D0CP00502A
   
   for sTDA-xTB:
   * S. Grimme and C. Bannwarth, J. Chem. Phys., 2016, 145, 054103.
     DOI: 10.1063/1.4959605
   
   in the mass-spec context:
   * V. Asgeirsson, C. Bauer and S. Grimme, Chem. Sci., 2017, 8, 4879.
     DOI: 10.1039/c7sc00601b
   * J. Koopman and S. Grimme, ACS Omega 2019, 4, 12, 15120-15133.
     DOI: 10.1021/acsomega.9b02011
   
   for metadynamics refer to:
   * S. Grimme, J. Chem. Theory Comput., 2019, 155, 2847-2862
     DOI: 10.1021/acs.jctc.9b00143
   
   for SPH calculations refer to:
   * S. Spicher and S. Grimme, J. Chem. Theory Comput., 2021, 17, 1701-1714
     DOI: 10.1021/acs.jctc.0c01306
   
   with help from (in alphabetical order)
   P. Atkinson, C. Bannwarth, F. Bohle, G. Brandenburg, E. Caldeweyher
   M. Checinski, S. Dohm, S. Ehlert, S. Ehrlich, I. Gerasimov, C. Hölzer
   A. Katbashev, J. Koopman, C. Lavigne, S. Lehtola, F. März, M. Müller,
   F. Musil, H. Neugebauer, J. Pisarek, C. Plett, P. Pracht, F. Pultar,
   J. Seibert, P. Shushkov, S. Spicher, M. Stahn, M. Steiner, T. Strunk,
   J. Stückrath, T. Rose, and J. Unsleber
   
 * started run on 2026/07/23 at 16:39:19.583     

           -------------------------------------------------
          |                Calculation Setup                |
           -------------------------------------------------

          program call               : xtb /home/selva/covalent_quantum_benchmark/data/quantum/erbB_xyz/EGFR__CHEMBL86531__state02.xyz --gfn2 --chrg 0 --uhf 0 --iterations 300
          coordinate file            : /home/selva/covalent_quantum_benchmark/data/quantum/erbB_xyz/EGFR__CHEMBL86531__state02.xyz
          omp threads                :                    24

   ID    Z sym.   atoms
    1    7 N      1, 9, 15
    2   16 S      2
    3    8 O      3, 4, 11, 22, 23
    4    6 C      5-8, 10, 12-14, 16-21, 24-29

           -------------------------------------------------
          |                 G F N 2 - x T B                 |
           -------------------------------------------------

        Reference                      10.1021/acs.jctc.8b01176
      * Hamiltonian:
        H0-scaling (s, p, d)           1.850000    2.230000    2.230000
        zeta-weighting                 0.500000
      * Dispersion:
        s8                             2.700000
        a1                             0.520000
        a2                             5.000000
        s9                             5.000000
      * Repulsion:
        kExp                           1.500000    1.000000
        rExp                           1.000000
      * Coulomb:
        alpha                          2.000000
        third order                    shell-resolved
        anisotropic                    true
        a3                             3.000000
        a5                             4.000000
        cn-shift                       1.200000
        cn-exp                         4.000000
        max-rad                        5.000000


          ...................................................
          :                      SETUP                      :
          :.................................................:
          :  # basis functions                 122          :
          :  # atomic orbitals                 121          :
          :  # shells                           59          :
          :  # electrons                       131          :
          :  max. iterations                   300          :
          :  Hamiltonian                  GFN2-xTB          :
          :  restarted?                      false          :
          :  GBSA solvation                  false          :
          :  PC potential                    false          :
          :  electronic temp.          300.0000000     K    :
          :  accuracy                    1.0000000          :
          :  -> integral cutoff          0.2500000E+02      :
          :  -> integral neglect         0.1000000E-07      :
          :  -> SCF convergence          0.1000000E-05 Eh   :
          :  -> wf. convergence          0.1000000E-03 e    :
          :  Broyden damping             0.4000000          :
          ...................................................

 iter      E             dE          RMSdq      gap      omega  full diag
   1    -72.8089177 -0.728089E+02  0.952E+00    0.05       0.0  T
   2    -68.3284066  0.448051E+01  0.111E+01    0.11       1.0  T
   3    -60.4069062  0.792150E+01  0.119E+01    0.10       1.0  T
   4    -63.1008737 -0.269397E+01  0.992E+00    0.17       1.0  T
   5    -67.3231494 -0.422228E+01  0.884E+00    0.19       1.0  T
   6    -67.1030328  0.220117E+00  0.834E+00    0.37       1.0  T
   7    -72.5744181 -0.547139E+01  0.605E+00    0.23       1.0  T
   8    -71.2269080  0.134751E+01  0.623E+00    0.07       1.0  T
   9    -72.1862880 -0.959380E+00  0.515E+00    0.14       1.0  T
  10    -72.9391871 -0.752899E+00  0.447E+00    0.04       1.0  T
  11    -72.9221490  0.170381E-01  0.448E+00    0.04       1.0  T
  12    -73.3661889 -0.444040E+00  0.442E+00    0.09       1.0  T
  13    -73.3532258  0.129631E-01  0.440E+00    0.09       1.0  T
  14    -73.4485114 -0.952855E-01  0.424E+00    0.08       1.0  T
  15    -74.1841391 -0.735628E+00  0.271E+00    0.10       1.0  T
  16    -74.2346505 -0.505113E-01  0.301E+00    0.13       1.0  T
  17    -74.5049897 -0.270339E+00  0.185E+00    0.07       1.0  T
  18    -74.5111089 -0.611918E-02  0.173E+00    0.08       1.0  T
  19    -74.1234142  0.387695E+00  0.319E+00    0.17       1.0  T
  20    -74.3576050 -0.234191E+00  0.236E+00    0.25       1.0  T
  21    -74.1690474  0.188558E+00  0.290E+00    0.23       1.0  T
  22    -74.4055312 -0.236484E+00  0.210E+00    0.21       1.0  T
  23    -74.2592915  0.146240E+00  0.256E+00    0.20       1.0  T
  24    -74.5477019 -0.288410E+00  0.119E+00    0.14       1.0  T
  25    -74.5609135 -0.132116E-01  0.104E+00    0.01       1.0  T
  26    -74.5703901 -0.947666E-02  0.896E-01    0.02       1.0  T
  27    -74.5864515 -0.160614E-01  0.732E-01    0.03       1.0  T
  28    -74.5969343 -0.104827E-01  0.589E-01    0.05       1.0  T
  29    -74.5929635  0.397078E-02  0.556E-01    0.04       1.0  T
  30    -74.5992410 -0.627749E-02  0.482E-01    0.05       1.0  T
  31    -74.5933910  0.584996E-02  0.601E-01    0.07       1.0  T
  32    -74.5872832  0.610779E-02  0.696E-01    0.07       1.0  T
  33    -74.5718839  0.153993E-01  0.884E-01    0.08       1.0  T
  34    -74.6045823 -0.326985E-01  0.354E-01    0.05       1.0  T
  35    -74.6002345  0.434780E-02  0.477E-01    0.07       1.0  T
  36    -74.5955462  0.468838E-02  0.528E-01    0.07       1.0  T
  37    -74.6085898 -0.130437E-01  0.184E-01    0.06       1.0  T
  38    -74.6088595 -0.269631E-03  0.184E-01    0.06       1.0  T
  39    -74.6102267 -0.136721E-02  0.665E-02    0.06       1.0  T
  40    -74.6098019  0.424815E-03  0.116E-01    0.06       1.0  T
  41    -74.6079238  0.187807E-02  0.230E-01    0.07       1.0  T
  42    -74.6084496 -0.525834E-03  0.203E-01    0.07       1.0  T
  43    -74.6099567 -0.150709E-02  0.978E-02    0.06       1.0  T
  44    -74.6102681 -0.311398E-03  0.578E-02    0.06       1.0  T
  45    -74.6103827 -0.114550E-03  0.352E-02    0.06       1.0  T
  46    -74.6104293 -0.466745E-04  0.135E-02    0.06       1.4  T
  47    -74.6104357 -0.640677E-05  0.979E-03    0.06       1.9  T
  48    -74.6104389 -0.320562E-05  0.509E-03    0.06       3.7  T
  49    -74.6104398 -0.826012E-06  0.279E-03    0.06       6.6  T
  50    -74.6104396  0.125517E-06  0.221E-03    0.06       8.4  T
  51    -74.6104397 -0.670820E-07  0.234E-03    0.06       7.9  T
  52    -74.6104397  0.209839E-07  0.249E-03    0.06       7.5  T
  53    -74.6104400 -0.295232E-06  0.360E-04    0.06      51.6  T
  54    -74.6104400 -0.696491E-08  0.208E-04    0.06      89.3  T

   *** convergence criteria satisfied after 54 iterations ***

         #    Occupation            Energy/Eh            Energy/eV
      -------------------------------------------------------------
         1        2.0000           -0.8312479             -22.6194
       ...           ...                  ...                  ...
        60        2.0000           -0.4670289             -12.7085
        61        2.0000           -0.4602593             -12.5243
        62        1.9977           -0.4565969             -12.4246
        63        1.9951           -0.4558694             -12.4048
        64        1.9897           -0.4551588             -12.3855
        65        1.5149           -0.4510914             -12.2748
        66        1.1294           -0.4500952             -12.2477 (HOMO)
        67        0.3526           -0.4480559             -12.1922 (LUMO)
        68        0.0202           -0.4450630             -12.1108
        69        0.0005           -0.4415443             -12.0150
        70                         -0.4203984             -11.4396
        71                         -0.4108870             -11.1808
       ...                                ...                  ...
       121                          1.1017961              29.9814
      -------------------------------------------------------------
                  HL-Gap            0.0020393 Eh            0.0555 eV
             Fermi-level           -0.4497889 Eh          -12.2394 eV

 SCC (total)                   0 d,  0 h,  0 min,  0.348 sec
 SCC setup                      ...        0 min,  0.000 sec (  0.097%)
 Dispersion                     ...        0 min,  0.001 sec (  0.280%)
 classical contributions        ...        0 min,  0.000 sec (  0.139%)
 integral evaluation            ...        0 min,  0.004 sec (  1.056%)
 iterations                     ...        0 min,  0.321 sec ( 92.261%)
 molecular gradient             ...        0 min,  0.017 sec (  4.908%)
 printout                       ...        0 min,  0.004 sec (  1.251%)

         :::::::::::::::::::::::::::::::::::::::::::::::::::::
         ::                     SUMMARY                     ::
         :::::::::::::::::::::::::::::::::::::::::::::::::::::
         :: total energy             -73.860533172345 Eh    ::
         :: gradient norm              0.558827666447 Eh/a0 ::
         :: HOMO-LUMO gap              0.055491368960 eV    ::
         ::.................................................::
         :: SCC energy               -74.610439993547 Eh    ::
         :: -> isotropic ES            0.130560602942 Eh    ::
         :: -> anisotropic ES         -0.000472359632 Eh    ::
         :: -> anisotropic XC          0.026870725191 Eh    ::
         :: -> dispersion             -0.042247103295 Eh    ::
         :: repulsion energy           0.749877679659 Eh    ::
         :: add. restraining           0.000000000000 Eh    ::
         :: total charge               0.000000000006 e     ::
         :::::::::::::::::::::::::::::::::::::::::::::::::::::

           -------------------------------------------------
          |                Property Printout                |
           -------------------------------------------------

    * Orbital Energies and Occupations

         #    Occupation            Energy/Eh            Energy/eV
      -------------------------------------------------------------
         1        2.0000           -0.8312479             -22.6194
       ...           ...                  ...                  ...
        54        2.0000           -0.4850076             -13.1977
        55        2.0000           -0.4843148             -13.1789
        56        2.0000           -0.4805717             -13.0770
        57        2.0000           -0.4773606             -12.9896
        58        2.0000           -0.4748306             -12.9208
        59        2.0000           -0.4687736             -12.7560
        60        2.0000           -0.4670289             -12.7085
        61        2.0000           -0.4602593             -12.5243
        62        1.9977           -0.4565969             -12.4246
        63        1.9951           -0.4558694             -12.4048
        64        1.9897           -0.4551588             -12.3855
        65        1.5149           -0.4510914             -12.2748
        66        1.1294           -0.4500952             -12.2477 (HOMO)
        67        0.3526           -0.4480559             -12.1922 (LUMO)
        68        0.0202           -0.4450630             -12.1108
        69        0.0005           -0.4415443             -12.0150
        70                         -0.4203984             -11.4396
        71                         -0.4108870             -11.1808
        72                         -0.4020211             -10.9396
        73                         -0.3918546             -10.6629
        74                         -0.3685667             -10.0292
        75                         -0.3540533              -9.6343
        76                         -0.3440981              -9.3634
        77                         -0.3286795              -8.9438
       ...                                ...                  ...
       121                          1.1017961              29.9814
      -------------------------------------------------------------
                  HL-Gap            0.0020393 Eh            0.0555 eV
             Fermi-level           -0.4497889 Eh          -12.2394 eV

     #   Z          covCN         q      C6AA      α(0)
     1   7 N        0.913    -0.299    27.690     7.609
     2  16 S        3.688     1.241   100.008    16.831
     3   8 O        0.860    -0.495    23.678     6.524
     4   8 O        0.860    -0.503    23.849     6.548
     5   6 C        2.957    -0.036    28.882     8.815
     6   6 C        2.027     0.053    29.671     8.797
     7   6 C        1.981    -0.017    31.517     9.066
     8   6 C        3.057     0.126    25.183     8.230
     9   7 N        1.941    -0.147    24.964     7.409
    10   6 C        2.908     0.287    22.157     7.718
    11   8 O        0.855    -0.303    19.838     5.972
    12   6 C        3.079     0.057    26.640     8.462
    13   6 C        1.970     0.034    30.187     8.873
    14   6 C        2.968     0.120    25.352     8.259
    15   7 N        1.894    -0.140    24.810     7.384
    16   6 C        3.025     0.131    25.118     8.221
    17   6 C        3.017     0.047    26.917     8.510
    18   6 C        3.053     0.065    26.495     8.442
    19   6 C        1.969     0.030    30.291     8.888
    20   6 C        1.955    -0.031    31.897     9.120
    21   6 C        2.690     0.412    20.051     7.328
    22   8 O        0.856    -0.305    19.868     5.976
    23   8 O        0.855    -0.327    20.270     6.036
    24   6 C        1.957    -0.036    32.030     9.140
    25   6 C        1.954     0.031    30.290     8.888
    26   6 C        1.954     0.030    30.304     8.890
    27   6 C        1.957    -0.031    31.901     9.121
    28   6 C        3.095     0.031    27.204     8.548
    29   6 C        2.029    -0.026    31.703     9.094

 Mol. C6AA /au·bohr⁶  :      23719.314689
 Mol. C8AA /au·bohr⁸  :     662216.293443
 Mol. α(0) /au        :        242.699217


Wiberg/Mayer (AO) data.
largest (>0.10) Wiberg bond orders for each atom

 ---------------------------------------------------------------------------
     #   Z sym  total        # sym  WBO       # sym  WBO       # sym  WBO
 ---------------------------------------------------------------------------
     1   7 N    1.793 --     2 S    1.024     6 C    0.225     4 O    0.129
                             3 O    0.123
     2  16 S    4.911 --     3 O    1.583     4 O    1.581     1 N    1.024
                             5 C    0.624
     3   8 O    1.935 --     2 S    1.583     4 O    0.123     1 N    0.123
     4   8 O    1.924 --     2 S    1.581     1 N    0.129     3 O    0.123
     5   6 C    3.896 --    29 C    1.464     6 C    1.442     2 S    0.624
     6   6 C    3.758 --     7 C    1.751     5 C    1.442     1 N    0.225
     7   6 C    3.767 --     6 C    1.751     8 C    1.343    29 C    0.395
     8   6 C    3.938 --     7 C    1.343     9 N    1.224    28 C    1.099
     9   7 N    3.065 --    10 C    1.254     8 C    1.224    13 C    0.181
                            11 O    0.124
    10   6 C    3.931 --    11 O    1.550     9 N    1.254    12 C    0.994
    11   8 O    2.053 --    10 C    1.550    13 C    0.211     9 N    0.124
    12   6 C    3.917 --    13 C    1.569    28 C    1.133    10 C    0.994
    13   6 C    3.803 --    12 C    1.569    14 C    1.472    11 O    0.211
                             9 N    0.181
    14   6 C    3.961 --    13 C    1.472    15 N    1.270    18 C    1.001
    15   7 N    3.056 --    16 C    1.281    14 C    1.270
    16   6 C    3.947 --    15 N    1.281    17 C    1.235    27 C    1.186
    17   6 C    3.944 --    24 C    1.280    16 C    1.235    18 C    1.116
    18   6 C    3.941 --    19 C    1.551    17 C    1.116    14 C    1.001
    19   6 C    3.813 --    20 C    1.884    18 C    1.551
    20   6 C    3.286 --    19 C    1.884    21 C    0.832    23 O    0.231
                            22 O    0.111
    21   6 C    3.928 --    22 O    1.686    23 O    1.359    20 C    0.832
    22   8 O    2.175 --    21 C    1.686    23 O    0.251    20 C    0.111
    23   8 O    1.942 --    21 C    1.359    22 O    0.251    20 C    0.231
    24   6 C    3.439 --    25 C    1.426    17 C    1.280    27 C    0.330
                            26 C    0.221
    25   6 C    3.556 --    26 C    1.712    24 C    1.426    27 C    0.227
    26   6 C    3.597 --    25 C    1.712    27 C    1.473    24 C    0.221
    27   6 C    3.396 --    26 C    1.473    16 C    1.186    24 C    0.330
                            25 C    0.227
    28   6 C    3.932 --    29 C    1.428    12 C    1.133     8 C    1.099
    29   6 C    3.690 --     5 C    1.464    28 C    1.428     7 C    0.395
 ---------------------------------------------------------------------------
Note: The following floating-point exceptions are signalling: IEEE_UNDERFLOW_FLAG IEEE_DENORMAL
normal termination of xtb

Topologies differ in total number of bonds
Writing topology from bond orders to xtbtopo.mol

molecular dipole:
                 x           y           z       tot (Debye)
 q only:       -0.179       2.758      -0.786
   full:        0.195       2.434      -0.933       6.645
molecular quadrupole (traceless):
                xx          xy          yy          xz          yz          zz
 q only:       13.204      11.167     -21.132      -6.497      12.424       7.928
  q+dip:       11.973      21.456     -20.049      -6.156      17.583       8.077
   full:       10.854      18.639     -20.856      -9.536      19.904      10.001


           -------------------------------------------------
          | TOTAL ENERGY              -73.860533172345 Eh   |
          | GRADIENT NORM               0.558827666447 Eh/α |
          | HOMO-LUMO GAP               0.055491368960 eV   |
           -------------------------------------------------

------------------------------------------------------------------------
 * finished run on 2026/07/23 at 16:39:19.949     
------------------------------------------------------------------------
 total:
 * wall-time:     0 d,  0 h,  0 min,  0.366 sec
 *  cpu-time:     0 d,  0 h,  0 min,  0.370 sec
 * ratio c/w:     1.011 speedup
 SCF:
 * wall-time:     0 d,  0 h,  0 min,  0.349 sec
 *  cpu-time:     0 d,  0 h,  0 min,  0.354 sec
 * ratio c/w:     1.015 speedup

