      -----------------------------------------------------------      
     |                   =====================                   |     
     |                           x T B                           |     
     |                   =====================                   |     
     |                         S. Grimme                         |     
     |          Mulliken Center for Theoretical Chemistry        |     
     |                    University of Bonn                     |     
      -----------------------------------------------------------      

   * xtb version 6.6.1 (unknown) compiled by 'builduser@buildhost' on 2023-08-07

   xtb is free software: you can redistribute it and/or modify it under
   the terms of the GNU Lesser General Public License as published by
   the Free Software Foundation, either version 3 of the License, or
   (at your option) any later version.
   
   xtb is distributed in the hope that it will be useful,
   but WITHOUT ANY WARRANTY; without even the implied warranty of
   MERCHANTABILITY or FITNESS FOR A PARTICULAR PURPOSE.  See the
   GNU Lesser General Public License for more details.
   
   Cite this work as:
   * C. Bannwarth, E. Caldeweyher, S. Ehlert, A. Hansen, P. Pracht,
     J. Seibert, S. Spicher, S. Grimme, WIREs Comput. Mol. Sci., 2020, 11,
     e01493. DOI: 10.1002/wcms.1493
   
   for GFN2-xTB:
   * C. Bannwarth, S. Ehlert and S. Grimme., J. Chem. Theory Comput., 2019,
     15, 1652-1671. DOI: 10.1021/acs.jctc.8b01176
   for GFN1-xTB:
   * S. Grimme, C. Bannwarth, P. Shushkov, J. Chem. Theory Comput., 2017,
     13, 1989-2009. DOI: 10.1021/acs.jctc.7b00118
   for GFN0-xTB:
   * P. Pracht, E. Caldeweyher, S. Ehlert, S. Grimme, ChemRxiv, 2019, preprint.
     DOI: 10.26434/chemrxiv.8326202.v1
   for GFN-FF:
   * S. Spicher and S. Grimme, Angew. Chem. Int. Ed., 2020, 59, 15665-15673.
     DOI: 10.1002/anie.202004239
   
   for ALPB and GBSA implicit solvation:
   * S. Ehlert, M. Stahn, S. Spicher, S. Grimme, J. Chem. Theory Comput.,
     2021, 17, 4250-4261. DOI: 10.1021/acs.jctc.1c00471
   
   for DFT-D4:
   * E. Caldeweyher, C. Bannwarth and S. Grimme, J. Chem. Phys., 2017,
     147, 034112. DOI: 10.1063/1.4993215
   * E. Caldeweyher, S. Ehlert, A. Hansen, H. Neugebauer, S. Spicher,
     C. Bannwarth and S. Grimme, J. Chem. Phys., 2019, 150, 154122.
     DOI: 10.1063/1.5090222
   * E. Caldeweyher, J.-M. Mewes, S. Ehlert and S. Grimme, Phys. Chem. Chem. Phys.
     2020, 22, 8499-8512. DOI: 10.1039/D0CP00502A
   
   for sTDA-xTB:
   * S. Grimme and C. Bannwarth, J. Chem. Phys., 2016, 145, 054103.
     DOI: 10.1063/1.4959605
   
   in the mass-spec context:
   * V. Asgeirsson, C. Bauer and S. Grimme, Chem. Sci., 2017, 8, 4879.
     DOI: 10.1039/c7sc00601b
   * J. Koopman and S. Grimme, ACS Omega 2019, 4, 12, 15120-15133.
     DOI: 10.1021/acsomega.9b02011
   
   for metadynamics refer to:
   * S. Grimme, J. Chem. Theory Comput., 2019, 155, 2847-2862
     DOI: 10.1021/acs.jctc.9b00143
   
   for SPH calculations refer to:
   * S. Spicher and S. Grimme, J. Chem. Theory Comput., 2021, 17, 1701-1714
     DOI: 10.1021/acs.jctc.0c01306
   
   with help from (in alphabetical order)
   P. Atkinson, C. Bannwarth, F. Bohle, G. Brandenburg, E. Caldeweyher
   M. Checinski, S. Dohm, S. Ehlert, S. Ehrlich, I. Gerasimov, C. Hölzer
   A. Katbashev, J. Koopman, C. Lavigne, S. Lehtola, F. März, M. Müller,
   F. Musil, H. Neugebauer, J. Pisarek, C. Plett, P. Pracht, F. Pultar,
   J. Seibert, P. Shushkov, S. Spicher, M. Stahn, M. Steiner, T. Strunk,
   J. Stückrath, T. Rose, and J. Unsleber
   
 * started run on 2026/07/23 at 16:41:12.728     

           -------------------------------------------------
          |                Calculation Setup                |
           -------------------------------------------------

          program call               : xtb /home/selva/covalent_quantum_benchmark/data/quantum/erbB_xyz/ERBB2__CHEMBL180018__state01.xyz --gfn2 --chrg 0 --uhf 0 --iterations 300
          coordinate file            : /home/selva/covalent_quantum_benchmark/data/quantum/erbB_xyz/ERBB2__CHEMBL180018__state01.xyz
          omp threads                :                    24

   ID    Z sym.   atoms
    1    6 C      1, 2, 4-6, 8-10, 12, 14-17, 19-25, 27-30, 32, 34-36, 38, 39
    2    8 O      3, 18, 33
    3    7 N      7, 11, 13, 31, 37
    4   17 Cl     26

           -------------------------------------------------
          |                 G F N 2 - x T B                 |
           -------------------------------------------------

        Reference                      10.1021/acs.jctc.8b01176
      * Hamiltonian:
        H0-scaling (s, p, d)           1.850000    2.230000    2.230000
        zeta-weighting                 0.500000
      * Dispersion:
        s8                             2.700000
        a1                             0.520000
        a2                             5.000000
        s9                             5.000000
      * Repulsion:
        kExp                           1.500000    1.000000
        rExp                           1.000000
      * Coulomb:
        alpha                          2.000000
        third order                    shell-resolved
        anisotropic                    true
        a3                             3.000000
        a5                             4.000000
        cn-shift                       1.200000
        cn-exp                         4.000000
        max-rad                        5.000000


          ...................................................
          :                      SETUP                      :
          :.................................................:
          :  # basis functions                 162          :
          :  # atomic orbitals                 161          :
          :  # shells                           79          :
          :  # electrons                       170          :
          :  max. iterations                   300          :
          :  Hamiltonian                  GFN2-xTB          :
          :  restarted?                      false          :
          :  GBSA solvation                  false          :
          :  PC potential                    false          :
          :  electronic temp.          300.0000000     K    :
          :  accuracy                    1.0000000          :
          :  -> integral cutoff          0.2500000E+02      :
          :  -> integral neglect         0.1000000E-07      :
          :  -> SCF convergence          0.1000000E-05 Eh   :
          :  -> wf. convergence          0.1000000E-03 e    :
          :  Broyden damping             0.4000000          :
          ...................................................

 iter      E             dE          RMSdq      gap      omega  full diag
   1    -93.4746753 -0.934747E+02  0.884E+00    0.10       0.0  T
   2    -69.2490626  0.242256E+02  0.124E+01    0.07       1.0  T
   3    -38.6998211  0.305492E+02  0.150E+01    0.11       1.0  T
   4    -64.1574666 -0.254576E+02  0.120E+01    0.01       1.0  T
   5    -88.3032586 -0.241458E+02  0.820E+00    0.21       1.0  T
   6    -91.4003905 -0.309713E+01  0.634E+00    0.07       1.0  T
   7    -90.9578109  0.442580E+00  0.533E+00    0.11       1.0  T
   8    -92.2499999 -0.129219E+01  0.489E+00    0.23       1.0  T
   9    -93.4174310 -0.116743E+01  0.427E+00    0.04       1.0  T
  10    -94.4252447 -0.100781E+01  0.271E+00    0.03       1.0  T
  11    -94.3460512  0.791934E-01  0.292E+00    0.05       1.0  T
  12    -94.0236035  0.322448E+00  0.268E+00    0.02       1.0  T
  13    -93.9352510  0.883525E-01  0.309E+00    0.08       1.0  T
  14    -94.3532105 -0.417960E+00  0.266E+00    0.06       1.0  T
  15    -94.3216505  0.315600E-01  0.245E+00    0.04       1.0  T
  16    -94.1414031  0.180247E+00  0.269E+00    0.01       1.0  T
  17    -94.6035539 -0.462151E+00  0.150E+00    0.00       1.0  T
  18    -93.0448257  0.155873E+01  0.383E+00    0.02       1.0  T
  19    -93.6220036 -0.577178E+00  0.309E+00    0.00       1.0  T
  20    -93.7594156 -0.137412E+00  0.299E+00    0.01       1.0  T
  21    -93.9729560 -0.213540E+00  0.264E+00    0.02       1.0  T
  22    -93.7039828  0.268973E+00  0.308E+00    0.04       1.0  T
  23    -93.6598870  0.440958E-01  0.313E+00    0.04       1.0  T
  24    -94.1656324 -0.505745E+00  0.248E+00    0.04       1.0  T
  25    -94.2185564 -0.529240E-01  0.222E+00    0.02       1.0  T
  26    -94.7499942 -0.531438E+00  0.693E-01    0.00       1.0  T
  27    -94.6667505  0.832437E-01  0.114E+00    0.04       1.0  T
  28    -94.7385704 -0.718199E-01  0.702E-01    0.01       1.0  T
  29    -94.7526503 -0.140799E-01  0.608E-01    0.01       1.0  T
  30    -94.7596810 -0.703068E-02  0.550E-01    0.02       1.0  T
  31    -94.7497146  0.996638E-02  0.630E-01    0.00       1.0  T
  32    -94.7418713  0.784334E-02  0.783E-01    0.01       1.0  T
  33    -94.7468773 -0.500600E-02  0.766E-01    0.02       1.0  T
  34    -94.7576567 -0.107794E-01  0.630E-01    0.01       1.0  T
  35    -94.7702731 -0.126164E-01  0.409E-01    0.01       1.0  T
  36    -94.7683968  0.187628E-02  0.421E-01    0.01       1.0  T
  37    -94.7694242 -0.102740E-02  0.389E-01    0.01       1.0  T
  38    -94.7729804 -0.355618E-02  0.280E-01    0.01       1.0  T
  39    -94.7765466 -0.356617E-02  0.942E-02    0.00       1.0  T
  40    -94.7761094  0.437214E-03  0.970E-02    0.01       1.0  T
  41    -94.7763787 -0.269336E-03  0.909E-02    0.00       1.0  T
  42    -94.7764430 -0.643224E-04  0.870E-02    0.00       1.0  T
  43    -94.7769468 -0.503748E-03  0.429E-02    0.00       1.0  T
  44    -94.7769583 -0.115002E-04  0.416E-02    0.00       1.0  T
  45    -94.7770145 -0.562812E-04  0.244E-02    0.00       1.0  T
  46    -94.7770620 -0.474192E-04  0.942E-03    0.01       1.7  T
  47    -94.7770639 -0.191420E-05  0.677E-03    0.01       2.4  T
  48    -94.7770620  0.184179E-05  0.682E-03    0.01       2.3  T
  49    -94.7770617  0.329167E-06  0.634E-03    0.01       2.5  T
  50    -94.7770650 -0.328356E-05  0.390E-03    0.01       4.1  T
  51    -94.7770649  0.967811E-07  0.388E-03    0.01       4.1  T
  52    -94.7770643  0.613918E-06  0.435E-03    0.01       3.7  T
  53    -94.7770658 -0.156559E-05  0.114E-03    0.01      14.1  T
  54    -94.7770654  0.461005E-06  0.211E-03    0.01       7.6  T
  55    -94.7770658 -0.436559E-06  0.966E-04    0.01      16.6  T
  56    -94.7770659 -0.401467E-07  0.745E-04    0.01      21.5  T

   *** convergence criteria satisfied after 56 iterations ***

         #    Occupation            Energy/Eh            Energy/eV
      -------------------------------------------------------------
         1        2.0000           -1.0875736             -29.5944
       ...           ...                  ...                  ...
        79        1.9999           -0.4317205             -11.7477
        80        1.9985           -0.4291396             -11.6775
        81        1.9898           -0.4272889             -11.6271
        82        1.9864           -0.4270130             -11.6196
        83        1.5016           -0.4233234             -11.5192
        84        1.4322           -0.4231546             -11.5146
        85        1.3377           -0.4229435             -11.5089 (HOMO)
        86        1.2471           -0.4227551             -11.5038 (LUMO)
        87        0.4819           -0.4211854             -11.4610
        88        0.0247           -0.4181110             -11.3774
        89        0.0000           -0.4082744             -11.1097
        90                         -0.3973011             -10.8111
       ...                                ...                  ...
       161                          1.0464621              28.4757
      -------------------------------------------------------------
                  HL-Gap            0.0001884 Eh            0.0051 eV
             Fermi-level           -0.4222756 Eh          -11.4907 eV

 SCC (total)                   0 d,  0 h,  0 min,  1.187 sec
 SCC setup                      ...        0 min,  0.001 sec (  0.045%)
 Dispersion                     ...        0 min,  0.002 sec (  0.139%)
 classical contributions        ...        0 min,  0.001 sec (  0.070%)
 integral evaluation            ...        0 min,  0.012 sec (  0.986%)
 iterations                     ...        0 min,  1.139 sec ( 95.942%)
 molecular gradient             ...        0 min,  0.030 sec (  2.538%)
 printout                       ...        0 min,  0.003 sec (  0.270%)

         :::::::::::::::::::::::::::::::::::::::::::::::::::::
         ::                     SUMMARY                     ::
         :::::::::::::::::::::::::::::::::::::::::::::::::::::
         :: total energy             -93.688195675442 Eh    ::
         :: gradient norm              0.534509231065 Eh/a0 ::
         :: HOMO-LUMO gap              0.005126768579 eV    ::
         ::.................................................::
         :: SCC energy               -94.777065864070 Eh    ::
         :: -> isotropic ES            0.017972390287 Eh    ::
         :: -> anisotropic ES          0.010091797932 Eh    ::
         :: -> anisotropic XC          0.054176473057 Eh    ::
         :: -> dispersion             -0.058691820890 Eh    ::
         :: repulsion energy           1.088932665501 Eh    ::
         :: add. restraining           0.000000000000 Eh    ::
         :: total charge               0.000000000141 e     ::
         :::::::::::::::::::::::::::::::::::::::::::::::::::::

           -------------------------------------------------
          |                Property Printout                |
           -------------------------------------------------

    * Orbital Energies and Occupations

         #    Occupation            Energy/Eh            Energy/eV
      -------------------------------------------------------------
         1        2.0000           -1.0875736             -29.5944
       ...           ...                  ...                  ...
        73        2.0000           -0.4508381             -12.2679
        74        2.0000           -0.4496718             -12.2362
        75        2.0000           -0.4483196             -12.1994
        76        2.0000           -0.4434012             -12.0656
        77        2.0000           -0.4397145             -11.9652
        78        2.0000           -0.4379757             -11.9179
        79        1.9999           -0.4317205             -11.7477
        80        1.9985           -0.4291396             -11.6775
        81        1.9898           -0.4272889             -11.6271
        82        1.9864           -0.4270130             -11.6196
        83        1.5016           -0.4233234             -11.5192
        84        1.4322           -0.4231546             -11.5146
        85        1.3377           -0.4229435             -11.5089 (HOMO)
        86        1.2471           -0.4227551             -11.5038 (LUMO)
        87        0.4819           -0.4211854             -11.4610
        88        0.0247           -0.4181110             -11.3774
        89        0.0000           -0.4082744             -11.1097
        90                         -0.3973011             -10.8111
        91                         -0.3893853             -10.5957
        92                         -0.3879038             -10.5554
        93                         -0.3742167             -10.1830
        94                         -0.3729407             -10.1482
        95                         -0.3660248              -9.9600
        96                         -0.3600973              -9.7987
       ...                                ...                  ...
       161                          1.0464621              28.4757
      -------------------------------------------------------------
                  HL-Gap            0.0001884 Eh            0.0051 eV
             Fermi-level           -0.4222756 Eh          -11.4907 eV

     #   Z          covCN         q      C6AA      α(0)
     1   6 C        0.976    -0.091    38.768    10.455
     2   6 C        1.838     0.102    28.624     8.643
     3   8 O        1.703    -0.117    16.080     5.414
     4   6 C        2.850     0.159    24.562     8.123
     5   6 C        1.987    -0.075    33.087     9.289
     6   6 C        2.911     0.117    25.418     8.267
     7   7 N        1.831    -0.136    24.735     7.370
     8   6 C        1.938     0.090    28.836     8.672
     9   6 C        2.943     0.011    27.778     8.644
    10   6 C        1.914     0.119    28.166     8.571
    11   7 N        0.911    -0.201    25.369     7.285
    12   6 C        2.900     0.130    25.154     8.223
    13   7 N        1.837    -0.097    23.899     7.245
    14   6 C        2.917     0.121    25.343     8.255
    15   6 C        1.992    -0.048    32.344     9.185
    16   6 C        1.985    -0.033    31.929     9.125
    17   6 C        2.896     0.159    24.558     8.125
    18   8 O        1.707    -0.187    17.134     5.589
    19   6 C        2.869     0.179    24.160     8.057
    20   6 C        1.988    -0.032    31.906     9.122
    21   6 C        1.987     0.004    30.947     8.984
    22   6 C        1.987     0.033    30.206     8.876
    23   6 C        1.987     0.011    30.764     8.957
    24   6 C        1.987    -0.046    32.273     9.174
    25   6 C        2.877     0.092    25.958     8.352
    26  17 Cl       0.959    -0.068   101.274    15.396
    27   6 C        2.032    -0.082    33.246     9.313
    28   6 C        2.972     0.020    27.554     8.610
    29   6 C        1.991    -0.049    32.367     9.188
    30   6 C        2.936     0.106    25.667     8.309
    31   7 N        1.832    -0.141    24.843     7.386
    32   6 C        2.791     0.297    21.964     7.677
    33   8 O        0.860    -0.364    20.974     6.140
    34   6 C        1.964    -0.020    31.611     9.080
    35   6 C        1.965     0.041    30.009     8.846
    36   6 C        1.914    -0.029    31.868     9.117
    37   7 N        2.722     0.184    18.188     6.334
    38   6 C        0.935    -0.092    38.510    10.399
    39   6 C        0.940    -0.065    37.660    10.286

 Mol. C6AA /au·bohr⁶  :      43999.466170
 Mol. C8AA /au·bohr⁸  :    1235253.057034
 Mol. α(0) /au        :        334.083773


Wiberg/Mayer (AO) data.
largest (>0.10) Wiberg bond orders for each atom

 ---------------------------------------------------------------------------
     #   Z sym  total        # sym  WBO       # sym  WBO       # sym  WBO
 ---------------------------------------------------------------------------
     1   6 C    2.430 --     2 C    2.170     3 O    0.108
     2   6 C    3.490 --     1 C    2.170     3 O    1.118
     3   8 O    2.444 --     2 C    1.118     4 C    1.089     1 C    0.108
     4   6 C    3.902 --     5 C    1.473     3 O    1.089    30 C    1.080
     5   6 C    3.707 --     4 C    1.473     6 C    1.396    29 C    0.527
     6   6 C    3.912 --     5 C    1.396     7 N    1.182    28 C    1.114
     7   7 N    3.197 --     8 C    1.629     6 C    1.182
     8   6 C    3.783 --     7 N    1.629     9 C    1.570    13 N    0.202
     9   6 C    3.890 --     8 C    1.570    10 C    1.104    12 C    0.973
    10   6 C    3.944 --    11 N    2.776     9 C    1.104
    11   7 N    2.983 --    10 C    2.776
    12   6 C    3.941 --    13 N    1.663    28 C    1.051     9 C    0.973
    13   7 N    3.332 --    12 C    1.663    14 C    1.112     8 C    0.202
    14   6 C    3.925 --    27 C    1.328    15 C    1.281    13 N    1.112
    15   6 C    3.662 --    16 C    1.694    14 C    1.281    27 C    0.346
                            25 C    0.107
    16   6 C    3.364 --    15 C    1.694    17 C    1.356    27 C    0.142
    17   6 C    3.861 --    16 C    1.356    25 C    1.256    18 O    1.023
    18   8 O    2.317 --    19 C    1.026    17 C    1.023
    19   6 C    3.883 --    24 C    1.335    20 C    1.329    18 O    1.026
                            22 C    0.109
    20   6 C    3.398 --    21 C    1.553    19 C    1.329    23 C    0.200
                            22 C    0.178
    21   6 C    3.525 --    22 C    1.639    20 C    1.553    24 C    0.213
    22   6 C    3.789 --    23 C    1.647    21 C    1.639    20 C    0.178
                            24 C    0.175    19 C    0.109
    23   6 C    3.525 --    22 C    1.647    24 C    1.550    20 C    0.200
    24   6 C    3.429 --    23 C    1.550    19 C    1.335    21 C    0.213
                            22 C    0.175
Note: The following floating-point exceptions are signalling: IEEE_UNDERFLOW_FLAG IEEE_DENORMAL
normal termination of xtb
    25   6 C    3.885 --    27 C    1.438    17 C    1.256    26 Cl   1.004
                            15 C    0.107
    26  17 Cl   1.181 --    25 C    1.004
    27   6 C    3.447 --    25 C    1.438    14 C    1.328    15 C    0.346
                            16 C    0.142
    28   6 C    3.920 --    29 C    1.511     6 C    1.114    12 C    1.051
    29   6 C    3.772 --    28 C    1.511    30 C    1.398     5 C    0.527
    30   6 C    3.925 --    29 C    1.398    31 N    1.208     4 C    1.080
    31   7 N    3.260 --    32 C    1.485    30 C    1.208    33 O    0.193
    32   6 C    3.939 --    31 N    1.485    33 O    1.397    34 C    0.966
    33   8 O    1.945 --    32 C    1.397    31 N    0.193    34 C    0.123
    34   6 C    3.694 --    35 C    2.232    32 C    0.966    36 C    0.155
                            33 O    0.123
    35   6 C    3.819 --    34 C    2.232    36 C    1.367
    36   6 C    3.175 --    35 C    1.367    37 N    1.039    38 C    0.418
                            34 C    0.155
    37   7 N    3.674 --    38 C    1.298    39 C    1.298    36 C    1.039
    38   6 C    2.311 --    37 N    1.298    39 C    0.450    36 C    0.418
    39   6 C    1.891 --    37 N    1.298    38 C    0.450
 ---------------------------------------------------------------------------

Topologies differ in total number of bonds
Writing topology from bond orders to xtbtopo.mol

molecular dipole:
                 x           y           z       tot (Debye)
 q only:       -1.013       1.027      -1.471
   full:       -1.157       1.354      -1.477       5.881
molecular quadrupole (traceless):
                xx          xy          yy          xz          yz          zz
 q only:       -9.961      11.261       4.307     -15.883      -5.876       5.654
  q+dip:      -13.742       5.813       1.586     -12.585     -13.799      12.156
   full:      -10.081       5.501      -0.348     -13.345     -11.238      10.428


           -------------------------------------------------
          | TOTAL ENERGY              -93.688195675442 Eh   |
          | GRADIENT NORM               0.534509231065 Eh/α |
          | HOMO-LUMO GAP               0.005126768579 eV   |
           -------------------------------------------------

------------------------------------------------------------------------
 * finished run on 2026/07/23 at 16:41:13.965     
------------------------------------------------------------------------
 total:
 * wall-time:     0 d,  0 h,  0 min,  1.237 sec
 *  cpu-time:     0 d,  0 h,  0 min,  1.203 sec
 * ratio c/w:     0.972 speedup
 SCF:
 * wall-time:     0 d,  0 h,  0 min,  1.188 sec
 *  cpu-time:     0 d,  0 h,  0 min,  1.172 sec
 * ratio c/w:     0.987 speedup

