      -----------------------------------------------------------      
     |                   =====================                   |     
     |                           x T B                           |     
     |                   =====================                   |     
     |                         S. Grimme                         |     
     |          Mulliken Center for Theoretical Chemistry        |     
     |                    University of Bonn                     |     
      -----------------------------------------------------------      

   * xtb version 6.6.1 (unknown) compiled by 'builduser@buildhost' on 2023-08-07

   xtb is free software: you can redistribute it and/or modify it under
   the terms of the GNU Lesser General Public License as published by
   the Free Software Foundation, either version 3 of the License, or
   (at your option) any later version.
   
   xtb is distributed in the hope that it will be useful,
   but WITHOUT ANY WARRANTY; without even the implied warranty of
   MERCHANTABILITY or FITNESS FOR A PARTICULAR PURPOSE.  See the
   GNU Lesser General Public License for more details.
   
   Cite this work as:
   * C. Bannwarth, E. Caldeweyher, S. Ehlert, A. Hansen, P. Pracht,
     J. Seibert, S. Spicher, S. Grimme, WIREs Comput. Mol. Sci., 2020, 11,
     e01493. DOI: 10.1002/wcms.1493
   
   for GFN2-xTB:
   * C. Bannwarth, S. Ehlert and S. Grimme., J. Chem. Theory Comput., 2019,
     15, 1652-1671. DOI: 10.1021/acs.jctc.8b01176
   for GFN1-xTB:
   * S. Grimme, C. Bannwarth, P. Shushkov, J. Chem. Theory Comput., 2017,
     13, 1989-2009. DOI: 10.1021/acs.jctc.7b00118
   for GFN0-xTB:
   * P. Pracht, E. Caldeweyher, S. Ehlert, S. Grimme, ChemRxiv, 2019, preprint.
     DOI: 10.26434/chemrxiv.8326202.v1
   for GFN-FF:
   * S. Spicher and S. Grimme, Angew. Chem. Int. Ed., 2020, 59, 15665-15673.
     DOI: 10.1002/anie.202004239
   
   for ALPB and GBSA implicit solvation:
   * S. Ehlert, M. Stahn, S. Spicher, S. Grimme, J. Chem. Theory Comput.,
     2021, 17, 4250-4261. DOI: 10.1021/acs.jctc.1c00471
   
   for DFT-D4:
   * E. Caldeweyher, C. Bannwarth and S. Grimme, J. Chem. Phys., 2017,
     147, 034112. DOI: 10.1063/1.4993215
   * E. Caldeweyher, S. Ehlert, A. Hansen, H. Neugebauer, S. Spicher,
     C. Bannwarth and S. Grimme, J. Chem. Phys., 2019, 150, 154122.
     DOI: 10.1063/1.5090222
   * E. Caldeweyher, J.-M. Mewes, S. Ehlert and S. Grimme, Phys. Chem. Chem. Phys.
     2020, 22, 8499-8512. DOI: 10.1039/D0CP00502A
   
   for sTDA-xTB:
   * S. Grimme and C. Bannwarth, J. Chem. Phys., 2016, 145, 054103.
     DOI: 10.1063/1.4959605
   
   in the mass-spec context:
   * V. Asgeirsson, C. Bauer and S. Grimme, Chem. Sci., 2017, 8, 4879.
     DOI: 10.1039/c7sc00601b
   * J. Koopman and S. Grimme, ACS Omega 2019, 4, 12, 15120-15133.
     DOI: 10.1021/acsomega.9b02011
   
   for metadynamics refer to:
   * S. Grimme, J. Chem. Theory Comput., 2019, 155, 2847-2862
     DOI: 10.1021/acs.jctc.9b00143
   
   for SPH calculations refer to:
   * S. Spicher and S. Grimme, J. Chem. Theory Comput., 2021, 17, 1701-1714
     DOI: 10.1021/acs.jctc.0c01306
   
   with help from (in alphabetical order)
   P. Atkinson, C. Bannwarth, F. Bohle, G. Brandenburg, E. Caldeweyher
   M. Checinski, S. Dohm, S. Ehlert, S. Ehrlich, I. Gerasimov, C. Hölzer
   A. Katbashev, J. Koopman, C. Lavigne, S. Lehtola, F. März, M. Müller,
   F. Musil, H. Neugebauer, J. Pisarek, C. Plett, P. Pracht, F. Pultar,
   J. Seibert, P. Shushkov, S. Spicher, M. Stahn, M. Steiner, T. Strunk,
   J. Stückrath, T. Rose, and J. Unsleber
   
 * started run on 2026/07/23 at 16:42:25.602     

           -------------------------------------------------
          |                Calculation Setup                |
           -------------------------------------------------

          program call               : xtb /home/selva/covalent_quantum_benchmark/data/quantum/erbB_xyz/ERBB2__CHEMBL362611__state00.xyz --gfn2 --chrg 0 --uhf 0 --iterations 300
          coordinate file            : /home/selva/covalent_quantum_benchmark/data/quantum/erbB_xyz/ERBB2__CHEMBL362611__state00.xyz
          omp threads                :                    24

   ID    Z sym.   atoms
    1    6 C      1, 2, 4-6, 8-10, 12, 14-17, 19-26, 28-31, 33, 35-37, 39-41,
                  43, 44
    2    8 O      3, 18, 34, 42
    3    7 N      7, 11, 13, 32, 38
    4   17 Cl     27

           -------------------------------------------------
          |                 G F N 2 - x T B                 |
           -------------------------------------------------

        Reference                      10.1021/acs.jctc.8b01176
      * Hamiltonian:
        H0-scaling (s, p, d)           1.850000    2.230000    2.230000
        zeta-weighting                 0.500000
      * Dispersion:
        s8                             2.700000
        a1                             0.520000
        a2                             5.000000
        s9                             5.000000
      * Repulsion:
        kExp                           1.500000    1.000000
        rExp                           1.000000
      * Coulomb:
        alpha                          2.000000
        third order                    shell-resolved
        anisotropic                    true
        a3                             3.000000
        a5                             4.000000
        cn-shift                       1.200000
        cn-exp                         4.000000
        max-rad                        5.000000


          ...................................................
          :                      SETUP                      :
          :.................................................:
          :  # basis functions                 182          :
          :  # atomic orbitals                 181          :
          :  # shells                           89          :
          :  # electrons                       192          :
          :  max. iterations                   300          :
          :  Hamiltonian                  GFN2-xTB          :
          :  restarted?                      false          :
          :  GBSA solvation                  false          :
          :  PC potential                    false          :
          :  electronic temp.          300.0000000     K    :
          :  accuracy                    1.0000000          :
          :  -> integral cutoff          0.2500000E+02      :
          :  -> integral neglect         0.1000000E-07      :
          :  -> SCF convergence          0.1000000E-05 Eh   :
          :  -> wf. convergence          0.1000000E-03 e    :
          :  Broyden damping             0.4000000          :
          ...................................................

 iter      E             dE          RMSdq      gap      omega  full diag
   1   -106.3856460 -0.106386E+03  0.802E+00    0.18       0.0  T
   2    -86.4940840  0.198916E+02  0.116E+01    0.36       1.0  T
   3    -59.8154431  0.266786E+02  0.130E+01    0.09       1.0  T
   4    -74.9477562 -0.151323E+02  0.116E+01    0.14       1.0  T
   5    -76.4295381 -0.148178E+01  0.111E+01    0.10       1.0  T
   6   -104.9895920 -0.285601E+02  0.537E+00    0.05       1.0  T
   7   -103.7400961  0.124950E+01  0.566E+00    0.06       1.0  T
   8   -105.2709329 -0.153084E+01  0.423E+00    0.02       1.0  T
   9   -104.9363125  0.334620E+00  0.435E+00    0.05       1.0  T
  10   -106.0670902 -0.113078E+01  0.344E+00    0.11       1.0  T
  11   -106.1686742 -0.101584E+00  0.322E+00    0.22       1.0  T
  12   -106.4738076 -0.305133E+00  0.281E+00    0.20       1.0  T
  13   -106.4888874 -0.150797E-01  0.279E+00    0.07       1.0  T
  14   -106.7681308 -0.279243E+00  0.263E+00    0.18       1.0  T
  15   -106.6946099  0.735210E-01  0.242E+00    0.02       1.0  T
  16   -106.8360217 -0.141412E+00  0.219E+00    0.03       1.0  T
  17   -106.9211629 -0.851412E-01  0.194E+00    0.03       1.0  T
  18   -106.9809782 -0.598153E-01  0.158E+00    0.01       1.0  T
  19   -107.0455650 -0.645868E-01  0.147E+00    0.06       1.0  T
  20   -107.0587945 -0.132294E-01  0.139E+00    0.06       1.0  T
  21   -107.0888364 -0.300420E-01  0.128E+00    0.06       1.0  T
  22   -107.0706869  0.181496E-01  0.114E+00    0.02       1.0  T
  23   -107.0172665  0.534204E-01  0.137E+00    0.01       1.0  T
  24   -107.1422303 -0.124964E+00  0.961E-01    0.01       1.0  T
  25   -107.1889291 -0.466988E-01  0.712E-01    0.03       1.0  T
  26   -107.1907037 -0.177457E-02  0.679E-01    0.03       1.0  T
  27   -107.1599513  0.307523E-01  0.817E-01    0.02       1.0  T
  28   -107.1958127 -0.358613E-01  0.560E-01    0.00       1.0  T
  29   -107.2078741 -0.120615E-01  0.371E-01    0.00       1.0  T
  30   -107.2032674  0.460677E-02  0.424E-01    0.01       1.0  T
  31   -107.2056967 -0.242936E-02  0.366E-01    0.01       1.0  T
  32   -107.1941297  0.115670E-01  0.552E-01    0.01       1.0  T
  33   -107.2028017 -0.867196E-02  0.348E-01    0.00       1.0  T
  34   -107.1999908  0.281092E-02  0.407E-01    0.01       1.0  T
  35   -107.2129123 -0.129215E-01  0.184E-01    0.01       1.0  T
  36   -107.2124704  0.441847E-03  0.192E-01    0.01       1.0  T
  37   -107.2136821 -0.121165E-02  0.151E-01    0.01       1.0  T
  38   -107.2150412 -0.135909E-02  0.743E-02    0.01       1.0  T
  39   -107.2152715 -0.230306E-03  0.580E-02    0.01       1.0  T
  40   -107.2149310  0.340464E-03  0.672E-02    0.01       1.0  T
  41   -107.2154729 -0.541909E-03  0.398E-02    0.01       1.0  T
  42   -107.2156180 -0.145073E-03  0.110E-02    0.01       1.4  T
  43   -107.2155191  0.989207E-04  0.244E-02    0.01       1.0  T
  44   -107.2155827 -0.635866E-04  0.161E-02    0.01       1.0  T
  45   -107.2155682  0.144402E-04  0.258E-02    0.01       1.0  T
  46   -107.2156044 -0.361475E-04  0.161E-02    0.01       1.0  T
  47   -107.2156101 -0.574937E-05  0.125E-02    0.01       1.2  T
  48   -107.2156271 -0.169969E-04  0.356E-03    0.01       4.2  T
  49   -107.2156266  0.482091E-06  0.396E-03    0.01       3.8  T
  50   -107.2156281 -0.141987E-05  0.194E-03    0.01       7.8  T
  51   -107.2156280  0.926256E-07  0.196E-03    0.01       7.7  T
  52   -107.2156284 -0.410092E-06  0.115E-03    0.01      13.1  T
  53   -107.2156285 -0.108782E-06  0.674E-04    0.01      22.4  T
  54   -107.2156286 -0.637765E-07  0.254E-04    0.01      59.5  T

   *** convergence criteria satisfied after 54 iterations ***

         #    Occupation            Energy/Eh            Energy/eV
      -------------------------------------------------------------
         1        2.0000           -1.0938123             -29.7641
       ...           ...                  ...                  ...
        90        1.9992           -0.4298082             -11.6957
        91        1.9990           -0.4295201             -11.6878
        92        1.9827           -0.4268305             -11.6146
        93        1.8299           -0.4245846             -11.5535
        94        1.7092           -0.4240102             -11.5379
        95        1.5891           -0.4236127             -11.5271
        96        1.2909           -0.4228967             -11.5076 (HOMO)
        97        1.0319           -0.4223883             -11.4938 (LUMO)
        98        0.5575           -0.4214244             -11.4675
        99        0.0107           -0.4173671             -11.3571
       100        0.0000           -0.4090092             -11.1297
       101                         -0.4039412             -10.9918
       ...                                ...                  ...
       181                          1.0468545              28.4864
      -------------------------------------------------------------
                  HL-Gap            0.0005084 Eh            0.0138 eV
             Fermi-level           -0.4223277 Eh          -11.4921 eV

 SCC (total)                   0 d,  0 h,  0 min,  1.477 sec
 SCC setup                      ...        0 min,  0.001 sec (  0.044%)
 Dispersion                     ...        0 min,  0.002 sec (  0.131%)
 classical contributions        ...        0 min,  0.001 sec (  0.054%)
 integral evaluation            ...        0 min,  0.011 sec (  0.742%)
 iterations                     ...        0 min,  1.397 sec ( 94.603%)
 molecular gradient             ...        0 min,  0.061 sec (  4.133%)
 printout                       ...        0 min,  0.004 sec (  0.289%)

         :::::::::::::::::::::::::::::::::::::::::::::::::::::
         ::                     SUMMARY                     ::
         :::::::::::::::::::::::::::::::::::::::::::::::::::::
         :: total energy            -106.052961572625 Eh    ::
         :: gradient norm              0.635844262085 Eh/a0 ::
         :: HOMO-LUMO gap              0.013833924104 eV    ::
         ::.................................................::
         :: SCC energy              -107.215628550822 Eh    ::
         :: -> isotropic ES            0.059284593935 Eh    ::
         :: -> anisotropic ES          0.007890393319 Eh    ::
         :: -> anisotropic XC          0.065786732608 Eh    ::
         :: -> dispersion             -0.064795741622 Eh    ::
         :: repulsion energy           1.161987991369 Eh    ::
         :: add. restraining           0.000000000000 Eh    ::
         :: total charge               0.000000000026 e     ::
         :::::::::::::::::::::::::::::::::::::::::::::::::::::

           -------------------------------------------------
          |                Property Printout                |
           -------------------------------------------------

    * Orbital Energies and Occupations

         #    Occupation            Energy/Eh            Energy/eV
      -------------------------------------------------------------
         1        2.0000           -1.0938123             -29.7641
       ...           ...                  ...                  ...
        84        2.0000           -0.4495329             -12.2324
        85        2.0000           -0.4459500             -12.1349
        86        2.0000           -0.4457464             -12.1294
        87        2.0000           -0.4420088             -12.0277
        88        2.0000           -0.4361711             -11.8688
        89        2.0000           -0.4327535             -11.7758
        90        1.9992           -0.4298082             -11.6957
        91        1.9990           -0.4295201             -11.6878
        92        1.9827           -0.4268305             -11.6146
        93        1.8299           -0.4245846             -11.5535
        94        1.7092           -0.4240102             -11.5379
        95        1.5891           -0.4236127             -11.5271
        96        1.2909           -0.4228967             -11.5076 (HOMO)
        97        1.0319           -0.4223883             -11.4938 (LUMO)
        98        0.5575           -0.4214244             -11.4675
        99        0.0107           -0.4173671             -11.3571
       100        0.0000           -0.4090092             -11.1297
       101                         -0.4039412             -10.9918
       102                         -0.3956613             -10.7665
       103                         -0.3940805             -10.7235
       104                         -0.3877563             -10.5514
       105                         -0.3729657             -10.1489
       106                         -0.3711548             -10.0996
       107                         -0.3642845              -9.9127
       ...                                ...                  ...
       181                          1.0468545              28.4864
      -------------------------------------------------------------
                  HL-Gap            0.0005084 Eh            0.0138 eV
             Fermi-level           -0.4223277 Eh          -11.4921 eV

     #   Z          covCN         q      C6AA      α(0)
     1   6 C        0.976    -0.093    38.824    10.463
     2   6 C        1.837     0.101    28.642     8.646
     3   8 O        1.703    -0.095    15.760     5.360
     4   6 C        2.857     0.164    24.454     8.105
     5   6 C        2.002    -0.088    33.439     9.339
     6   6 C        2.952     0.122    25.326     8.254
     7   7 N        1.845    -0.108    24.116     7.278
     8   6 C        1.970     0.067    29.371     8.752
     9   6 C        2.958     0.036    27.203     8.555
    10   6 C        1.908     0.124    28.071     8.557
    11   7 N        0.911    -0.174    24.769     7.198
    12   6 C        2.908     0.131    25.139     8.221
    13   7 N        1.828    -0.141    24.826     7.383
    14   6 C        2.891     0.149    24.774     8.161
    15   6 C        1.990    -0.060    32.677     9.232
    16   6 C        1.986    -0.071    32.991     9.276
    17   6 C        2.872     0.179    24.157     8.057
    18   8 O        1.702    -0.114    16.036     5.407
    19   6 C        1.841     0.057    29.694     8.803
    20   6 C        2.958     0.074    26.342     8.418
    21   6 C        1.990    -0.034    31.959     9.130
    22   6 C        1.985    -0.008    31.269     9.030
    23   6 C        1.987     0.038    30.081     8.857
    24   6 C        1.985    -0.005    31.190     9.019
    25   6 C        1.990    -0.021    31.601     9.078
    26   6 C        2.879     0.092    25.951     8.351
    27  17 Cl       0.957    -0.055   100.879    15.366
    28   6 C        2.033    -0.060    32.614     9.224
    29   6 C        2.977     0.021    27.532     8.607
    30   6 C        1.991    -0.054    32.497     9.206
    31   6 C        2.895     0.115    25.468     8.274
    32   7 N        1.836    -0.223    26.719     7.660
    33   6 C        2.753     0.323    21.516     7.596
    34   8 O        0.857    -0.350    20.711     6.102
    35   6 C        1.971     0.002    31.009     8.993
    36   6 C        1.967     0.030    30.292     8.888
    37   6 C        1.905    -0.004    31.222     9.024
    38   7 N        2.722     0.095    19.603     6.576
    39   6 C        1.904    -0.022    31.693     9.092
    40   6 C        1.953    -0.020    31.600     9.078
    41   6 C        2.804     0.229    23.190     7.889
    42   8 O        0.849    -0.294    19.679     5.948
    43   6 C        1.953    -0.061    32.717     9.237
    44   6 C        1.899     0.005    30.978     8.989

 Mol. C6AA /au·bohr⁶  :      55105.629917
 Mol. C8AA /au·bohr⁸  :    1542173.802294
 Mol. α(0) /au        :        372.678097


Wiberg/Mayer (AO) data.
largest (>0.10) Wiberg bond orders for each atom

 ---------------------------------------------------------------------------
     #   Z sym  total        # sym  WBO       # sym  WBO       # sym  WBO
 ---------------------------------------------------------------------------
     1   6 C    2.454 --     2 C    2.171     3 O    0.114
     2   6 C    3.470 --     1 C    2.171     3 O    1.127
     3   8 O    2.460 --     2 C    1.127     4 C    1.104     1 C    0.114
     4   6 C    3.898 --     5 C    1.469     3 O    1.104    31 C    1.059
     5   6 C    3.663 --     4 C    1.469     6 C    1.386    30 C    0.503
     6   6 C    3.909 --     5 C    1.386     7 N    1.242    29 C    1.065
     7   7 N    3.260 --     8 C    1.675     6 C    1.242
     8   6 C    3.527 --     7 N    1.675     9 C    1.384    13 N    0.148
     9   6 C    3.920 --     8 C    1.384    12 C    1.228    10 C    1.082
    10   6 C    3.944 --    11 N    2.815     9 C    1.082
    11   7 N    2.996 --    10 C    2.815
    12   6 C    3.942 --    13 N    1.263     9 C    1.228    29 C    1.178
    13   7 N    3.123 --    14 C    1.302    12 C    1.263     8 C    0.148
    14   6 C    3.903 --    13 N    1.302    28 C    1.251    15 C    1.179
    15   6 C    3.655 --    16 C    1.821    14 C    1.179    28 C    0.299
    16   6 C    3.497 --    15 C    1.821    17 C    1.292    28 C    0.162
    17   6 C    3.838 --    16 C    1.292    26 C    1.172    18 O    1.101
    18   8 O    2.449 --    19 C    1.146    17 C    1.101
    19   6 C    2.940 --    20 C    1.208    18 O    1.146
    20   6 C    3.893 --    25 C    1.249    21 C    1.249    19 C    1.208
    21   6 C    3.481 --    22 C    1.599    20 C    1.249    24 C    0.257
                            23 C    0.188
    22   6 C    3.610 --    21 C    1.599    23 C    1.583    25 C    0.232
    23   6 C    3.747 --    24 C    1.604    22 C    1.583    25 C    0.195
                            21 C    0.188
    24   6 C    3.615 --    25 C    1.613    23 C    1.604    21 C    0.257
Note: The following floating-point exceptions are signalling: IEEE_UNDERFLOW_FLAG IEEE_DENORMAL
normal termination of xtb
    25   6 C    3.482 --    24 C    1.613    20 C    1.249    22 C    0.232
                            23 C    0.195
    26   6 C    3.878 --    28 C    1.516    17 C    1.172    27 Cl   1.013
    27  17 Cl   1.198 --    26 C    1.013
    28   6 C    3.465 --    26 C    1.516    14 C    1.251    15 C    0.299
                            16 C    0.162
    29   6 C    3.941 --    30 C    1.445    12 C    1.178     6 C    1.065
    30   6 C    3.719 --    29 C    1.445    31 C    1.386     5 C    0.503
    31   6 C    3.935 --    30 C    1.386    32 N    1.285     4 C    1.059
    32   7 N    2.985 --    31 C    1.285    33 C    1.200    34 O    0.115
    33   6 C    3.925 --    34 O    1.644    32 N    1.200    35 C    0.990
    34   8 O    2.075 --    33 C    1.644    32 N    0.115
    35   6 C    3.687 --    36 C    2.258    33 C    0.990    37 C    0.149
    36   6 C    3.817 --    35 C    2.258    37 C    1.360
    37   6 C    3.154 --    36 C    1.360    38 N    1.186    44 C    0.161
                            35 C    0.149
    38   7 N    3.594 --    37 C    1.186    39 C    1.125    44 C    1.077
    39   6 C    3.249 --    40 C    1.592    38 N    1.125    43 C    0.262
                            42 O    0.101
    40   6 C    3.138 --    39 C    1.592    41 C    1.057    43 C    0.168
                            44 C    0.104
    41   6 C    3.848 --    42 O    1.573    40 C    1.057    43 C    1.053
    42   8 O    2.046 --    41 C    1.573    44 C    0.166    39 C    0.101
    43   6 C    3.231 --    44 C    1.544    41 C    1.053    39 C    0.262
                            40 C    0.168
    44   6 C    3.267 --    43 C    1.544    38 N    1.077    42 O    0.166
                            37 C    0.161    40 C    0.104
 ---------------------------------------------------------------------------

Topologies differ in total number of bonds
Writing topology from bond orders to xtbtopo.mol

molecular dipole:
                 x           y           z       tot (Debye)
 q only:        0.628      -2.063      -2.001
   full:        0.797      -2.214      -1.358       6.906
molecular quadrupole (traceless):
                xx          xy          yy          xz          yz          zz
 q only:       16.684     -14.504     -15.649      -2.688     -26.043      -1.035
  q+dip:       19.063     -11.239     -18.973      -9.516     -30.437      -0.090
   full:       20.837     -15.694     -21.178     -12.693     -30.933       0.340


           -------------------------------------------------
          | TOTAL ENERGY             -106.052961572625 Eh   |
          | GRADIENT NORM               0.635844262085 Eh/α |
          | HOMO-LUMO GAP               0.013833924104 eV   |
           -------------------------------------------------

------------------------------------------------------------------------
 * finished run on 2026/07/23 at 16:42:27.101     
------------------------------------------------------------------------
 total:
 * wall-time:     0 d,  0 h,  0 min,  1.499 sec
 *  cpu-time:     0 d,  0 h,  0 min,  1.516 sec
 * ratio c/w:     1.011 speedup
 SCF:
 * wall-time:     0 d,  0 h,  0 min,  1.478 sec
 *  cpu-time:     0 d,  0 h,  0 min,  1.481 sec
 * ratio c/w:     1.002 speedup

