      -----------------------------------------------------------      
     |                   =====================                   |     
     |                           x T B                           |     
     |                   =====================                   |     
     |                         S. Grimme                         |     
     |          Mulliken Center for Theoretical Chemistry        |     
     |                    University of Bonn                     |     
      -----------------------------------------------------------      

   * xtb version 6.6.1 (unknown) compiled by 'builduser@buildhost' on 2023-08-07

   xtb is free software: you can redistribute it and/or modify it under
   the terms of the GNU Lesser General Public License as published by
   the Free Software Foundation, either version 3 of the License, or
   (at your option) any later version.
   
   xtb is distributed in the hope that it will be useful,
   but WITHOUT ANY WARRANTY; without even the implied warranty of
   MERCHANTABILITY or FITNESS FOR A PARTICULAR PURPOSE.  See the
   GNU Lesser General Public License for more details.
   
   Cite this work as:
   * C. Bannwarth, E. Caldeweyher, S. Ehlert, A. Hansen, P. Pracht,
     J. Seibert, S. Spicher, S. Grimme, WIREs Comput. Mol. Sci., 2020, 11,
     e01493. DOI: 10.1002/wcms.1493
   
   for GFN2-xTB:
   * C. Bannwarth, S. Ehlert and S. Grimme., J. Chem. Theory Comput., 2019,
     15, 1652-1671. DOI: 10.1021/acs.jctc.8b01176
   for GFN1-xTB:
   * S. Grimme, C. Bannwarth, P. Shushkov, J. Chem. Theory Comput., 2017,
     13, 1989-2009. DOI: 10.1021/acs.jctc.7b00118
   for GFN0-xTB:
   * P. Pracht, E. Caldeweyher, S. Ehlert, S. Grimme, ChemRxiv, 2019, preprint.
     DOI: 10.26434/chemrxiv.8326202.v1
   for GFN-FF:
   * S. Spicher and S. Grimme, Angew. Chem. Int. Ed., 2020, 59, 15665-15673.
     DOI: 10.1002/anie.202004239
   
   for ALPB and GBSA implicit solvation:
   * S. Ehlert, M. Stahn, S. Spicher, S. Grimme, J. Chem. Theory Comput.,
     2021, 17, 4250-4261. DOI: 10.1021/acs.jctc.1c00471
   
   for DFT-D4:
   * E. Caldeweyher, C. Bannwarth and S. Grimme, J. Chem. Phys., 2017,
     147, 034112. DOI: 10.1063/1.4993215
   * E. Caldeweyher, S. Ehlert, A. Hansen, H. Neugebauer, S. Spicher,
     C. Bannwarth and S. Grimme, J. Chem. Phys., 2019, 150, 154122.
     DOI: 10.1063/1.5090222
   * E. Caldeweyher, J.-M. Mewes, S. Ehlert and S. Grimme, Phys. Chem. Chem. Phys.
     2020, 22, 8499-8512. DOI: 10.1039/D0CP00502A
   
   for sTDA-xTB:
   * S. Grimme and C. Bannwarth, J. Chem. Phys., 2016, 145, 054103.
     DOI: 10.1063/1.4959605
   
   in the mass-spec context:
   * V. Asgeirsson, C. Bauer and S. Grimme, Chem. Sci., 2017, 8, 4879.
     DOI: 10.1039/c7sc00601b
   * J. Koopman and S. Grimme, ACS Omega 2019, 4, 12, 15120-15133.
     DOI: 10.1021/acsomega.9b02011
   
   for metadynamics refer to:
   * S. Grimme, J. Chem. Theory Comput., 2019, 155, 2847-2862
     DOI: 10.1021/acs.jctc.9b00143
   
   for SPH calculations refer to:
   * S. Spicher and S. Grimme, J. Chem. Theory Comput., 2021, 17, 1701-1714
     DOI: 10.1021/acs.jctc.0c01306
   
   with help from (in alphabetical order)
   P. Atkinson, C. Bannwarth, F. Bohle, G. Brandenburg, E. Caldeweyher
   M. Checinski, S. Dohm, S. Ehlert, S. Ehrlich, I. Gerasimov, C. Hölzer
   A. Katbashev, J. Koopman, C. Lavigne, S. Lehtola, F. März, M. Müller,
   F. Musil, H. Neugebauer, J. Pisarek, C. Plett, P. Pracht, F. Pultar,
   J. Seibert, P. Shushkov, S. Spicher, M. Stahn, M. Steiner, T. Strunk,
   J. Stückrath, T. Rose, and J. Unsleber
   
 * started run on 2026/07/23 at 16:37:58.730     

           -------------------------------------------------
          |                Calculation Setup                |
           -------------------------------------------------

          program call               : xtb /home/selva/covalent_quantum_benchmark/data/quantum/erbB_xyz/EGFR__CHEMBL304271__state02.xyz --gfn2 --chrg 0 --uhf 0 --iterations 300
          coordinate file            : /home/selva/covalent_quantum_benchmark/data/quantum/erbB_xyz/EGFR__CHEMBL304271__state02.xyz
          omp threads                :                    24

   ID    Z sym.   atoms
    1    6 C      1-5, 8, 9, 11, 13-16, 18-21, 24, 26, 28, 30-33, 35, 37, 38
    2    8 O      6, 10, 22
    3    7 N      7, 12, 17, 23, 25, 27, 29
    4    9 F      34
    5   17 Cl     36

           -------------------------------------------------
          |                 G F N 2 - x T B                 |
           -------------------------------------------------

        Reference                      10.1021/acs.jctc.8b01176
      * Hamiltonian:
        H0-scaling (s, p, d)           1.850000    2.230000    2.230000
        zeta-weighting                 0.500000
      * Dispersion:
        s8                             2.700000
        a1                             0.520000
        a2                             5.000000
        s9                             5.000000
      * Repulsion:
        kExp                           1.500000    1.000000
        rExp                           1.000000
      * Coulomb:
        alpha                          2.000000
        third order                    shell-resolved
        anisotropic                    true
        a3                             3.000000
        a5                             4.000000
        cn-shift                       1.200000
        cn-exp                         4.000000
        max-rad                        5.000000


          ...................................................
          :                      SETUP                      :
          :.................................................:
          :  # basis functions                 158          :
          :  # atomic orbitals                 157          :
          :  # shells                           77          :
          :  # electrons                       171          :
          :  max. iterations                   300          :
          :  Hamiltonian                  GFN2-xTB          :
          :  restarted?                      false          :
          :  GBSA solvation                  false          :
          :  PC potential                    false          :
          :  electronic temp.          300.0000000     K    :
          :  accuracy                    1.0000000          :
          :  -> integral cutoff          0.2500000E+02      :
          :  -> integral neglect         0.1000000E-07      :
          :  -> SCF convergence          0.1000000E-05 Eh   :
          :  -> wf. convergence          0.1000000E-03 e    :
          :  Broyden damping             0.4000000          :
          ...................................................

 iter      E             dE          RMSdq      gap      omega  full diag
   1    -95.9169372 -0.959169E+02  0.876E+00    0.03       0.0  T
   2    -85.3882296  0.105287E+02  0.113E+01    0.09       1.0  T
   3    -79.7238539  0.566438E+01  0.111E+01    0.62       1.0  T
   4    -78.1770544  0.154680E+01  0.112E+01    0.04       1.0  T
   5    -86.1422742 -0.796522E+01  0.889E+00    0.18       1.0  T
   6    -94.7020008 -0.855973E+01  0.567E+00    0.11       1.0  T
   7    -94.2908304  0.411170E+00  0.517E+00    0.05       1.0  T
   8    -94.9030882 -0.612258E+00  0.446E+00    0.17       1.0  T
   9    -95.5373463 -0.634258E+00  0.388E+00    0.12       1.0  T
  10    -95.4888810  0.484653E-01  0.356E+00    0.24       1.0  T
  11    -96.3373442 -0.848463E+00  0.264E+00    0.14       1.0  T
  12    -95.7871552  0.550189E+00  0.290E+00    0.05       1.0  T
  13    -96.2667224 -0.479567E+00  0.241E+00    0.08       1.0  T
  14    -96.3682761 -0.101554E+00  0.226E+00    0.02       1.0  T
  15    -96.3982555 -0.299794E-01  0.215E+00    0.07       1.0  T
  16    -96.3960855  0.216997E-02  0.208E+00    0.02       1.0  T
  17    -96.6511844 -0.255099E+00  0.161E+00    0.05       1.0  T
  18    -96.6279616  0.232228E-01  0.144E+00    0.01       1.0  T
  19    -96.4988925  0.129069E+00  0.184E+00    0.06       1.0  T
  20    -96.5126153 -0.137228E-01  0.173E+00    0.06       1.0  T
  21    -96.6816034 -0.168988E+00  0.116E+00    0.04       1.0  T
  22    -96.6599057  0.216977E-01  0.120E+00    0.04       1.0  T
  23    -96.5942815  0.656243E-01  0.140E+00    0.06       1.0  T
  24    -96.7093456 -0.115064E+00  0.911E-01    0.04       1.0  T
  25    -96.7498171 -0.404715E-01  0.609E-01    0.04       1.0  T
  26    -96.7529760 -0.315884E-02  0.656E-01    0.01       1.0  T
  27    -96.7399391  0.130369E-01  0.739E-01    0.03       1.0  T
  28    -96.7706023 -0.306632E-01  0.397E-01    0.03       1.0  T
  29    -96.7730865 -0.248423E-02  0.344E-01    0.02       1.0  T
  30    -96.7788559 -0.576935E-02  0.161E-01    0.04       1.0  T
  31    -96.7779980  0.857868E-03  0.162E-01    0.04       1.0  T
  32    -96.7723876  0.561037E-02  0.282E-01    0.03       1.0  T
  33    -96.7796165 -0.722889E-02  0.102E-01    0.04       1.0  T
  34    -96.7800046 -0.388094E-03  0.751E-02    0.04       1.0  T
  35    -96.7771482  0.285640E-02  0.191E-01    0.04       1.0  T
  36    -96.7800682 -0.291996E-02  0.634E-02    0.04       1.0  T
  37    -96.7801009 -0.326739E-04  0.612E-02    0.04       1.0  T
  38    -96.7803913 -0.290477E-03  0.180E-02    0.03       1.0  T
  39    -96.7803754  0.158901E-04  0.243E-02    0.03       1.0  T
  40    -96.7802566  0.118865E-03  0.434E-02    0.03       1.0  T
  41    -96.7803607 -0.104152E-03  0.240E-02    0.03       1.0  T
  42    -96.7803992 -0.384830E-04  0.121E-02    0.03       1.3  T
  43    -96.7804097 -0.105043E-04  0.547E-03    0.03       3.0  T
  44    -96.7804107 -0.100221E-05  0.453E-03    0.03       3.6  T
  45    -96.7804109 -0.195115E-06  0.404E-03    0.03       4.0  T
  46    -96.7804118 -0.904242E-06  0.171E-03    0.03       9.5  T
  47    -96.7804118 -0.287864E-07  0.146E-03    0.03      11.1  T
  48    -96.7804119 -0.871925E-07  0.811E-04    0.03      20.0  T
  49    -96.7804119  0.109827E-07  0.814E-04    0.03      19.9  T

   *** convergence criteria satisfied after 49 iterations ***

         #    Occupation            Energy/Eh            Energy/eV
      -------------------------------------------------------------
         1        2.0000           -1.1011553             -29.9640
       ...           ...                  ...                  ...
        80        2.0000           -0.4504608             -12.2577
        81        2.0000           -0.4492679             -12.2252
        82        1.9944           -0.4430827             -12.0569
        83        1.7813           -0.4394633             -11.9584
        84        1.7546           -0.4393356             -11.9549
        85        1.4472           -0.4383316             -11.9276
        86        1.2984           -0.4379767             -11.9180 (HOMO)
        87        0.7070           -0.4367140             -11.8836 (LUMO)
        88        0.0172           -0.4326685             -11.7735
        89                         -0.4204103             -11.4399
        90                         -0.4192104             -11.4073
        91                         -0.4152874             -11.3005
       ...                                ...                  ...
       157                          0.6319475              17.1962
      -------------------------------------------------------------
                  HL-Gap            0.0012627 Eh            0.0344 eV
             Fermi-level           -0.4373393 Eh          -11.9006 eV

 SCC (total)                   0 d,  0 h,  0 min,  0.740 sec
 SCC setup                      ...        0 min,  0.000 sec (  0.041%)
 Dispersion                     ...        0 min,  0.001 sec (  0.155%)
 classical contributions        ...        0 min,  0.001 sec (  0.080%)
 integral evaluation            ...        0 min,  0.005 sec (  0.636%)
 iterations                     ...        0 min,  0.700 sec ( 94.616%)
 molecular gradient             ...        0 min,  0.025 sec (  3.412%)
 printout                       ...        0 min,  0.008 sec (  1.055%)

         :::::::::::::::::::::::::::::::::::::::::::::::::::::
         ::                     SUMMARY                     ::
         :::::::::::::::::::::::::::::::::::::::::::::::::::::
         :: total energy             -95.853398716156 Eh    ::
         :: gradient norm              0.620717647059 Eh/a0 ::
         :: HOMO-LUMO gap              0.034360344176 eV    ::
         ::.................................................::
         :: SCC energy               -96.780411923796 Eh    ::
         :: -> isotropic ES            0.074881441341 Eh    ::
         :: -> anisotropic ES          0.005673762440 Eh    ::
         :: -> anisotropic XC          0.048036786739 Eh    ::
         :: -> dispersion             -0.058043323558 Eh    ::
         :: repulsion energy           0.924679048084 Eh    ::
         :: add. restraining           0.000000000000 Eh    ::
         :: total charge              -0.000000000000 e     ::
         :::::::::::::::::::::::::::::::::::::::::::::::::::::

           -------------------------------------------------
          |                Property Printout                |
           -------------------------------------------------

    * Orbital Energies and Occupations

         #    Occupation            Energy/Eh            Energy/eV
      -------------------------------------------------------------
         1        2.0000           -1.1011553             -29.9640
       ...           ...                  ...                  ...
        74        2.0000           -0.4673207             -12.7164
        75        2.0000           -0.4655149             -12.6673
        76        2.0000           -0.4622260             -12.5778
        77        2.0000           -0.4585256             -12.4771
        78        2.0000           -0.4559200             -12.4062
        79        2.0000           -0.4547667             -12.3748
        80        2.0000           -0.4504608             -12.2577
        81        2.0000           -0.4492679             -12.2252
        82        1.9944           -0.4430827             -12.0569
        83        1.7813           -0.4394633             -11.9584
        84        1.7546           -0.4393356             -11.9549
        85        1.4472           -0.4383316             -11.9276
        86        1.2984           -0.4379767             -11.9180 (HOMO)
        87        0.7070           -0.4367140             -11.8836 (LUMO)
        88        0.0172           -0.4326685             -11.7735
        89                         -0.4204103             -11.4399
        90                         -0.4192104             -11.4073
        91                         -0.4152874             -11.3005
        92                         -0.4060747             -11.0499
        93                         -0.4027188             -10.9585
        94                         -0.4016511             -10.9295
        95                         -0.3974264             -10.8145
        96                         -0.3769174             -10.2564
        97                         -0.3741845             -10.1821
       ...                                ...                  ...
       157                          0.6319475              17.1962
      -------------------------------------------------------------
                  HL-Gap            0.0012627 Eh            0.0344 eV
             Fermi-level           -0.4373393 Eh          -11.9006 eV

     #   Z          covCN         q      C6AA      α(0)
     1   6 C        0.990    -0.063    37.937    10.350
     2   6 C        3.083     0.080    26.128     8.380
     3   6 C        2.028    -0.006    31.158     9.015
     4   6 C        3.044     0.096    25.827     8.335
     5   6 C        2.752     0.312    21.698     7.628
     6   8 O        0.857    -0.313    20.027     6.000
     7   7 N        1.829    -0.105    24.058     7.268
     8   6 C        1.888     0.064    29.488     8.770
     9   6 C        2.795     0.242    22.955     7.849
    10   8 O        0.848    -0.314    20.039     6.002
    11   6 C        1.893    -0.007    31.310     9.037
    12   7 N        2.718     0.120    19.191     6.506
    13   6 C        1.900     0.010    30.853     8.971
    14   6 C        0.975    -0.095    38.884    10.471
    15   6 C        1.898     0.033    30.278     8.887
    16   6 C        0.976    -0.093    38.814    10.462
    17   7 N        1.900    -0.158    25.219     7.445
    18   6 C        2.966     0.135    25.055     8.210
    19   6 C        1.973     0.015    30.675     8.944
    20   6 C        3.095     0.047    26.843     8.491
    21   6 C        2.921     0.283    22.218     7.730
    22   8 O        0.855    -0.321    20.158     6.020
    23   7 N        1.932    -0.203    26.233     7.595
    24   6 C        3.138     0.196    23.635     7.957
    25   7 N        1.828    -0.137    24.746     7.371
    26   6 C        1.983     0.184    26.682     8.342
    27   7 N        1.834    -0.146    24.952     7.402
    28   6 C        2.856     0.186    24.029     8.035
    29   7 N        1.829    -0.141    24.827     7.383
    30   6 C        2.890     0.143    24.892     8.180
    31   6 C        1.991    -0.029    31.813     9.109
    32   6 C        1.986    -0.019    31.565     9.073
    33   6 C        2.805     0.196    23.832     7.998
    34   9 F        0.787    -0.148    10.714     3.866
    35   6 C        2.876     0.092    25.964     8.353
    36  17 Cl       0.960    -0.054   100.853    15.364
    37   6 C        2.030    -0.068    32.859     9.258
    38   6 C        3.070    -0.011    28.219     8.710

 Mol. C6AA /au·bohr⁶  :      39719.240064
 Mol. C8AA /au·bohr⁸  :    1089056.857795
 Mol. α(0) /au        :        314.765921


Wiberg/Mayer (AO) data.
largest (>0.10) Wiberg bond orders for each atom

 ---------------------------------------------------------------------------
     #   Z sym  total        # sym  WBO       # sym  WBO       # sym  WBO
 ---------------------------------------------------------------------------
     1   6 C    2.390 --     2 C    1.844    17 N    0.170     3 C    0.156
                            18 C    0.104
     2   6 C    3.947 --     1 C    1.844     3 C    1.070    18 C    0.944
     3   6 C    3.020 --     4 C    1.475     2 C    1.070     1 C    0.156
     4   6 C    3.910 --     3 C    1.475    17 N    1.228     5 C    0.980
     5   6 C    3.938 --     6 O    1.740     7 N    1.128     4 C    0.980
     6   8 O    2.085 --     5 C    1.740     8 C    0.104
     7   7 N    3.283 --     8 C    1.752     5 C    1.128    11 C    0.106
     8   6 C    3.398 --     7 N    1.752     9 C    1.056    11 C    0.216
                            10 O    0.139     6 O    0.104
     9   6 C    3.880 --    10 O    1.578    11 C    1.060     8 C    1.056
    10   8 O    2.052 --     9 C    1.578     8 C    0.139    11 C    0.101
    11   6 C    3.218 --    12 N    1.144     9 C    1.060     8 C    0.216
                            16 C    0.148    15 C    0.140    13 C    0.138
                            14 C    0.129     7 N    0.106    10 O    0.101
    12   7 N    3.649 --    15 C    1.146    11 C    1.144    13 C    1.071
                            14 C    0.113
    13   6 C    3.526 --    14 C    2.128    12 N    1.071    11 C    0.138
    14   6 C    2.598 --    13 C    2.128    11 C    0.129    12 N    0.113
    15   6 C    3.542 --    16 C    2.062    12 N    1.146    11 C    0.140
    16   6 C    2.560 --    15 C    2.062    11 C    0.148
    17   7 N    3.033 --    18 C    1.271     4 C    1.228     1 C    0.170
    18   6 C    3.946 --    19 C    1.495    17 N    1.271     2 C    0.944
                             1 C    0.104
    19   6 C    3.673 --    20 C    1.505    18 C    1.495    23 N    0.120
                            22 O    0.117
    20   6 C    3.942 --    19 C    1.505    38 C    1.169    21 C    1.027
    21   6 C    3.941 --    22 O    1.575    23 N    1.220    20 C    1.027
    22   8 O    1.978 --    21 C    1.575    19 C    0.117    23 N    0.103
    23   7 N    3.039 --    24 C    1.294    21 C    1.220    19 C    0.120
                            22 O    0.103
    24   6 C    3.946 --    23 N    1.294    25 N    1.244    38 C    1.163
    25   7 N    3.161 --    26 C    1.553    24 C    1.244
    26   6 C    3.755 --    27 N    1.716    25 N    1.553    29 N    0.193
Note: The following floating-point exceptions are signalling: IEEE_UNDERFLOW_FLAG IEEE_DENORMAL
normal termination of xtb
    27   7 N    3.223 --    26 C    1.716    28 C    1.157
    28   6 C    3.950 --    29 N    1.347    38 C    1.229    27 N    1.157
    29   7 N    3.207 --    28 C    1.347    30 C    1.234    26 C    0.193
    30   6 C    3.904 --    37 C    1.273    29 N    1.234    31 C    1.218
    31   6 C    3.603 --    32 C    1.707    30 C    1.218    37 C    0.356
    32   6 C    3.410 --    31 C    1.707    33 C    1.361    37 C    0.147
    33   6 C    3.781 --    32 C    1.361    35 C    1.246    34 F    1.008
    34   9 F    1.155 --    33 C    1.008
    35   6 C    3.895 --    37 C    1.462    33 C    1.246    36 Cl   1.012
    36  17 Cl   1.197 --    35 C    1.012
    37   6 C    3.425 --    35 C    1.462    30 C    1.273    31 C    0.356
                            32 C    0.147
    38   6 C    3.859 --    28 C    1.229    20 C    1.169    24 C    1.163
 ---------------------------------------------------------------------------

Topologies differ in total number of bonds
Writing topology from bond orders to xtbtopo.mol

molecular dipole:
                 x           y           z       tot (Debye)
 q only:       -0.866      -1.132       0.327
   full:       -0.903      -2.065      -0.383       5.811
molecular quadrupole (traceless):
                xx          xy          yy          xz          yz          zz
 q only:       12.456       2.742     -15.420     -11.001     -20.303       2.965
  q+dip:       15.198       4.791     -12.347     -13.715     -19.846      -2.851
   full:       15.948       6.118     -14.650     -16.866     -20.860      -1.298


           -------------------------------------------------
          | TOTAL ENERGY              -95.853398716156 Eh   |
          | GRADIENT NORM               0.620717647059 Eh/α |
          | HOMO-LUMO GAP               0.034360344176 eV   |
           -------------------------------------------------

------------------------------------------------------------------------
 * finished run on 2026/07/23 at 16:37:59.489     
------------------------------------------------------------------------
 total:
 * wall-time:     0 d,  0 h,  0 min,  0.759 sec
 *  cpu-time:     0 d,  0 h,  0 min,  0.752 sec
 * ratio c/w:     0.991 speedup
 SCF:
 * wall-time:     0 d,  0 h,  0 min,  0.741 sec
 *  cpu-time:     0 d,  0 h,  0 min,  0.733 sec
 * ratio c/w:     0.989 speedup

