      -----------------------------------------------------------      
     |                   =====================                   |     
     |                           x T B                           |     
     |                   =====================                   |     
     |                         S. Grimme                         |     
     |          Mulliken Center for Theoretical Chemistry        |     
     |                    University of Bonn                     |     
      -----------------------------------------------------------      

   * xtb version 6.6.1 (unknown) compiled by 'builduser@buildhost' on 2023-08-07

   xtb is free software: you can redistribute it and/or modify it under
   the terms of the GNU Lesser General Public License as published by
   the Free Software Foundation, either version 3 of the License, or
   (at your option) any later version.
   
   xtb is distributed in the hope that it will be useful,
   but WITHOUT ANY WARRANTY; without even the implied warranty of
   MERCHANTABILITY or FITNESS FOR A PARTICULAR PURPOSE.  See the
   GNU Lesser General Public License for more details.
   
   Cite this work as:
   * C. Bannwarth, E. Caldeweyher, S. Ehlert, A. Hansen, P. Pracht,
     J. Seibert, S. Spicher, S. Grimme, WIREs Comput. Mol. Sci., 2020, 11,
     e01493. DOI: 10.1002/wcms.1493
   
   for GFN2-xTB:
   * C. Bannwarth, S. Ehlert and S. Grimme., J. Chem. Theory Comput., 2019,
     15, 1652-1671. DOI: 10.1021/acs.jctc.8b01176
   for GFN1-xTB:
   * S. Grimme, C. Bannwarth, P. Shushkov, J. Chem. Theory Comput., 2017,
     13, 1989-2009. DOI: 10.1021/acs.jctc.7b00118
   for GFN0-xTB:
   * P. Pracht, E. Caldeweyher, S. Ehlert, S. Grimme, ChemRxiv, 2019, preprint.
     DOI: 10.26434/chemrxiv.8326202.v1
   for GFN-FF:
   * S. Spicher and S. Grimme, Angew. Chem. Int. Ed., 2020, 59, 15665-15673.
     DOI: 10.1002/anie.202004239
   
   for ALPB and GBSA implicit solvation:
   * S. Ehlert, M. Stahn, S. Spicher, S. Grimme, J. Chem. Theory Comput.,
     2021, 17, 4250-4261. DOI: 10.1021/acs.jctc.1c00471
   
   for DFT-D4:
   * E. Caldeweyher, C. Bannwarth and S. Grimme, J. Chem. Phys., 2017,
     147, 034112. DOI: 10.1063/1.4993215
   * E. Caldeweyher, S. Ehlert, A. Hansen, H. Neugebauer, S. Spicher,
     C. Bannwarth and S. Grimme, J. Chem. Phys., 2019, 150, 154122.
     DOI: 10.1063/1.5090222
   * E. Caldeweyher, J.-M. Mewes, S. Ehlert and S. Grimme, Phys. Chem. Chem. Phys.
     2020, 22, 8499-8512. DOI: 10.1039/D0CP00502A
   
   for sTDA-xTB:
   * S. Grimme and C. Bannwarth, J. Chem. Phys., 2016, 145, 054103.
     DOI: 10.1063/1.4959605
   
   in the mass-spec context:
   * V. Asgeirsson, C. Bauer and S. Grimme, Chem. Sci., 2017, 8, 4879.
     DOI: 10.1039/c7sc00601b
   * J. Koopman and S. Grimme, ACS Omega 2019, 4, 12, 15120-15133.
     DOI: 10.1021/acsomega.9b02011
   
   for metadynamics refer to:
   * S. Grimme, J. Chem. Theory Comput., 2019, 155, 2847-2862
     DOI: 10.1021/acs.jctc.9b00143
   
   for SPH calculations refer to:
   * S. Spicher and S. Grimme, J. Chem. Theory Comput., 2021, 17, 1701-1714
     DOI: 10.1021/acs.jctc.0c01306
   
   with help from (in alphabetical order)
   P. Atkinson, C. Bannwarth, F. Bohle, G. Brandenburg, E. Caldeweyher
   M. Checinski, S. Dohm, S. Ehlert, S. Ehrlich, I. Gerasimov, C. Hölzer
   A. Katbashev, J. Koopman, C. Lavigne, S. Lehtola, F. März, M. Müller,
   F. Musil, H. Neugebauer, J. Pisarek, C. Plett, P. Pracht, F. Pultar,
   J. Seibert, P. Shushkov, S. Spicher, M. Stahn, M. Steiner, T. Strunk,
   J. Stückrath, T. Rose, and J. Unsleber
   
 * started run on 2026/07/23 at 16:37:11.694     

           -------------------------------------------------
          |                Calculation Setup                |
           -------------------------------------------------

          program call               : xtb /home/selva/covalent_quantum_benchmark/data/quantum/erbB_xyz/EGFR__CHEMBL117324__state00.xyz --gfn2 --chrg 0 --uhf 0 --iterations 300
          coordinate file            : /home/selva/covalent_quantum_benchmark/data/quantum/erbB_xyz/EGFR__CHEMBL117324__state00.xyz
          omp threads                :                    24

   ID    Z sym.   atoms
    1    6 C      1, 3-7, 9-12, 15-18, 20-22, 24, 26-30, 32-34
    2    8 O      2, 13
    3    7 N      8, 14, 19, 23, 25
    4   35 Br     31

           -------------------------------------------------
          |                 G F N 2 - x T B                 |
           -------------------------------------------------

        Reference                      10.1021/acs.jctc.8b01176
      * Hamiltonian:
        H0-scaling (s, p, d)           1.850000    2.230000    2.230000
        zeta-weighting                 0.500000
      * Dispersion:
        s8                             2.700000
        a1                             0.520000
        a2                             5.000000
        s9                             5.000000
      * Repulsion:
        kExp                           1.500000    1.000000
        rExp                           1.000000
      * Coulomb:
        alpha                          2.000000
        third order                    shell-resolved
        anisotropic                    true
        a3                             3.000000
        a5                             4.000000
        cn-shift                       1.200000
        cn-exp                         4.000000
        max-rad                        5.000000


          ...................................................
          :                      SETUP                      :
          :.................................................:
          :  # basis functions                 142          :
          :  # atomic orbitals                 141          :
          :  # shells                           69          :
          :  # electrons                       148          :
          :  max. iterations                   300          :
          :  Hamiltonian                  GFN2-xTB          :
          :  restarted?                      false          :
          :  GBSA solvation                  false          :
          :  PC potential                    false          :
          :  electronic temp.          300.0000000     K    :
          :  accuracy                    1.0000000          :
          :  -> integral cutoff          0.2500000E+02      :
          :  -> integral neglect         0.1000000E-07      :
          :  -> SCF convergence          0.1000000E-05 Eh   :
          :  -> wf. convergence          0.1000000E-03 e    :
          :  Broyden damping             0.4000000          :
          ...................................................

 iter      E             dE          RMSdq      gap      omega  full diag
   1    -80.5080257 -0.805080E+02  0.897E+00    0.06       0.0  T
   2    -57.8098524  0.226982E+02  0.141E+01    0.30       1.0  T
   3    -52.4598552  0.535000E+01  0.128E+01    0.25       1.0  T
   4    -48.4861316  0.397372E+01  0.127E+01    0.24       1.0  T
   5    -63.7115212 -0.152254E+02  0.105E+01    0.07       1.0  T
   6    -79.9218209 -0.162103E+02  0.581E+00    0.27       1.0  T
   7    -79.7058642  0.215957E+00  0.566E+00    0.15       1.0  T
   8    -80.4372788 -0.731415E+00  0.453E+00    0.10       1.0  T
   9    -80.1858692  0.251410E+00  0.447E+00    0.24       1.0  T
  10    -81.1574728 -0.971604E+00  0.342E+00    0.26       1.0  T
  11    -81.2655582 -0.108085E+00  0.296E+00    0.19       1.0  T
  12    -81.3107581 -0.451999E-01  0.290E+00    0.13       1.0  T
  13    -81.3631670 -0.524088E-01  0.258E+00    0.10       1.0  T
  14    -81.4983060 -0.135139E+00  0.230E+00    0.08       1.0  T
  15    -81.3530254  0.145281E+00  0.230E+00    0.12       1.0  T
  16    -81.6482157 -0.295190E+00  0.181E+00    0.05       1.0  T
  17    -81.6559401 -0.772432E-02  0.145E+00    0.04       1.0  T
  18    -81.6478415  0.809857E-02  0.174E+00    0.03       1.0  T
  19    -81.7811127 -0.133271E+00  0.108E+00    0.05       1.0  T
  20    -81.8056891 -0.245765E-01  0.830E-01    0.04       1.0  T
  21    -81.8117498 -0.606067E-02  0.743E-01    0.04       1.0  T
  22    -81.7435685  0.681813E-01  0.122E+00    0.06       1.0  T
  23    -81.7129083  0.306602E-01  0.134E+00    0.07       1.0  T
  24    -81.7418737 -0.289653E-01  0.120E+00    0.06       1.0  T
  25    -81.7715570 -0.296833E-01  0.103E+00    0.06       1.0  T
  26    -81.8210901 -0.495332E-01  0.629E-01    0.05       1.0  T
  27    -81.8271633 -0.607318E-02  0.540E-01    0.05       1.0  T
  28    -81.8322570 -0.509366E-02  0.456E-01    0.04       1.0  T
  29    -81.8367811 -0.452418E-02  0.251E-01    0.03       1.0  T
  30    -81.8072701  0.295111E-01  0.602E-01    0.05       1.0  T
  31    -81.8400591 -0.327890E-01  0.160E-01    0.04       1.0  T
  32    -81.8376816  0.237743E-02  0.228E-01    0.03       1.0  T
  33    -81.8402462 -0.256461E-02  0.145E-01    0.03       1.0  T
  34    -81.8417330 -0.148675E-02  0.686E-02    0.03       1.0  T
  35    -81.8414897  0.243325E-03  0.824E-02    0.03       1.0  T
  36    -81.8418724 -0.382758E-03  0.462E-02    0.03       1.0  T
  37    -81.8418867 -0.142295E-04  0.340E-02    0.04       1.0  T
  38    -81.8418940 -0.730829E-05  0.330E-02    0.04       1.0  T
  39    -81.8419288 -0.348463E-04  0.290E-02    0.03       1.0  T
  40    -81.8419641 -0.352685E-04  0.205E-02    0.03       1.0  T
  41    -81.8419838 -0.197504E-04  0.137E-02    0.03       1.3  T
  42    -81.8419921 -0.823526E-05  0.686E-03    0.03       2.5  T
  43    -81.8419935 -0.144110E-05  0.308E-03    0.03       5.6  T
  44    -81.8419944 -0.879445E-06  0.210E-03    0.03       8.2  T
  45    -81.8419946 -0.197266E-06  0.925E-04    0.03      18.5  T
  46    -81.8419946  0.823059E-08  0.838E-04    0.03      20.5  T

   *** convergence criteria satisfied after 46 iterations ***

         #    Occupation            Energy/Eh            Energy/eV
      -------------------------------------------------------------
         1        2.0000           -0.8698228             -23.6691
       ...           ...                  ...                  ...
        68        2.0000           -0.4348860             -11.8338
        69        2.0000           -0.4315857             -11.7440
        70        1.9999           -0.4277354             -11.6393
        71        1.9956           -0.4235308             -11.5249
        72        1.9385           -0.4209884             -11.4557
        73        1.8268           -0.4199485             -11.4274
        74        1.3590           -0.4184243             -11.3859 (HOMO)
        75        0.7159           -0.4171553             -11.3514 (LUMO)
        76        0.1469           -0.4153020             -11.3009
        77        0.0172           -0.4132016             -11.2438
        78        0.0000           -0.4075420             -11.0898
        79                         -0.4006690             -10.9028
       ...                                ...                  ...
       141                          1.3119061              35.6988
      -------------------------------------------------------------
                  HL-Gap            0.0012690 Eh            0.0345 eV
             Fermi-level           -0.4177103 Eh          -11.3665 eV

 SCC (total)                   0 d,  0 h,  0 min,  0.741 sec
 SCC setup                      ...        0 min,  0.001 sec (  0.082%)
 Dispersion                     ...        0 min,  0.001 sec (  0.185%)
 classical contributions        ...        0 min,  0.004 sec (  0.518%)
 integral evaluation            ...        0 min,  0.017 sec (  2.319%)
 iterations                     ...        0 min,  0.681 sec ( 91.898%)
 molecular gradient             ...        0 min,  0.035 sec (  4.679%)
 printout                       ...        0 min,  0.002 sec (  0.312%)

         :::::::::::::::::::::::::::::::::::::::::::::::::::::
         ::                     SUMMARY                     ::
         :::::::::::::::::::::::::::::::::::::::::::::::::::::
         :: total energy             -80.846492724875 Eh    ::
         :: gradient norm              0.485192330213 Eh/a0 ::
         :: HOMO-LUMO gap              0.034530431848 eV    ::
         ::.................................................::
         :: SCC energy               -81.841994574714 Eh    ::
         :: -> isotropic ES            0.032406986100 Eh    ::
         :: -> anisotropic ES          0.009093216241 Eh    ::
         :: -> anisotropic XC          0.054766512054 Eh    ::
         :: -> dispersion             -0.047614182773 Eh    ::
         :: repulsion energy           0.995437041762 Eh    ::
         :: add. restraining           0.000000000000 Eh    ::
         :: total charge              -0.000000000083 e     ::
         :::::::::::::::::::::::::::::::::::::::::::::::::::::

           -------------------------------------------------
          |                Property Printout                |
           -------------------------------------------------

    * Orbital Energies and Occupations

         #    Occupation            Energy/Eh            Energy/eV
      -------------------------------------------------------------
         1        2.0000           -0.8698228             -23.6691
       ...           ...                  ...                  ...
        62        2.0000           -0.4504165             -12.2565
        63        2.0000           -0.4494208             -12.2294
        64        2.0000           -0.4461971             -12.1416
        65        2.0000           -0.4453872             -12.1196
        66        2.0000           -0.4402335             -11.9794
        67        2.0000           -0.4376914             -11.9102
        68        2.0000           -0.4348860             -11.8338
        69        2.0000           -0.4315857             -11.7440
        70        1.9999           -0.4277354             -11.6393
        71        1.9956           -0.4235308             -11.5249
        72        1.9385           -0.4209884             -11.4557
        73        1.8268           -0.4199485             -11.4274
        74        1.3590           -0.4184243             -11.3859 (HOMO)
        75        0.7159           -0.4171553             -11.3514 (LUMO)
        76        0.1469           -0.4153020             -11.3009
        77        0.0172           -0.4132016             -11.2438
        78        0.0000           -0.4075420             -11.0898
        79                         -0.4006690             -10.9028
        80                         -0.3958663             -10.7721
        81                         -0.3897313             -10.6051
        82                         -0.3605228              -9.8103
        83                         -0.3542570              -9.6398
        84                         -0.3541799              -9.6377
        85                         -0.3459467              -9.4137
       ...                                ...                  ...
       141                          1.3119061              35.6988
      -------------------------------------------------------------
                  HL-Gap            0.0012690 Eh            0.0345 eV
             Fermi-level           -0.4177103 Eh          -11.3665 eV

     #   Z          covCN         q      C6AA      α(0)
     1   6 C        0.876    -0.001    35.233     9.916
     2   8 O        1.697    -0.016    14.694     5.175
     3   6 C        1.851     0.002    31.090     9.007
     4   6 C        2.905     0.058    26.702     8.473
     5   6 C        1.984    -0.022    31.632     9.083
     6   6 C        1.976    -0.011    31.348     9.042
     7   6 C        1.934    -0.018    31.569     9.074
     8   7 N        2.756     0.026    20.802     6.774
     9   6 C        1.898     0.007    30.932     8.982
    10   6 C        1.962     0.030    30.309     8.891
    11   6 C        1.974     0.026    30.398     8.904
    12   6 C        2.749     0.321    21.540     7.600
    13   8 O        0.860    -0.371    21.100     6.159
    14   7 N        1.837    -0.208    26.345     7.606
    15   6 C        2.894     0.147    24.811     8.167
    16   6 C        1.990     0.001    31.027     8.996
    17   6 C        2.003    -0.021    31.595     9.078
    18   6 C        2.951     0.125    25.262     8.244
    19   7 N        1.844    -0.115    24.282     7.303
    20   6 C        1.970     0.064    29.437     8.762
    21   6 C        2.958     0.034    27.235     8.560
    22   6 C        1.907     0.124    28.060     8.555
    23   7 N        0.911    -0.181    24.931     7.222
    24   6 C        2.911     0.133    25.099     8.215
    25   7 N        1.828    -0.177    25.628     7.502
    26   6 C        2.893     0.133    25.102     8.214
    27   6 C        1.993     0.021    30.513     8.921
    28   6 C        1.986    -0.021    31.603     9.079
    29   6 C        2.062     0.016    30.544     8.927
    30   6 C        2.906     0.113    25.515     8.282
    31  35 Br       1.069    -0.069   186.917    22.044
    32   6 C        2.063    -0.108    33.941     9.411
    33   6 C        2.977     0.016    27.651     8.625
    34   6 C        1.997    -0.057    32.581     9.218

 Mol. C6AA /au·bohr⁶  :      34955.718639
 Mol. C8AA /au·bohr⁸  :    1033313.625060
 Mol. α(0) /au        :        298.006632


Wiberg/Mayer (AO) data.
largest (>0.10) Wiberg bond orders for each atom

 ---------------------------------------------------------------------------
     #   Z sym  total        # sym  WBO       # sym  WBO       # sym  WBO
 ---------------------------------------------------------------------------
     1   6 C    1.924 --     2 O    1.519     3 C    0.160     4 C    0.132
     2   8 O    2.688 --     1 C    1.519     3 C    1.102
     3   6 C    2.957 --     4 C    1.126     2 O    1.102     6 C    0.200
                             1 C    0.160     5 C    0.133     7 C    0.131
     4   6 C    3.762 --     5 C    1.189     3 C    1.126     8 N    1.023
                             1 C    0.132     7 C    0.129
     5   6 C    3.532 --     6 C    1.509     4 C    1.189     7 C    0.405
                             3 C    0.133     9 C    0.100
     6   6 C    3.378 --     5 C    1.509     7 C    1.395     3 C    0.200
     7   6 C    3.275 --     6 C    1.395     8 N    1.098     5 C    0.405
                             3 C    0.131     4 C    0.129
     8   7 N    3.514 --     9 C    1.126     7 C    1.098     4 C    1.023
     9   6 C    3.004 --    10 C    1.281     8 N    1.126    11 C    0.105
                             5 C    0.100
    10   6 C    3.943 --    11 C    2.513     9 C    1.281
    11   6 C    3.866 --    10 C    2.513    12 C    1.018     9 C    0.105
    12   6 C    3.934 --    13 O    1.647    14 N    1.200    11 C    1.018
    13   8 O    1.958 --    12 C    1.647    14 N    0.125
    14   7 N    2.892 --    15 C    1.229    12 C    1.200    17 C    0.130
                            13 O    0.125
    15   6 C    3.912 --    34 C    1.298    14 N    1.229    16 C    1.227
    16   6 C    3.620 --    17 C    1.699    15 C    1.227    34 C    0.270
                            20 C    0.127
    17   6 C    3.518 --    16 C    1.699    18 C    1.290    34 C    0.156
                            14 N    0.130
    18   6 C    3.889 --    17 C    1.290    19 N    1.237    33 C    1.119
    19   7 N    3.264 --    20 C    1.668    18 C    1.237
    20   6 C    3.730 --    19 N    1.668    21 C    1.392    25 N    0.169
                            16 C    0.127
    21   6 C    3.946 --    20 C    1.392    24 C    1.224    22 C    1.081
    22   6 C    3.945 --    23 N    2.816    21 C    1.081
    23   7 N    2.994 --    22 C    2.816
    24   6 C    3.941 --    25 N    1.231    21 C    1.224    33 C    1.211
    25   7 N    3.083 --    24 C    1.231    26 C    1.221    20 C    0.169
    26   6 C    3.938 --    32 C    1.283    27 C    1.262    25 N    1.221
    27   6 C    3.689 --    28 C    1.662    26 C    1.262    29 C    0.376
                            32 C    0.153
    28   6 C    3.814 --    27 C    1.662    29 C    1.625    32 C    0.427
    29   6 C    3.670 --    28 C    1.625    30 C    1.358    27 C    0.376
                            32 C    0.153
    30   6 C    3.930 --    32 C    1.425    29 C    1.358    31 Br   0.995
    31  35 Br   1.196 --    30 C    0.995
    32   6 C    3.570 --    30 C    1.425    26 C    1.283    28 C    0.427
                            27 C    0.153    29 C    0.153
Note: The following floating-point exceptions are signalling: IEEE_UNDERFLOW_FLAG IEEE_DENORMAL
normal termination of xtb
    33   6 C    3.944 --    34 C    1.350    24 C    1.211    18 C    1.119
    34   6 C    3.407 --    33 C    1.350    15 C    1.298    16 C    0.270
                            17 C    0.156
 ---------------------------------------------------------------------------

Topologies differ in total number of bonds
Writing topology from bond orders to xtbtopo.mol

molecular dipole:
                 x           y           z       tot (Debye)
 q only:       -0.415      -0.305       0.560
   full:       -0.202       0.117       0.426       1.236
molecular quadrupole (traceless):
                xx          xy          yy          xz          yz          zz
 q only:        6.538      -7.788      -9.552      -0.855       3.874       3.014
  q+dip:       10.863     -10.361      -4.986     -10.853       1.551      -5.877
   full:       12.627     -11.503      -7.426      -6.612       0.570      -5.201


           -------------------------------------------------
          | TOTAL ENERGY              -80.846492724875 Eh   |
          | GRADIENT NORM               0.485192330213 Eh/α |
          | HOMO-LUMO GAP               0.034530431848 eV   |
           -------------------------------------------------

------------------------------------------------------------------------
 * finished run on 2026/07/23 at 16:37:12.463     
------------------------------------------------------------------------
 total:
 * wall-time:     0 d,  0 h,  0 min,  0.768 sec
 *  cpu-time:     0 d,  0 h,  0 min,  0.727 sec
 * ratio c/w:     0.946 speedup
 SCF:
 * wall-time:     0 d,  0 h,  0 min,  0.742 sec
 *  cpu-time:     0 d,  0 h,  0 min,  0.700 sec
 * ratio c/w:     0.944 speedup

