      -----------------------------------------------------------      
     |                   =====================                   |     
     |                           x T B                           |     
     |                   =====================                   |     
     |                         S. Grimme                         |     
     |          Mulliken Center for Theoretical Chemistry        |     
     |                    University of Bonn                     |     
      -----------------------------------------------------------      

   * xtb version 6.6.1 (unknown) compiled by 'builduser@buildhost' on 2023-08-07

   xtb is free software: you can redistribute it and/or modify it under
   the terms of the GNU Lesser General Public License as published by
   the Free Software Foundation, either version 3 of the License, or
   (at your option) any later version.
   
   xtb is distributed in the hope that it will be useful,
   but WITHOUT ANY WARRANTY; without even the implied warranty of
   MERCHANTABILITY or FITNESS FOR A PARTICULAR PURPOSE.  See the
   GNU Lesser General Public License for more details.
   
   Cite this work as:
   * C. Bannwarth, E. Caldeweyher, S. Ehlert, A. Hansen, P. Pracht,
     J. Seibert, S. Spicher, S. Grimme, WIREs Comput. Mol. Sci., 2020, 11,
     e01493. DOI: 10.1002/wcms.1493
   
   for GFN2-xTB:
   * C. Bannwarth, S. Ehlert and S. Grimme., J. Chem. Theory Comput., 2019,
     15, 1652-1671. DOI: 10.1021/acs.jctc.8b01176
   for GFN1-xTB:
   * S. Grimme, C. Bannwarth, P. Shushkov, J. Chem. Theory Comput., 2017,
     13, 1989-2009. DOI: 10.1021/acs.jctc.7b00118
   for GFN0-xTB:
   * P. Pracht, E. Caldeweyher, S. Ehlert, S. Grimme, ChemRxiv, 2019, preprint.
     DOI: 10.26434/chemrxiv.8326202.v1
   for GFN-FF:
   * S. Spicher and S. Grimme, Angew. Chem. Int. Ed., 2020, 59, 15665-15673.
     DOI: 10.1002/anie.202004239
   
   for ALPB and GBSA implicit solvation:
   * S. Ehlert, M. Stahn, S. Spicher, S. Grimme, J. Chem. Theory Comput.,
     2021, 17, 4250-4261. DOI: 10.1021/acs.jctc.1c00471
   
   for DFT-D4:
   * E. Caldeweyher, C. Bannwarth and S. Grimme, J. Chem. Phys., 2017,
     147, 034112. DOI: 10.1063/1.4993215
   * E. Caldeweyher, S. Ehlert, A. Hansen, H. Neugebauer, S. Spicher,
     C. Bannwarth and S. Grimme, J. Chem. Phys., 2019, 150, 154122.
     DOI: 10.1063/1.5090222
   * E. Caldeweyher, J.-M. Mewes, S. Ehlert and S. Grimme, Phys. Chem. Chem. Phys.
     2020, 22, 8499-8512. DOI: 10.1039/D0CP00502A
   
   for sTDA-xTB:
   * S. Grimme and C. Bannwarth, J. Chem. Phys., 2016, 145, 054103.
     DOI: 10.1063/1.4959605
   
   in the mass-spec context:
   * V. Asgeirsson, C. Bauer and S. Grimme, Chem. Sci., 2017, 8, 4879.
     DOI: 10.1039/c7sc00601b
   * J. Koopman and S. Grimme, ACS Omega 2019, 4, 12, 15120-15133.
     DOI: 10.1021/acsomega.9b02011
   
   for metadynamics refer to:
   * S. Grimme, J. Chem. Theory Comput., 2019, 155, 2847-2862
     DOI: 10.1021/acs.jctc.9b00143
   
   for SPH calculations refer to:
   * S. Spicher and S. Grimme, J. Chem. Theory Comput., 2021, 17, 1701-1714
     DOI: 10.1021/acs.jctc.0c01306
   
   with help from (in alphabetical order)
   P. Atkinson, C. Bannwarth, F. Bohle, G. Brandenburg, E. Caldeweyher
   M. Checinski, S. Dohm, S. Ehlert, S. Ehrlich, I. Gerasimov, C. Hölzer
   A. Katbashev, J. Koopman, C. Lavigne, S. Lehtola, F. März, M. Müller,
   F. Musil, H. Neugebauer, J. Pisarek, C. Plett, P. Pracht, F. Pultar,
   J. Seibert, P. Shushkov, S. Spicher, M. Stahn, M. Steiner, T. Strunk,
   J. Stückrath, T. Rose, and J. Unsleber
   
 * started run on 2026/07/23 at 16:42:48.640     

           -------------------------------------------------
          |                Calculation Setup                |
           -------------------------------------------------

          program call               : xtb /home/selva/covalent_quantum_benchmark/data/quantum/erbB_xyz/ERBB2__CHEMBL424959__state03.xyz --gfn2 --chrg 0 --uhf 0 --iterations 300
          coordinate file            : /home/selva/covalent_quantum_benchmark/data/quantum/erbB_xyz/ERBB2__CHEMBL424959__state03.xyz
          omp threads                :                    24

   ID    Z sym.   atoms
    1    6 C      1, 3-5, 7-9, 11, 13-16, 18-29, 31, 33-35, 37, 38
    2    8 O      2, 17, 32
    3    7 N      6, 10, 12, 30, 36

           -------------------------------------------------
          |                 G F N 2 - x T B                 |
           -------------------------------------------------

        Reference                      10.1021/acs.jctc.8b01176
      * Hamiltonian:
        H0-scaling (s, p, d)           1.850000    2.230000    2.230000
        zeta-weighting                 0.500000
      * Dispersion:
        s8                             2.700000
        a1                             0.520000
        a2                             5.000000
        s9                             5.000000
      * Repulsion:
        kExp                           1.500000    1.000000
        rExp                           1.000000
      * Coulomb:
        alpha                          2.000000
        third order                    shell-resolved
        anisotropic                    true
        a3                             3.000000
        a5                             4.000000
        cn-shift                       1.200000
        cn-exp                         4.000000
        max-rad                        5.000000


          ...................................................
          :                      SETUP                      :
          :.................................................:
          :  # basis functions                 152          :
          :  # atomic orbitals                 152          :
          :  # shells                           76          :
          :  # electrons                       163          :
          :  max. iterations                   300          :
          :  Hamiltonian                  GFN2-xTB          :
          :  restarted?                      false          :
          :  GBSA solvation                  false          :
          :  PC potential                    false          :
          :  electronic temp.          300.0000000     K    :
          :  accuracy                    1.0000000          :
          :  -> integral cutoff          0.2500000E+02      :
          :  -> integral neglect         0.1000000E-07      :
          :  -> SCF convergence          0.1000000E-05 Eh   :
          :  -> wf. convergence          0.1000000E-03 e    :
          :  Broyden damping             0.4000000          :
          ...................................................

 iter      E             dE          RMSdq      gap      omega  full diag
   1    -88.6080059 -0.886080E+02  0.904E+00    0.33       0.0  T
   2    -63.7332774  0.248747E+02  0.139E+01    0.30       1.0  T
   3    -59.1175188  0.461576E+01  0.130E+01    0.09       1.0  T
   4    -81.8424083 -0.227249E+02  0.889E+00    0.04       1.0  T
   5    -79.5399221  0.230249E+01  0.886E+00    0.05       1.0  T
   6    -85.9449698 -0.640505E+01  0.673E+00    0.01       1.0  T
   7    -87.3343603 -0.138939E+01  0.595E+00    0.04       1.0  T
   8    -88.8962337 -0.156187E+01  0.424E+00    0.20       1.0  T
   9    -89.0766476 -0.180414E+00  0.421E+00    0.06       1.0  T
  10    -89.6296502 -0.553003E+00  0.287E+00    0.03       1.0  T
  11    -89.9458606 -0.316210E+00  0.197E+00    0.04       1.0  T
  12    -89.0313147  0.914546E+00  0.377E+00    0.01       1.0  T
  13    -89.3822421 -0.350927E+00  0.324E+00    0.05       1.0  T
  14    -89.3091498  0.730923E-01  0.333E+00    0.03       1.0  T
  15    -89.5844192 -0.275269E+00  0.282E+00    0.05       1.0  T
  16    -89.5991021 -0.146829E-01  0.293E+00    0.08       1.0  T
  17    -89.4564974  0.142605E+00  0.270E+00    0.01       1.0  T
  18    -90.0071154 -0.550618E+00  0.127E+00    0.03       1.0  T
  19    -89.8213010  0.185814E+00  0.179E+00    0.00       1.0  T
  20    -90.0272526 -0.205952E+00  0.109E+00    0.02       1.0  T
  21    -90.0664540 -0.392014E-01  0.968E-01    0.03       1.0  T
  22    -90.0251022  0.413518E-01  0.110E+00    0.02       1.0  T
  23    -89.8364800  0.188622E+00  0.160E+00    0.01       1.0  T
  24    -89.9982822 -0.161802E+00  0.112E+00    0.03       1.0  T
  25    -89.9391820  0.591002E-01  0.139E+00    0.04       1.0  T
  26    -90.0003519 -0.611699E-01  0.119E+00    0.04       1.0  T
  27    -90.0134048 -0.130529E-01  0.113E+00    0.03       1.0  T
  28    -90.0437237 -0.303189E-01  0.985E-01    0.03       1.0  T
  29    -90.0887345 -0.450109E-01  0.649E-01    0.02       1.0  T
  30    -90.1226384 -0.339039E-01  0.310E-01    0.01       1.0  T
  31    -90.1250289 -0.239056E-02  0.253E-01    0.02       1.0  T
  32    -90.1259572 -0.928274E-03  0.200E-01    0.01       1.0  T
  33    -90.1267231 -0.765916E-03  0.140E-01    0.01       1.0  T
  34    -90.1265520  0.171140E-03  0.111E-01    0.01       1.0  T
  35    -90.1274788 -0.926780E-03  0.769E-02    0.01       1.0  T
  36    -90.1276933 -0.214567E-03  0.491E-02    0.01       1.0  T
  37    -90.1277679 -0.745765E-04  0.274E-02    0.01       1.0  T
  38    -90.1277865 -0.185667E-04  0.236E-02    0.01       1.0  T
  39    -90.1277961 -0.958573E-05  0.184E-02    0.01       1.0  T
  40    -90.1278084 -0.123039E-04  0.133E-02    0.01       1.2  T
  41    -90.1278138 -0.544443E-05  0.943E-03    0.01       1.7  T
  42    -90.1278189 -0.505079E-05  0.568E-03    0.01       2.9  T
  43    -90.1278192 -0.373787E-06  0.477E-03    0.01       3.4  T
  44    -90.1278204 -0.121413E-05  0.274E-03    0.01       5.9  T
  45    -90.1278209 -0.441753E-06  0.120E-03    0.01      13.6  T
  46    -90.1278209 -0.114913E-08  0.995E-04    0.01      16.3  T
  47    -90.1278209 -0.395001E-07  0.622E-04    0.01      26.1  T

   *** convergence criteria satisfied after 47 iterations ***

         #    Occupation            Energy/Eh            Energy/eV
      -------------------------------------------------------------
         1        2.0000           -0.8071945             -21.9649
       ...           ...                  ...                  ...
        76        2.0000           -0.4290761             -11.6758
        77        1.9992           -0.4224059             -11.4943
        78        1.8828           -0.4175599             -11.3624
        79        1.8442           -0.4172650             -11.3544
        80        1.6994           -0.4165456             -11.3348
        81        1.6010           -0.4162075             -11.3256
        82        1.0200           -0.4148481             -11.2886 (HOMO)
        83        0.7781           -0.4143483             -11.2750 (LUMO)
        84        0.1745           -0.4124690             -11.2239
        85        0.0008           -0.4072167             -11.0809
        86        0.0000           -0.4002570             -10.8915
        87                         -0.3962418             -10.7823
       ...                                ...                  ...
       152                          1.0512540              28.6061
      -------------------------------------------------------------
                  HL-Gap            0.0004998 Eh            0.0136 eV
             Fermi-level           -0.4148073 Eh          -11.2875 eV

 SCC (total)                   0 d,  0 h,  0 min,  0.839 sec
 SCC setup                      ...        0 min,  0.001 sec (  0.074%)
 Dispersion                     ...        0 min,  0.002 sec (  0.210%)
 classical contributions        ...        0 min,  0.001 sec (  0.150%)
 integral evaluation            ...        0 min,  0.010 sec (  1.138%)
 iterations                     ...        0 min,  0.751 sec ( 89.551%)
 molecular gradient             ...        0 min,  0.055 sec (  6.525%)
 printout                       ...        0 min,  0.020 sec (  2.346%)

         :::::::::::::::::::::::::::::::::::::::::::::::::::::
         ::                     SUMMARY                     ::
         :::::::::::::::::::::::::::::::::::::::::::::::::::::
         :: total energy             -89.042011582279 Eh    ::
         :: gradient norm              0.514455421171 Eh/a0 ::
         :: HOMO-LUMO gap              0.013600026851 eV    ::
         ::.................................................::
         :: SCC energy               -90.127820926364 Eh    ::
         :: -> isotropic ES            0.018514331406 Eh    ::
         :: -> anisotropic ES          0.005181010071 Eh    ::
         :: -> anisotropic XC          0.060186918894 Eh    ::
         :: -> dispersion             -0.054127450073 Eh    ::
         :: repulsion energy           1.085044269396 Eh    ::
         :: add. restraining           0.000000000000 Eh    ::
         :: total charge               0.000000000014 e     ::
         :::::::::::::::::::::::::::::::::::::::::::::::::::::

           -------------------------------------------------
          |                Property Printout                |
           -------------------------------------------------

    * Orbital Energies and Occupations

         #    Occupation            Energy/Eh            Energy/eV
      -------------------------------------------------------------
         1        2.0000           -0.8071945             -21.9649
       ...           ...                  ...                  ...
        70        2.0000           -0.4484094             -12.2018
        71        2.0000           -0.4477011             -12.1826
        72        2.0000           -0.4433982             -12.0655
        73        2.0000           -0.4378269             -11.9139
        74        2.0000           -0.4369446             -11.8899
        75        2.0000           -0.4305125             -11.7148
        76        2.0000           -0.4290761             -11.6758
        77        1.9992           -0.4224059             -11.4943
        78        1.8828           -0.4175599             -11.3624
        79        1.8442           -0.4172650             -11.3544
        80        1.6994           -0.4165456             -11.3348
        81        1.6010           -0.4162075             -11.3256
        82        1.0200           -0.4148481             -11.2886 (HOMO)
        83        0.7781           -0.4143483             -11.2750 (LUMO)
        84        0.1745           -0.4124690             -11.2239
        85        0.0008           -0.4072167             -11.0809
        86        0.0000           -0.4002570             -10.8915
        87                         -0.3962418             -10.7823
        88                         -0.3956322             -10.7657
        89                         -0.3900468             -10.6137
        90                         -0.3862846             -10.5113
        91                         -0.3853925             -10.4871
        92                         -0.3632073              -9.8834
        93                         -0.3628632              -9.8740
       ...                                ...                  ...
       152                          1.0512540              28.6061
      -------------------------------------------------------------
                  HL-Gap            0.0004998 Eh            0.0136 eV
             Fermi-level           -0.4148073 Eh          -11.2875 eV

     #   Z          covCN         q      C6AA      α(0)
     1   6 C        0.870    -0.001    35.181     9.905
     2   8 O        1.703    -0.020    14.741     5.184
     3   6 C        2.860     0.157    24.600     8.130
     4   6 C        2.001    -0.073    33.035     9.282
     5   6 C        2.951     0.118    25.403     8.267
     6   7 N        1.844    -0.113    24.241     7.297
     7   6 C        1.969     0.058    29.594     8.785
     8   6 C        2.958     0.034    27.227     8.559
     9   6 C        1.907     0.123    28.075     8.557
    10   7 N        0.911    -0.179    24.874     7.213
    11   6 C        2.909     0.128    25.192     8.230
    12   7 N        1.828    -0.159    25.233     7.443
    13   6 C        2.891     0.140    24.958     8.191
    14   6 C        1.991    -0.061    32.687     9.233
    15   6 C        1.987    -0.076    33.126     9.295
    16   6 C        2.853     0.200    23.758     7.989
    17   8 O        1.703    -0.115    16.051     5.409
    18   6 C        1.845     0.057    29.712     8.805
    19   6 C        2.958     0.075    26.317     8.414
    20   6 C        1.990    -0.019    31.565     9.073
    21   6 C        1.985    -0.002    31.102     9.006
    22   6 C        1.987     0.041    29.996     8.845
    23   6 C        1.986    -0.008    31.261     9.029
    24   6 C        1.989    -0.033    31.920     9.124
    25   6 C        1.990    -0.052    32.450     9.199
    26   6 C        1.993    -0.027    31.752     9.100
    27   6 C        2.978     0.024    27.455     8.595
    28   6 C        1.997    -0.049    32.360     9.187
    29   6 C        2.922     0.117    25.419     8.268
    30   7 N        1.832    -0.198    26.124     7.574
    31   6 C        2.777     0.300    21.909     7.666
    32   8 O        0.856    -0.434    22.364     6.340
    33   6 C        1.968     0.010    30.812     8.964
    34   6 C        1.963     0.033    30.216     8.877
    35   6 C        1.907    -0.004    31.220     9.024
    36   7 N        2.721     0.189    18.103     6.319
    37   6 C        0.932    -0.094    38.548    10.402
    38   6 C        0.931    -0.089    38.363    10.376

 Mol. C6AA /au·bohr⁶  :      40042.025952
 Mol. C8AA /au·bohr⁸  :    1099663.145156
 Mol. α(0) /au        :        319.157170


Wiberg/Mayer (AO) data.
largest (>0.10) Wiberg bond orders for each atom

 ---------------------------------------------------------------------------
     #   Z sym  total        # sym  WBO       # sym  WBO       # sym  WBO
 ---------------------------------------------------------------------------
     1   6 C    2.195 --     2 O    1.553    28 C    0.198     4 C    0.142
     2   8 O    2.651 --     1 C    1.553     3 C    1.018
     3   6 C    3.863 --     4 C    1.449    29 C    1.112     2 O    1.018
     4   6 C    3.644 --     3 C    1.449     5 C    1.378    28 C    0.359
                             1 C    0.142
     5   6 C    3.925 --     4 C    1.378     6 N    1.241    27 C    1.081
     6   7 N    3.267 --     7 C    1.660     5 C    1.241
     7   6 C    3.473 --     6 N    1.660     8 C    1.365    12 N    0.139
     8   6 C    3.925 --     7 C    1.365    11 C    1.245     9 C    1.082
     9   6 C    3.944 --    10 N    2.815     8 C    1.082
    10   7 N    2.994 --     9 C    2.815
    11   6 C    3.946 --     8 C    1.245    12 N    1.232    27 C    1.185
    12   7 N    3.108 --    13 C    1.319    11 C    1.232     7 C    0.139
    13   6 C    3.898 --    12 N    1.319    26 C    1.207    14 C    1.194
    14   6 C    3.432 --    15 C    1.585    13 C    1.194    26 C    0.343
    15   6 C    3.449 --    14 C    1.585    16 C    1.252    25 C    0.334
    16   6 C    3.835 --    15 C    1.252    25 C    1.229    17 O    1.095
    17   8 O    2.438 --    18 C    1.134    16 C    1.095
    18   6 C    2.960 --    19 C    1.206    17 O    1.134
    19   6 C    3.896 --    20 C    1.252    24 C    1.251    18 C    1.206
    20   6 C    3.496 --    21 C    1.613    19 C    1.252    23 C    0.232
                            22 C    0.195
    21   6 C    3.618 --    20 C    1.613    22 C    1.608    24 C    0.258
    22   6 C    3.753 --    21 C    1.608    23 C    1.586    20 C    0.195
                            24 C    0.186
    23   6 C    3.616 --    24 C    1.595    22 C    1.586    20 C    0.232
    24   6 C    3.483 --    23 C    1.595    19 C    1.251    21 C    0.258
                            22 C    0.186
    25   6 C    3.414 --    26 C    1.609    16 C    1.229    15 C    0.334
    26   6 C    3.450 --    25 C    1.609    13 C    1.207    14 C    0.343
    27   6 C    3.959 --    28 C    1.416    11 C    1.185     5 C    1.081
    28   6 C    3.781 --    29 C    1.443    27 C    1.416     4 C    0.359
                             1 C    0.198
    29   6 C    3.957 --    28 C    1.443    30 N    1.168     3 C    1.112
    30   7 N    3.168 --    31 C    1.478    29 C    1.168    32 O    0.179
    31   6 C    3.939 --    30 N    1.478    32 O    1.371    33 C    1.001
    32   8 O    1.988 --    31 C    1.371    30 N    0.179    33 C    0.135
    33   6 C    3.766 --    34 C    2.234    31 C    1.001    37 C    0.136
Note: The following floating-point exceptions are signalling: IEEE_UNDERFLOW_FLAG IEEE_DENORMAL
normal termination of xtb
                            32 O    0.135    38 C    0.113
    34   6 C    3.835 --    33 C    2.234    35 C    1.384
    35   6 C    3.388 --    34 C    1.384    36 N    0.960    37 C    0.447
                            38 C    0.393
    36   7 N    3.702 --    38 C    1.362    37 C    1.342    35 C    0.960
    37   6 C    2.507 --    36 N    1.342    38 C    0.507    35 C    0.447
                            33 C    0.136
    38   6 C    2.469 --    36 N    1.362    37 C    0.507    35 C    0.393
                            33 C    0.113
 ---------------------------------------------------------------------------

Topologies differ in total number of bonds
Writing topology from bond orders to xtbtopo.mol

molecular dipole:
                 x           y           z       tot (Debye)
 q only:        0.090      -0.244      -0.235
   full:       -0.640      -0.267      -0.384       2.014
molecular quadrupole (traceless):
                xx          xy          yy          xz          yz          zz
 q only:       -5.139       9.706      -6.370      -8.835       4.679      11.509
  q+dip:       -1.081      12.030      -3.542     -10.574       9.011       4.623
   full:       -4.938      13.151      -3.520     -12.580      11.316       8.458


           -------------------------------------------------
          | TOTAL ENERGY              -89.042011582279 Eh   |
          | GRADIENT NORM               0.514455421171 Eh/α |
          | HOMO-LUMO GAP               0.013600026851 eV   |
           -------------------------------------------------

------------------------------------------------------------------------
 * finished run on 2026/07/23 at 16:42:49.501     
------------------------------------------------------------------------
 total:
 * wall-time:     0 d,  0 h,  0 min,  0.861 sec
 *  cpu-time:     0 d,  0 h,  0 min,  0.859 sec
 * ratio c/w:     0.998 speedup
 SCF:
 * wall-time:     0 d,  0 h,  0 min,  0.839 sec
 *  cpu-time:     0 d,  0 h,  0 min,  0.832 sec
 * ratio c/w:     0.992 speedup

