      -----------------------------------------------------------      
     |                   =====================                   |     
     |                           x T B                           |     
     |                   =====================                   |     
     |                         S. Grimme                         |     
     |          Mulliken Center for Theoretical Chemistry        |     
     |                    University of Bonn                     |     
      -----------------------------------------------------------      

   * xtb version 6.6.1 (unknown) compiled by 'builduser@buildhost' on 2023-08-07

   xtb is free software: you can redistribute it and/or modify it under
   the terms of the GNU Lesser General Public License as published by
   the Free Software Foundation, either version 3 of the License, or
   (at your option) any later version.
   
   xtb is distributed in the hope that it will be useful,
   but WITHOUT ANY WARRANTY; without even the implied warranty of
   MERCHANTABILITY or FITNESS FOR A PARTICULAR PURPOSE.  See the
   GNU Lesser General Public License for more details.
   
   Cite this work as:
   * C. Bannwarth, E. Caldeweyher, S. Ehlert, A. Hansen, P. Pracht,
     J. Seibert, S. Spicher, S. Grimme, WIREs Comput. Mol. Sci., 2020, 11,
     e01493. DOI: 10.1002/wcms.1493
   
   for GFN2-xTB:
   * C. Bannwarth, S. Ehlert and S. Grimme., J. Chem. Theory Comput., 2019,
     15, 1652-1671. DOI: 10.1021/acs.jctc.8b01176
   for GFN1-xTB:
   * S. Grimme, C. Bannwarth, P. Shushkov, J. Chem. Theory Comput., 2017,
     13, 1989-2009. DOI: 10.1021/acs.jctc.7b00118
   for GFN0-xTB:
   * P. Pracht, E. Caldeweyher, S. Ehlert, S. Grimme, ChemRxiv, 2019, preprint.
     DOI: 10.26434/chemrxiv.8326202.v1
   for GFN-FF:
   * S. Spicher and S. Grimme, Angew. Chem. Int. Ed., 2020, 59, 15665-15673.
     DOI: 10.1002/anie.202004239
   
   for ALPB and GBSA implicit solvation:
   * S. Ehlert, M. Stahn, S. Spicher, S. Grimme, J. Chem. Theory Comput.,
     2021, 17, 4250-4261. DOI: 10.1021/acs.jctc.1c00471
   
   for DFT-D4:
   * E. Caldeweyher, C. Bannwarth and S. Grimme, J. Chem. Phys., 2017,
     147, 034112. DOI: 10.1063/1.4993215
   * E. Caldeweyher, S. Ehlert, A. Hansen, H. Neugebauer, S. Spicher,
     C. Bannwarth and S. Grimme, J. Chem. Phys., 2019, 150, 154122.
     DOI: 10.1063/1.5090222
   * E. Caldeweyher, J.-M. Mewes, S. Ehlert and S. Grimme, Phys. Chem. Chem. Phys.
     2020, 22, 8499-8512. DOI: 10.1039/D0CP00502A
   
   for sTDA-xTB:
   * S. Grimme and C. Bannwarth, J. Chem. Phys., 2016, 145, 054103.
     DOI: 10.1063/1.4959605
   
   in the mass-spec context:
   * V. Asgeirsson, C. Bauer and S. Grimme, Chem. Sci., 2017, 8, 4879.
     DOI: 10.1039/c7sc00601b
   * J. Koopman and S. Grimme, ACS Omega 2019, 4, 12, 15120-15133.
     DOI: 10.1021/acsomega.9b02011
   
   for metadynamics refer to:
   * S. Grimme, J. Chem. Theory Comput., 2019, 155, 2847-2862
     DOI: 10.1021/acs.jctc.9b00143
   
   for SPH calculations refer to:
   * S. Spicher and S. Grimme, J. Chem. Theory Comput., 2021, 17, 1701-1714
     DOI: 10.1021/acs.jctc.0c01306
   
   with help from (in alphabetical order)
   P. Atkinson, C. Bannwarth, F. Bohle, G. Brandenburg, E. Caldeweyher
   M. Checinski, S. Dohm, S. Ehlert, S. Ehrlich, I. Gerasimov, C. Hölzer
   A. Katbashev, J. Koopman, C. Lavigne, S. Lehtola, F. März, M. Müller,
   F. Musil, H. Neugebauer, J. Pisarek, C. Plett, P. Pracht, F. Pultar,
   J. Seibert, P. Shushkov, S. Spicher, M. Stahn, M. Steiner, T. Strunk,
   J. Stückrath, T. Rose, and J. Unsleber
   
 * started run on 2026/07/23 at 16:37:03.551     

           -------------------------------------------------
          |                Calculation Setup                |
           -------------------------------------------------

          program call               : xtb /home/selva/covalent_quantum_benchmark/data/quantum/erbB_xyz/EGFR__CHEMBL113996__state03.xyz --gfn2 --chrg 0 --uhf 0 --iterations 300
          coordinate file            : /home/selva/covalent_quantum_benchmark/data/quantum/erbB_xyz/EGFR__CHEMBL113996__state03.xyz
          omp threads                :                    24

   ID    Z sym.   atoms
    1    6 C      1, 3-5, 7-9, 11, 13-16, 18, 20-23, 25, 27-29, 31, 32, 34, 35
    2    8 O      2, 26, 33
    3    7 N      6, 10, 12, 24, 30
    4    9 F      17
    5   17 Cl     19

           -------------------------------------------------
          |                 G F N 2 - x T B                 |
           -------------------------------------------------

        Reference                      10.1021/acs.jctc.8b01176
      * Hamiltonian:
        H0-scaling (s, p, d)           1.850000    2.230000    2.230000
        zeta-weighting                 0.500000
      * Dispersion:
        s8                             2.700000
        a1                             0.520000
        a2                             5.000000
        s9                             5.000000
      * Repulsion:
        kExp                           1.500000    1.000000
        rExp                           1.000000
      * Coulomb:
        alpha                          2.000000
        third order                    shell-resolved
        anisotropic                    true
        a3                             3.000000
        a5                             4.000000
        cn-shift                       1.200000
        cn-exp                         4.000000
        max-rad                        5.000000


          ...................................................
          :                      SETUP                      :
          :.................................................:
          :  # basis functions                 146          :
          :  # atomic orbitals                 145          :
          :  # shells                           71          :
          :  # electrons                       157          :
          :  max. iterations                   300          :
          :  Hamiltonian                  GFN2-xTB          :
          :  restarted?                      false          :
          :  GBSA solvation                  false          :
          :  PC potential                    false          :
          :  electronic temp.          300.0000000     K    :
          :  accuracy                    1.0000000          :
          :  -> integral cutoff          0.2500000E+02      :
          :  -> integral neglect         0.1000000E-07      :
          :  -> SCF convergence          0.1000000E-05 Eh   :
          :  -> wf. convergence          0.1000000E-03 e    :
          :  Broyden damping             0.4000000          :
          ...................................................

 iter      E             dE          RMSdq      gap      omega  full diag
   1    -88.3679106 -0.883679E+02  0.845E+00    0.45       0.0  T
   2    -82.8794655  0.548845E+01  0.103E+01    0.12       1.0  T
   3    -81.1276936  0.175177E+01  0.897E+00    0.12       1.0  T
   4    -80.4117245  0.715969E+00  0.894E+00    0.18       1.0  T
   5    -78.5113965  0.190033E+01  0.858E+00    0.15       1.0  T
   6    -80.5378072 -0.202641E+01  0.839E+00    0.03       1.0  T
   7    -87.7974797 -0.725967E+01  0.453E+00    0.17       1.0  T
   8    -88.4464539 -0.648974E+00  0.345E+00    0.20       1.0  T
   9    -88.1042467  0.342207E+00  0.360E+00    0.02       1.0  T
  10    -88.4653596 -0.361113E+00  0.301E+00    0.28       1.0  T
  11    -88.5595063 -0.941467E-01  0.283E+00    0.28       1.0  T
  12    -88.6334764 -0.739700E-01  0.251E+00    0.38       1.0  T
  13    -88.8362436 -0.202767E+00  0.191E+00    0.33       1.0  T
  14    -88.7597075  0.765361E-01  0.186E+00    0.11       1.0  T
  15    -88.8698240 -0.110116E+00  0.158E+00    0.15       1.0  T
  16    -88.8662407  0.358324E-02  0.146E+00    0.01       1.0  T
  17    -88.8725354 -0.629472E-02  0.141E+00    0.03       1.0  T
  18    -88.0723826  0.800153E+00  0.373E+00    0.05       1.0  T
  19    -88.1412835 -0.689009E-01  0.360E+00    0.03       1.0  T
  20    -88.2926195 -0.151336E+00  0.339E+00    0.06       1.0  T
  21    -88.2181119  0.745077E-01  0.350E+00    0.08       1.0  T
  22    -87.8487343  0.369378E+00  0.388E+00    0.20       1.0  T
  23    -88.1853272 -0.336593E+00  0.349E+00    0.15       1.0  T
  24    -88.3734578 -0.188131E+00  0.311E+00    0.08       1.0  T
  25    -89.0013365 -0.627879E+00  0.693E-01    0.04       1.0  T
  26    -89.0142949 -0.129584E-01  0.516E-01    0.05       1.0  T
  27    -88.9724690  0.418259E-01  0.925E-01    0.02       1.0  T
  28    -88.8402360  0.132233E+00  0.168E+00    0.02       1.0  T
  29    -88.9914702 -0.151234E+00  0.778E-01    0.03       1.0  T
  30    -88.9728118  0.186584E-01  0.942E-01    0.02       1.0  T
  31    -88.9887623 -0.159505E-01  0.781E-01    0.03       1.0  T
  32    -88.9658043  0.229580E-01  0.960E-01    0.02       1.0  T
  33    -88.9856319 -0.198276E-01  0.788E-01    0.03       1.0  T
  34    -89.0093391 -0.237072E-01  0.497E-01    0.04       1.0  T
  35    -89.0148304 -0.549128E-02  0.396E-01    0.04       1.0  T
  36    -89.0241997 -0.936929E-02  0.136E-01    0.06       1.0  T
  37    -89.0252506 -0.105094E-02  0.536E-02    0.07       1.0  T
  38    -89.0246503  0.600292E-03  0.102E-01    0.07       1.0  T
  39    -89.0242181  0.432215E-03  0.133E-01    0.08       1.0  T
  40    -89.0252853 -0.106719E-02  0.578E-02    0.07       1.0  T
  41    -89.0252406  0.446319E-04  0.651E-02    0.07       1.0  T
  42    -89.0253414 -0.100716E-03  0.510E-02    0.07       1.0  T
  43    -89.0253445 -0.310975E-05  0.492E-02    0.07       1.0  T
  44    -89.0253599 -0.153772E-04  0.453E-02    0.07       1.0  T
  45    -89.0253882 -0.283140E-04  0.399E-02    0.07       1.0  T
  46    -89.0254721 -0.838914E-04  0.187E-02    0.07       1.0  T
  47    -89.0254916 -0.195446E-04  0.657E-03    0.07       2.6  T
  48    -89.0254936 -0.196002E-05  0.351E-03    0.07       4.8  T
  49    -89.0254941 -0.574286E-06  0.166E-03    0.07      10.2  T
  50    -89.0254944 -0.221150E-06  0.624E-04    0.07      27.1  T
  51    -89.0254944 -0.159386E-07  0.227E-04    0.07      74.4  T

   *** convergence criteria satisfied after 51 iterations ***

         #    Occupation            Energy/Eh            Energy/eV
      -------------------------------------------------------------
         1        2.0000           -1.0961397             -29.8275
       ...           ...                  ...                  ...
        73        2.0000           -0.4398175             -11.9680
        74        2.0000           -0.4393600             -11.9556
        75        1.9995           -0.4357555             -11.8575
        76        1.9926           -0.4331698             -11.7872
        77        1.9445           -0.4312186             -11.7341
        78        1.5775           -0.4289594             -11.6726
        79        1.2007           -0.4279129             -11.6441 (HOMO)
        80        0.2852           -0.4253646             -11.5748 (LUMO)
        81        0.0000           -0.4137851             -11.2597
        82        0.0000           -0.4121706             -11.2157
        83                         -0.4099356             -11.1549
        84                         -0.4041980             -10.9988
       ...                                ...                  ...
       145                          1.0389638              28.2716
      -------------------------------------------------------------
                  HL-Gap            0.0025483 Eh            0.0693 eV
             Fermi-level           -0.4274155 Eh          -11.6306 eV

 SCC (total)                   0 d,  0 h,  0 min,  0.836 sec
 SCC setup                      ...        0 min,  0.000 sec (  0.057%)
 Dispersion                     ...        0 min,  0.002 sec (  0.190%)
 classical contributions        ...        0 min,  0.001 sec (  0.084%)
 integral evaluation            ...        0 min,  0.014 sec (  1.634%)
 iterations                     ...        0 min,  0.775 sec ( 92.671%)
 molecular gradient             ...        0 min,  0.033 sec (  3.972%)
 printout                       ...        0 min,  0.012 sec (  1.386%)

         :::::::::::::::::::::::::::::::::::::::::::::::::::::
         ::                     SUMMARY                     ::
         :::::::::::::::::::::::::::::::::::::::::::::::::::::
         :: total energy             -88.106412168311 Eh    ::
         :: gradient norm              0.507676584408 Eh/a0 ::
         :: HOMO-LUMO gap              0.069342053646 eV    ::
         ::.................................................::
         :: SCC energy               -89.025494373784 Eh    ::
         :: -> isotropic ES            0.050171796713 Eh    ::
         :: -> anisotropic ES          0.008587246456 Eh    ::
         :: -> anisotropic XC          0.045705326081 Eh    ::
         :: -> dispersion             -0.052197091250 Eh    ::
         :: repulsion energy           0.917718219372 Eh    ::
         :: add. restraining           0.000000000000 Eh    ::
         :: total charge               0.000000000004 e     ::
         :::::::::::::::::::::::::::::::::::::::::::::::::::::

           -------------------------------------------------
          |                Property Printout                |
           -------------------------------------------------

    * Orbital Energies and Occupations

         #    Occupation            Energy/Eh            Energy/eV
      -------------------------------------------------------------
         1        2.0000           -1.0961397             -29.8275
       ...           ...                  ...                  ...
        67        2.0000           -0.4662791             -12.6881
        68        2.0000           -0.4599040             -12.5146
        69        2.0000           -0.4546130             -12.3706
        70        2.0000           -0.4525786             -12.3153
        71        2.0000           -0.4453854             -12.1196
        72        2.0000           -0.4434770             -12.0676
        73        2.0000           -0.4398175             -11.9680
        74        2.0000           -0.4393600             -11.9556
        75        1.9995           -0.4357555             -11.8575
        76        1.9926           -0.4331698             -11.7872
        77        1.9445           -0.4312186             -11.7341
        78        1.5775           -0.4289594             -11.6726
        79        1.2007           -0.4279129             -11.6441 (HOMO)
        80        0.2852           -0.4253646             -11.5748 (LUMO)
        81        0.0000           -0.4137851             -11.2597
        82        0.0000           -0.4121706             -11.2157
        83                         -0.4099356             -11.1549
        84                         -0.4041980             -10.9988
        85                         -0.3974937             -10.8164
        86                         -0.3787170             -10.3054
        87                         -0.3676352             -10.0039
        88                         -0.3647925              -9.9265
        89                         -0.3565254              -9.7016
        90                         -0.3532093              -9.6113
       ...                                ...                  ...
       145                          1.0389638              28.2716
      -------------------------------------------------------------
                  HL-Gap            0.0025483 Eh            0.0693 eV
             Fermi-level           -0.4274155 Eh          -11.6306 eV

     #   Z          covCN         q      C6AA      α(0)
     1   6 C        0.868     0.006    34.978     9.875
     2   8 O        1.703    -0.027    14.829     5.199
     3   6 C        2.857     0.148    24.776     8.158
     4   6 C        2.001    -0.071    32.964     9.272
     5   6 C        2.950     0.119    25.382     8.263
     6   7 N        1.844    -0.109    24.151     7.283
     7   6 C        1.969     0.061    29.512     8.773
     8   6 C        2.958     0.040    27.098     8.538
     9   6 C        1.907     0.125    28.037     8.551
    10   7 N        0.911    -0.169    24.656     7.182
    11   6 C        2.912     0.130    25.158     8.225
    12   7 N        1.828    -0.147    24.959     7.403
    13   6 C        2.893     0.135    25.044     8.205
    14   6 C        1.993    -0.024    31.686     9.091
    15   6 C        1.986    -0.027    31.761     9.101
    16   6 C        2.806     0.194    23.859     8.002
    17   9 F        0.787    -0.153    10.764     3.875
    18   6 C        2.878     0.089    26.019     8.362
    19  17 Cl       0.962    -0.074   101.470    15.411
    20   6 C        2.028    -0.105    33.921     9.406
    21   6 C        2.977     0.026    27.428     8.591
    22   6 C        1.995    -0.051    32.428     9.196
    23   6 C        2.943     0.094    25.907     8.348
    24   7 N        1.831    -0.176    25.604     7.498
    25   6 C        2.805     0.294    22.011     7.686
    26   8 O        0.861    -0.372    21.133     6.164
    27   6 C        1.965     0.010    30.799     8.962
    28   6 C        1.968     0.024    30.437     8.909
    29   6 C        1.898     0.004    31.011     8.994
    30   7 N        2.724     0.101    19.497     6.558
    31   6 C        1.897    -0.037    32.097     9.150
    32   6 C        1.854     0.048    29.930     8.837
    33   8 O        1.695    -0.094    15.753     5.359
    34   6 C        1.854     0.042    30.060     8.856
    35   6 C        1.897    -0.056    32.639     9.227

 Mol. C6AA /au·bohr⁶  :      33905.411071
 Mol. C8AA /au·bohr⁸  :     940476.198134
 Mol. α(0) /au        :        290.512957


Wiberg/Mayer (AO) data.
largest (>0.10) Wiberg bond orders for each atom

 ---------------------------------------------------------------------------
     #   Z sym  total        # sym  WBO       # sym  WBO       # sym  WBO
 ---------------------------------------------------------------------------
     1   6 C    2.161 --     2 O    1.547    22 C    0.186     4 C    0.160
     2   8 O    2.644 --     1 C    1.547     3 C    1.019
     3   6 C    3.864 --     4 C    1.445    23 C    1.117     2 O    1.019
     4   6 C    3.658 --     3 C    1.445     5 C    1.375    22 C    0.334
                             1 C    0.160
     5   6 C    3.932 --     4 C    1.375     6 N    1.244    21 C    1.085
     6   7 N    3.296 --     7 C    1.654     5 C    1.244
     7   6 C    3.623 --     6 N    1.654     8 C    1.380    12 N    0.242
     8   6 C    3.942 --     7 C    1.380    11 C    1.234     9 C    1.080
     9   6 C    3.945 --    10 N    2.818     8 C    1.080
    10   7 N    3.001 --     9 C    2.818
    11   6 C    3.958 --    12 N    1.257     8 C    1.234    21 C    1.181
    12   7 N    3.208 --    11 C    1.257    13 C    1.253     7 C    0.242
    13   6 C    3.916 --    20 C    1.253    12 N    1.253    14 C    1.226
    14   6 C    3.613 --    15 C    1.774    13 C    1.226    20 C    0.344
    15   6 C    3.443 --    14 C    1.774    16 C    1.358    20 C    0.163
    16   6 C    3.780 --    15 C    1.358    18 C    1.250    17 F    1.006
    17   9 F    1.155 --    16 C    1.006
    18   6 C    3.898 --    20 C    1.461    16 C    1.250    19 Cl   1.004
    19  17 Cl   1.188 --    18 C    1.004
    20   6 C    3.435 --    18 C    1.461    13 C    1.253    14 C    0.344
                            15 C    0.163
    21   6 C    3.961 --    22 C    1.408    11 C    1.181     5 C    1.085
    22   6 C    3.766 --    23 C    1.450    21 C    1.408     4 C    0.334
                             1 C    0.186
    23   6 C    3.961 --    22 C    1.450    24 N    1.151     3 C    1.117
    24   7 N    3.179 --    25 C    1.494    23 C    1.151    26 O    0.176
    25   6 C    3.942 --    24 N    1.494    26 O    1.385    27 C    0.967
    26   8 O    1.991 --    25 C    1.385    24 N    0.176    27 C    0.160
                            29 C    0.147
    27   6 C    3.691 --    28 C    2.220    25 C    0.967    26 O    0.160
                            29 C    0.149
    28   6 C    3.881 --    27 C    2.220    29 C    1.365
    29   6 C    3.270 --    28 C    1.365    30 N    1.092    27 C    0.149
                            26 O    0.147    31 C    0.139    35 C    0.133
    30   7 N    3.606 --    31 C    1.176    35 C    1.162    29 C    1.092
Note: The following floating-point exceptions are signalling: IEEE_UNDERFLOW_FLAG IEEE_DENORMAL
normal termination of xtb
    31   6 C    3.209 --    32 C    1.414    30 N    1.176    35 C    0.191
                            34 C    0.181    29 C    0.139
    32   6 C    3.127 --    31 C    1.414    33 O    1.161    34 C    0.221
                            35 C    0.176
    33   8 O    2.518 --    32 C    1.161    34 C    1.151
    34   6 C    3.140 --    35 C    1.422    33 O    1.151    32 C    0.221
                            31 C    0.181
    35   6 C    3.196 --    34 C    1.422    30 N    1.162    31 C    0.191
                            32 C    0.176    29 C    0.133
 ---------------------------------------------------------------------------

Topologies differ in total number of bonds
Writing topology from bond orders to xtbtopo.mol

molecular dipole:
                 x           y           z       tot (Debye)
 q only:        0.612      -0.160       1.877
   full:        0.399       0.518       1.321       3.745
molecular quadrupole (traceless):
                xx          xy          yy          xz          yz          zz
 q only:      -12.383      -6.499      11.073      -9.605     -13.329       1.310
  q+dip:      -16.267       0.769      18.230     -12.207      -8.585      -1.963
   full:      -18.949       2.298      21.421     -10.413      -9.445      -2.473


           -------------------------------------------------
          | TOTAL ENERGY              -88.106412168311 Eh   |
          | GRADIENT NORM               0.507676584408 Eh/α |
          | HOMO-LUMO GAP               0.069342053646 eV   |
           -------------------------------------------------

------------------------------------------------------------------------
 * finished run on 2026/07/23 at 16:37:04.405     
------------------------------------------------------------------------
 total:
 * wall-time:     0 d,  0 h,  0 min,  0.855 sec
 *  cpu-time:     0 d,  0 h,  0 min,  0.844 sec
 * ratio c/w:     0.988 speedup
 SCF:
 * wall-time:     0 d,  0 h,  0 min,  0.836 sec
 *  cpu-time:     0 d,  0 h,  0 min,  0.824 sec
 * ratio c/w:     0.986 speedup

